rm: cannot remove 'WAVECAR': No such file or directory
 running    8 mpi-ranks, with   72 threads/rank, on    2 nodes
 distrk:  each k-point on    8 cores,    1 groups
 distr:  one band on    1 cores,    8 groups
 Offloading initialized ...    8 GPUs detected
 vasp.6.5.1 10Mar25 (build Mar 18 2026 11:13:34) gamma-only                      
 POSCAR found :  2 types and    1080 ions
 scaLAPACK will be used selectively (only on CPU)
 LDA part: xc-table for (Slater(with rela. corr.)+CA(PZ))
 , standard interpolation
 POSCAR, INCAR and KPOINTS ok, starting setup
 FFT: planning ... GRIDC
 FFT: planning ... GRID_SOFT
 FFT: planning ... GRID
 WAVECAR not read
 entering main loop
       N       E                     dE             d eps       ncg     rms          rms(c)
RMM:   1     0.139431585111E+06    0.13943E+06   -0.58735E+06  5184   0.220E+03
RMM:   2     0.101729640229E+05   -0.12926E+06   -0.21102E+06  5184   0.606E+02
RMM:   3     0.296693437369E+05    0.19496E+05   -0.46702E+05  5184   0.369E+02
RMM:   4     0.190100372957E+05   -0.10659E+05   -0.15356E+05  5184   0.390E+02
RMM:   5     0.104749083731E+05   -0.85351E+04   -0.78211E+04  5184   0.226E+02
RMM:   6     0.461106629219E+04   -0.58638E+04   -0.47005E+04  5184   0.200E+02
RMM:   7     0.516426244213E+03   -0.40946E+04   -0.37976E+04  5184   0.150E+02
RMM:   8    -0.249865698609E+04   -0.30151E+04   -0.27781E+04  5184   0.146E+02
RMM:   9    -0.541385451873E+04   -0.29152E+04   -0.28055E+04 19690   0.116E+02
RMM:  10    -0.334114736935E+04    0.20727E+04   -0.16459E+03 20482   0.552E+01
 -----------------------------------------------------------------------------
|                                                                             |
|           W    W    AA    RRRRR   N    N  II  N    N   GGGG   !!!           |
|           W    W   A  A   R    R  NN   N  II  NN   N  G    G  !!!           |
|           W    W  A    A  R    R  N N  N  II  N N  N  G       !!!           |
|           W WW W  AAAAAA  RRRRR   N  N N  II  N  N N  G  GGG   !            |
|           WW  WW  A    A  R   R   N   NN  II  N   NN  G    G                |
|           W    W  A    A  R    R  N    N  II  N    N   GGGG   !!!           |
|                                                                             |
|     The electronic self-consistency was not achieved in the given           |
|     number of steps (NELM). The forces and other quantities evaluated       |
|     might not be reliable so examine the results carefully. If you find     |
|     spurious results, we suggest increasing NELM, if you were close to      |
|     convergence or switching to a different ALGO or adjusting the           |
|     density mixing parameters otherwise.                                    |
|                                                                             |
 -----------------------------------------------------------------------------

   1 F= -.33411474E+04 E0= -.33399288E+04  d E =-.243720E+01
Warning: ieee_invalid is signaling
Warning: ieee_divide_by_zero is signaling
Warning: ieee_underflow is signaling
Warning: ieee_inexact is signaling
FORTRAN STOP
Warning: ieee_invalid is signaling
Warning: ieee_divide_by_zero is signaling
Warning: ieee_underflow is signaling
Warning: ieee_inexact is signaling
FORTRAN STOP
Warning: ieee_invalid is signaling
Warning: ieee_divide_by_zero is signaling
Warning: ieee_underflow is signaling
Warning: ieee_inexact is signaling
FORTRAN STOP
Warning: ieee_invalid is signaling
Warning: ieee_divide_by_zero is signaling
Warning: ieee_underflow is signaling
Warning: ieee_inexact is signaling
FORTRAN STOP
Warning: ieee_invalid is signaling
Warning: ieee_divide_by_zero is signaling
Warning: ieee_underflow is signaling
Warning: ieee_inexact is signaling
FORTRAN STOP
Warning: ieee_invalid is signaling
Warning: ieee_divide_by_zero is signaling
Warning: ieee_underflow is signaling
Warning: ieee_inexact is signaling
FORTRAN STOP
Warning: ieee_invalid is signaling
Warning: ieee_divide_by_zero is signaling
Warning: ieee_underflow is signaling
Warning: ieee_inexact is signaling
FORTRAN STOP
Warning: ieee_invalid is signaling
Warning: ieee_divide_by_zero is signaling
Warning: ieee_underflow is signaling
Warning: ieee_inexact is signaling
FORTRAN STOP
