 running  256 mpi-ranks, with    8 threads/rank, on    8 nodes
 distrk:  each k-point on  128 cores,    2 groups
 distr:  one band on    1 cores,  128 groups
 Offloading initialized ...   32 GPUs detected
 WARNING: INIT_OFFLOAD: several MPI-ranks need to share a GPU, which is not
     supported by NCCL. The use of NCCL will be switched off. To avoid this,
     reduce the number of MPI-ranks: #-of-ranks <= #-of-GPUs (on every node!).

 vasp.6.5.1 10Mar25 (build Mar 18 2026 11:36:21) complex                         
 POSCAR found type information on POSCAR CdTe
 POSCAR found :  2 types and      65 ions
 -----------------------------------------------------------------------------
|                                                                             |
|           W    W    AA    RRRRR   N    N  II  N    N   GGGG   !!!           |
|           W    W   A  A   R    R  NN   N  II  NN   N  G    G  !!!           |
|           W    W  A    A  R    R  N N  N  II  N N  N  G       !!!           |
|           W WW W  AAAAAA  RRRRR   N  N N  II  N  N N  G  GGG   !            |
|           WW  WW  A    A  R   R   N   NN  II  N   NN  G    G                |
|           W    W  A    A  R    R  N    N  II  N    N   GGGG   !!!           |
|                                                                             |
|     You requested a magnetic or noncollinear calculation, but did not       |
|     specify the initial magnetic moment with the MAGMOM tag. Note that      |
|     a default of 1 will be used for all atoms. This ferromagnetic setup     |
|     may break the symmetry of the crystal, in particular it may rule        |
|     out finding an antiferromagnetic solution. Thence, we recommend         |
|     setting the initial magnetic moment manually or verifying carefully     |
|     that this magnetic setup is desired.                                    |
|                                                                             |
 -----------------------------------------------------------------------------

 scaLAPACK will be used selectively (only on CPU)
 -----------------------------------------------------------------------------
|                                                                             |
|               ----> ADVICE to this user running VASP <----                  |
|                                                                             |
|     You have a (more or less) 'large supercell' and for larger cells it     |
|     might be more efficient to use real-space projection operators.         |
|     Therefore, try LREAL= Auto in the INCAR file.                           |
|     Mind: For very accurate calculation, you might also keep the            |
|     reciprocal projection scheme (i.e. LREAL=.FALSE.).                      |
|                                                                             |
 -----------------------------------------------------------------------------

slurmstepd: error: Detected 1 oom_kill event in StepId=3290222.0. Some of the step tasks have been OOM Killed.
srun: error: nid011288: task 244: Out Of Memory
srun: Terminating StepId=3290222.0
MPICH ERROR [Rank 162] [job id 3290222.0] [Mon Mar 23 15:23:26 2026] [nid011286] - Abort(137437839) (rank 162 in comm 0): Fatal error in PMPI_Alltoallv: Other MPI error, error stack:
PMPI_Alltoallv(386)............: MPI_Alltoallv(sbuf=0x37d5e3b0, scnts=0x304bb320, sdispls=0x304bb0f0, MPI_DOUBLE_COMPLEX, rbuf=0x3769abd0, rcnts=0x304b8e30, rdispls=0x304b8b40, datatype=MPI_DOUBLE_COMPLEX, comm=comm=0xc4000001) failed
MPIR_CRAY_Alltoallv(1187)......: 
MPIR_Waitall(167)..............: 
MPIR_Waitall_impl(51)..........: 
MPID_Progress_wait(201)........: 
MPIDI_Progress_test(97)........: 
MPIDI_OFI_handle_cq_error(1310): OFI poll failed (ofi_events.c:1312:MPIDI_OFI_handle_cq_error:Input/output error - Text file busy)

aborting job:
Fatal error in PMPI_Alltoallv: Other MPI error, error stack:
PMPI_Alltoallv(386)............: MPI_Alltoallv(sbuf=0x37d5e3b0, scnts=0x304bb320, sdispls=0x304bb0f0, MPI_DOUBLE_COMPLEX, rbuf=0x3769abd0, rcnts=0x304b8e30, rdispls=0x304b8b40, datatype=MPI_DOUBLE_COMPLEX, comm=comm=0xc4000001) failed
MPIR_CRAY_Alltoallv(1187)......: 
MPIR_Waitall(167)..............: 
MPIR_Waitall_impl(51)..........: 
MPID_Progress_wait(201)........: 
MPIDI_Progress_test(97)........: 
MPIDI_OFI_handle_cq_error(1310): OFI poll failed (ofi_events.c:1312:MPIDI_OFI_handle_cq_error:Input/output error - Text file busy)
slurmstepd: error: *** STEP 3290222.0 ON nid011281 CANCELLED AT 2026-03-23T15:23:26 ***
MPICH ERROR [Rank 133] [job id 3290222.0] [Mon Mar 23 15:23:26 2026] [nid011285] - Abort(3220111) (rank 133 in comm 0): Fatal error in PMPI_Alltoallv: Other MPI error, error stack:
PMPI_Alltoallv(386)............: MPI_Alltoallv(sbuf=0x2efed120, scnts=0x2784b8e0, sdispls=0x2784b6b0, MPI_DOUBLE_COMPLEX, rbuf=0x2e929100, rcnts=0x2784b480, rdispls=0x278491b0, datatype=MPI_DOUBLE_COMPLEX, comm=comm=0xc4000001) failed
MPIR_CRAY_Alltoallv(1187)......: 
MPIR_Waitall(167)..............: 
MPIR_Waitall_impl(51)..........: 
MPID_Progress_wait(201)........: 
MPIDI_Progress_test(97)........: 
MPIDI_OFI_handle_cq_error(1310): OFI poll failed (ofi_events.c:1312:MPIDI_OFI_handle_cq_error:Input/output error - Text file busy)

aborting job:
Fatal error in PMPI_Alltoallv: Other MPI error, error stack:
PMPI_Alltoallv(386)............: MPI_Alltoallv(sbuf=0x2efed120, scnts=0x2784b8e0, sdispls=0x2784b6b0, MPI_DOUBLE_COMPLEX, rbuf=0x2e929100, rcnts=0x2784b480, rdispls=0x278491b0, datatype=MPI_DOUBLE_COMPLEX, comm=comm=0xc4000001) failed
MPIR_CRAY_Alltoallv(1187)......: 
MPIR_Waitall(167)..............: 
MPIR_Waitall_impl(51)..........: 
MPID_Progress_wait(201)........: 
MPIDI_Progress_test(97)........: 
MPIDI_OFI_handle_cq_error(1310): OFI poll failed (ofi_events.c:1312:MPIDI_OFI_handle_cq_error:Input/output error - Text file busy)
srun: error: nid011287: tasks 192-223: Terminated
srun: error: nid011281: tasks 0-31: Terminated
srun: error: nid011282: tasks 32-63: Terminated
srun: error: nid011284: tasks 96-127: Terminated
srun: error: nid011285: tasks 128-159: Terminated
srun: error: nid011286: tasks 160-191: Terminated
srun: error: nid011283: tasks 64-95: Terminated
srun: Force Terminated StepId=3290222.0
