 vasp.6.5.1 10Mar25 (build Dec 19 2025 10:59:10) complex                         
 executed on        HPECrayEX_GCC date 2025.12.26  10:07:09
 running 8192 mpi-ranks, with    1 threads/rank, on   64 nodes
 distrk:  each k-point on 2048 cores,    4 groups
 distr:  one band on NCORE=   4 cores,  512 groups


--------------------------------------------------------------------------------------------------------


 INCAR:
   SYSTEM = CdTe
   ISTART = 0
   ICHARG = 2
   LWAVE = .FALSE.
   LCHARG = .FALSE.
   NCSHMEM = 1
   NBLOCK_FOCK = 8
   LSCAAWARE = .TRUE.
   NELMDL = 5
   NELM = 7
   ALGO = All
   ISIF = 2
   LHFCALC = .TRUE.
   AEXX = 0.25
   HFSCREEN = 0.2
   NBANDS = 640
   ENCUT = 450
   PREC = Accurate
   PRECFOCK = Fast
   LASPH = .TRUE.
   LREAL = .FALSE.
   ISMEAR = 0
   SIGMA = 0.05
   LNONCOLLINEAR = .TRUE.
   MAGMOM = 195*0
   NCORE = 4
   KPAR = 4

 POTCAR:    PAW_PBE Cd 06Sep2000                  
 POTCAR:    PAW_PBE Te 08Apr2002                  
 POTCAR:    PAW_PBE Cd 06Sep2000                  
   VRHFIN =Cd : s2 d10                                                                              
   LEXCH  = PE                                                                                      
   EATOM  =  1293.1815 eV,   95.0462 Ry                                                             
                                                                                                    
   TITEL  = PAW_PBE Cd 06Sep2000                                                                    
   LULTRA =        F    use ultrasoft PP ?                                                          
   IUNSCR =        1    unscreen: 0-lin 1-nonlin 2-no                                               
   RPACOR =    2.000    partial core radius                                                         
   POMASS =  112.411; ZVAL   =   12.000    mass and valenz                                          
   RCORE  =    2.300    outmost cutoff radius                                                       
   RWIGS  =    2.980; RWIGS  =    1.577    wigner-seitz radius (au A)                               
   ENMAX  =  274.336; ENMIN  =  205.752 eV                                                          
   RCLOC  =    2.054    cutoff for local pot                                                        
   LCOR   =        T    correct aug charges                                                         
   LPAW   =        T    paw PP                                                                      
   EAUG   =  456.106                                                                                
   DEXC   =    0.000                                                                                
   RMAX   =    2.358    core radius for proj-oper                                                   
   RAUG   =    1.300    factor for augmentation sphere                                              
   RDEP   =    2.450    radius for radial grids                                                     
   RDEPT  =    1.955    core radius for aug-charge                                                  
                                                                                                    
   Atomic configuration                                                                             
   12 entries                                                                                       
     n  l   j            E        occ.                                                              
     1  0  0.50    -26519.7817   2.0000                                                             
     2  0  0.50     -3936.9612   2.0000                                                             
     2  1  1.50     -3532.2230   6.0000                                                             
     3  0  0.50      -733.7908   2.0000                                                             
     3  1  1.50      -601.0792   6.0000                                                             
     3  2  2.50      -393.5307  10.0000                                                             
     4  0  0.50      -105.8977   2.0000                                                             
     4  1  1.50       -66.9488   6.0000                                                             
     4  2  2.50       -11.7331  10.0000                                                             
     5  0  0.50        -5.6592   2.0000                                                             
     5  1  0.50        -1.3606   0.0000                                                             
     4  3  2.50        -1.3606   0.0000                                                             
   Description                                                                                      
     l       E           TYP  RCUT    TYP  RCUT                                                     
     2    -11.7331479     23  2.300                                                                 
     2    -13.0937305     23  2.300                                                                 
     0     -5.6591502     23  2.300                                                                 
     0     -1.5561433     23  2.300                                                                 
     1     -2.7211652     23  2.300                                                                 
     1      8.3548275     23  2.300                                                                 
  local pseudopotential read in
  partial core-charges read in
  partial kinetic energy density read in
  atomic valenz-charges read in
  non local Contribution for L=           2  read in
    real space projection operators read in
  non local Contribution for L=           2  read in
    real space projection operators read in
  non local Contribution for L=           0  read in
    real space projection operators read in
  non local Contribution for L=           0  read in
    real space projection operators read in
  non local Contribution for L=           1  read in
    real space projection operators read in
  non local Contribution for L=           1  read in
    real space projection operators read in
    PAW grid and wavefunctions read in

   number of l-projection  operators is LMAX  =           6
   number of lm-projection operators is LMMAX =          18

 POTCAR:    PAW_PBE Te 08Apr2002                  
   VRHFIN =Te: s2p4                                                                                 
   LEXCH  = PE                                                                                      
   EATOM  =   223.2721 eV,   16.4100 Ry                                                             
                                                                                                    
   TITEL  = PAW_PBE Te 08Apr2002                                                                    
   LULTRA =        F    use ultrasoft PP ?                                                          
   IUNSCR =        1    unscreen: 0-lin 1-nonlin 2-no                                               
   RPACOR =    2.200    partial core radius                                                         
   POMASS =  127.600; ZVAL   =    6.000    mass and valenz                                          
   RCORE  =    2.300    outmost cutoff radius                                                       
   RWIGS  =    2.900; RWIGS  =    1.535    wigner-seitz radius (au A)                               
   ENMAX  =  174.982; ENMIN  =  131.236 eV                                                          
   ICORE  =        3    local potential                                                             
   LCOR   =        T    correct aug charges                                                         
   LPAW   =        T    paw PP                                                                      
   EAUG   =  368.792                                                                                
   DEXC   =    0.000                                                                                
   RMAX   =    2.345    core radius for proj-oper                                                   
   RAUG   =    1.300    factor for augmentation sphere                                              
   RDEP   =    2.397    radius for radial grids                                                     
   RDEPT  =    2.174    core radius for aug-charge                                                  
                                                                                                    
   Atomic configuration                                                                             
   13 entries                                                                                       
     n  l   j            E        occ.                                                              
     1  0  0.50    -31621.2075   2.0000                                                             
     2  0  0.50     -4848.7941   2.0000                                                             
     2  1  1.50     -4352.1960   6.0000                                                             
     3  0  0.50      -964.9612   2.0000                                                             
     3  1  1.50      -803.6179   6.0000                                                             
     3  2  2.50      -559.8710  10.0000                                                             
     4  0  0.50      -164.3522   2.0000                                                             
     4  1  1.50      -114.3756   6.0000                                                             
     4  2  2.50       -41.6483  10.0000                                                             
     5  0  0.50       -15.1072   2.0000                                                             
     5  1  0.50        -5.9526   4.0000                                                             
     5  2  1.50        -5.4423   0.0000                                                             
     4  3  2.50        -5.4423   0.0000                                                             
   Description                                                                                      
     l       E           TYP  RCUT    TYP  RCUT                                                     
     0    -15.1072389     23  2.300                                                                 
     0    -16.4678215     23  2.300                                                                 
     1     -5.9526306     23  2.300                                                                 
     1     -2.4873968     23  2.300                                                                 
     2     -5.4423304     23  2.300                                                                 
     3     -1.3605826     23  2.300                                                                 
  local pseudopotential read in
  partial core-charges read in
  partial kinetic energy density read in
  atomic valenz-charges read in
  non local Contribution for L=           0  read in
    real space projection operators read in
  non local Contribution for L=           0  read in
    real space projection operators read in
  non local Contribution for L=           1  read in
    real space projection operators read in
  non local Contribution for L=           1  read in
    real space projection operators read in
  non local Contribution for L=           2  read in
    real space projection operators read in
    PAW grid and wavefunctions read in

   number of l-projection  operators is LMAX  =           5
   number of lm-projection operators is LMMAX =          13

 -----------------------------------------------------------------------------
|                                                                             |
|               ----> ADVICE to this user running VASP <----                  |
|                                                                             |
|     You have a (more or less) 'large supercell' and for larger cells it     |
|     might be more efficient to use real-space projection operators.         |
|     Therefore, try LREAL= Auto in the INCAR file.                           |
|     Mind: For very accurate calculation, you might also keep the            |
|     reciprocal projection scheme (i.e. LREAL=.FALSE.).                      |
|                                                                             |
 -----------------------------------------------------------------------------

  PAW_PBE Cd 06Sep2000                  :
 energy of atom  1       EATOM=-1293.1815
 kinetic energy error for atom=    0.0084 (will be added to EATOM!!)
  PAW_PBE Te 08Apr2002                  :
 energy of atom  2       EATOM= -223.2721
 kinetic energy error for atom=    0.0008 (will be added to EATOM!!)


 POSCAR: Cd33 Te32
  positions in direct lattice
  No initial velocities read in


 exchange-correlation table for PE
   RHO(1)=    0.500       N(1)  =     2000
   RHO(2)=  100.500       N(2)  =     4000



--------------------------------------------------------------------------------------------------------


 ion  position               nearest neighbor table
   1  0.004  0.996  0.004-  44 2.79  35 2.93  54 2.93  65 2.93  33 2.94
   2  0.001  0.999  0.497-  55 2.82  34 2.82  64 2.82  45 2.84
   3  0.001  0.503  0.001-  63 2.82  56 2.82  37 2.82  42 2.84
   4  1.000  0.501  0.499-  57 2.82  62 2.82  36 2.82  43 2.84
   5  0.497  0.999  0.001-  39 2.82  50 2.82  61 2.82  48 2.84
   6  0.499  0.000  0.499-  38 2.82  51 2.82  60 2.82  49 2.84
   7  0.499  0.501  1.000-  41 2.82  59 2.82  52 2.82  46 2.84
   8  0.501  0.499  0.501-  47 2.82  40 2.83  53 2.83  58 2.83
   9  0.001  0.251  0.253-  54 2.82  34 2.82  62 2.82  42 2.84
  10  0.004  0.254  0.746-  43 2.79  35 2.93  55 2.93  63 2.93  33 2.94
  11  1.000  0.749  0.251-  56 2.82  64 2.82  36 2.82  44 2.84
  12  0.001  0.747  0.749-  65 2.82  57 2.82  37 2.82  45 2.84
  13  0.499  0.250  0.251-  38 2.82  50 2.82  58 2.82  46 2.84
  14  0.497  0.251  0.749-  39 2.82  51 2.82  59 2.82  47 2.84
  15  0.501  0.751  0.249-  48 2.82  40 2.83  52 2.83  60 2.83
  16  0.499  0.749  0.750-  41 2.82  61 2.82  53 2.82  49 2.84
  17  0.251  0.000  0.251-  34 2.82  50 2.82  60 2.82  44 2.84
  18  0.253  0.999  0.749-  35 2.82  51 2.82  61 2.82  45 2.84
  19  0.249  0.499  0.249-  42 2.82  36 2.83  52 2.83  58 2.83
  20  0.251  0.501  0.750-  37 2.82  59 2.82  53 2.82  43 2.84
  21  0.749  0.999  0.253-  54 2.82  38 2.82  64 2.82  48 2.84
  22  0.746  0.996  0.746-  49 2.79  39 2.93  55 2.93  65 2.93  33 2.94
  23  0.750  0.501  0.251-  56 2.82  62 2.82  40 2.82  46 2.84
  24  0.749  0.503  0.749-  63 2.82  57 2.82  41 2.82  47 2.84
  25  0.253  0.251  0.001-  35 2.82  50 2.82  59 2.82  42 2.84
  26  0.251  0.250  0.499-  34 2.82  51 2.82  58 2.82  43 2.84
  27  0.251  0.749  1.000-  37 2.82  61 2.82  52 2.82  44 2.84
  28  0.249  0.751  0.501-  45 2.82  36 2.83  53 2.83  60 2.83
  29  0.746  0.254  0.004-  46 2.79  39 2.93  54 2.93  63 2.93  33 2.94
  30  0.749  0.251  0.497-  55 2.82  38 2.82  62 2.82  47 2.84
  31  0.749  0.747  0.001-  65 2.82  56 2.82  41 2.82  48 2.84
  32  0.750  0.749  0.499-  57 2.82  64 2.82  40 2.82  49 2.84
  33  0.875  0.125  0.875-   1 2.94  10 2.94  22 2.94  29 2.94  35 3.37  39 3.37  54 3.37  55 3.37
                            63 3.37  65 3.37
  34  0.127  0.125  0.375-  17 2.82  26 2.82   2 2.82   9 2.82
  35  0.133  0.125  0.875-  18 2.82  25 2.82  10 2.93   1 2.93  33 3.37
  36  0.126  0.625  0.375-   4 2.82  11 2.82  19 2.83  28 2.83
  37  0.127  0.625  0.875-  20 2.82  27 2.82   3 2.82  12 2.82
  38  0.623  0.125  0.375-  13 2.82   6 2.82  21 2.82  30 2.82
  39  0.617  0.125  0.875-  14 2.82   5 2.82  22 2.93  29 2.93  33 3.37
  40  0.624  0.625  0.375-  23 2.82  32 2.82   8 2.83  15 2.83
  41  0.623  0.625  0.875-   7 2.82  16 2.82  31 2.82  24 2.82
  42  0.125  0.375  0.125-  19 2.82   9 2.84  25 2.84   3 2.84
  43  0.127  0.377  0.623-  10 2.79   4 2.84  26 2.84  20 2.84
  44  0.127  0.873  0.127-   1 2.79  11 2.84  17 2.84  27 2.84
  45  0.125  0.875  0.625-  28 2.82  18 2.84   2 2.84  12 2.84
  46  0.623  0.377  0.127-  29 2.79  13 2.84  23 2.84   7 2.84
  47  0.625  0.375  0.625-   8 2.82  14 2.84  24 2.84  30 2.84
  48  0.625  0.875  0.125-  15 2.82  21 2.84   5 2.84  31 2.84
  49  0.623  0.873  0.623-  22 2.79  32 2.84   6 2.84  16 2.84
  50  0.375  0.125  0.127-  17 2.82  13 2.82   5 2.82  25 2.82
  51  0.375  0.125  0.623-   6 2.82  26 2.82  18 2.82  14 2.82
  52  0.375  0.625  0.126-   7 2.82  27 2.82  19 2.83  15 2.83
  53  0.375  0.625  0.624-  16 2.82  20 2.82   8 2.83  28 2.83
  54  0.875  0.125  0.133-   9 2.82  21 2.82   1 2.93  29 2.93  33 3.37
  55  0.875  0.125  0.617-  30 2.82   2 2.82  22 2.93  10 2.93  33 3.37
  56  0.875  0.625  0.127-  11 2.82  23 2.82   3 2.82  31 2.82
  57  0.875  0.625  0.623-   4 2.82  32 2.82  12 2.82  24 2.82
  58  0.375  0.376  0.375-  26 2.82  13 2.82  19 2.83   8 2.83
  59  0.375  0.377  0.875-   7 2.82  20 2.82  14 2.82  25 2.82
  60  0.375  0.874  0.375-   6 2.82  17 2.82  15 2.83  28 2.83
  61  0.375  0.873  0.875-  16 2.82  27 2.82   5 2.82  18 2.82
  62  0.875  0.377  0.375-   4 2.82  23 2.82   9 2.82  30 2.82
  63  0.875  0.383  0.875-  24 2.82   3 2.82  10 2.93  29 2.93  33 3.37
  64  0.875  0.873  0.375-  11 2.82  32 2.82   2 2.82  21 2.82
  65  0.875  0.867  0.875-  12 2.82  31 2.82   1 2.93  22 2.93  33 3.37

  LATTYP: Found a simple cubic cell.
 ALAT       =    13.0867680000
  
  Lattice vectors:
  
 A1 = (  13.0867680000,   0.0000000000,   0.0000000000)
 A2 = (   0.0000000000,  13.0867680000,   0.0000000000)
 A3 = (   0.0000000000,   0.0000000000,  13.0867680000)


Analysis of symmetry for initial positions (statically):
=====================================================================
 Subroutine PRICEL returns:
 Original cell was already a primitive cell.
 

 Routine SETGRP: Setting up the symmetry group for a 
 simple cubic supercell.


 Subroutine GETGRP returns: Found 24 space group operations
 (whereof  6 operations were pure point group operations)
 out of a pool of 48 trial point group operations.


The static configuration has the point symmetry C_3v.
 The point group associated with its full space group is T_d .


Analysis of symmetry for dynamics (positions and initial velocities):
=====================================================================
 Subroutine PRICEL returns:
 Original cell was already a primitive cell.
 

 Routine SETGRP: Setting up the symmetry group for a 
 simple cubic supercell.


 Subroutine GETGRP returns: Found 24 space group operations
 (whereof  6 operations were pure point group operations)
 out of a pool of 48 trial point group operations.


The dynamic configuration has the point symmetry C_3v.
 The point group associated with its full space group is T_d .


Analysis of structural, dynamic, and magnetic symmetry:
=====================================================================
 Subroutine PRICEL returns:
 Original cell was already a primitive cell.
 

 Routine SETGRP: Setting up the symmetry group for a 
 simple cubic supercell.


 Subroutine GETGRP returns: Found 24 space group operations
 (whereof  6 operations were pure point group operations)
 out of a pool of 48 trial point group operations.


The overall configuration has the point symmetry C_3v.
 The point group associated with its full space group is T_d .


 Subroutine INISYM returns: Found 24 space group operations
 (whereof  6 operations are pure point group operations),
 and found     1 'primitive' translations


----------------------------------------------------------------------------------------

                                     Primitive cell                                     

  volume of cell :    2241.2856

  direct lattice vectors                    reciprocal lattice vectors
    13.086768000  0.000000000  0.000000000     0.076413061  0.000000000  0.000000000
     0.000000000 13.086768000  0.000000000     0.000000000  0.076413061  0.000000000
     0.000000000  0.000000000 13.086768000     0.000000000  0.000000000  0.076413061

  length of vectors
    13.086768000 13.086768000 13.086768000     0.076413061  0.076413061  0.076413061

  position of ions in fractional coordinates (direct lattice)
     0.004485000  0.995515000  0.004485000
     0.001247000  0.998753000  0.496959000
     0.001247000  0.503041000  0.001247000
     0.999625000  0.501218000  0.498782000
     0.496959000  0.998753000  0.001247000
     0.498781000  0.000375000  0.498781000
     0.498781000  0.501219000  0.999625000
     0.500528000  0.499472000  0.500528000
     0.001247000  0.251247000  0.253040000
     0.004486000  0.254485000  0.745515000
     0.999625000  0.748782000  0.251218000
     0.001247000  0.746959000  0.748753000
     0.498782000  0.249625000  0.251219000
     0.496960000  0.251247000  0.748753000
     0.500528000  0.750528000  0.249472000
     0.498781000  0.748781000  0.750375000
     0.251219000  0.000375000  0.251219000
     0.253040000  0.998753000  0.748753000
     0.249472000  0.499472000  0.249472000
     0.251219000  0.501219000  0.750375000
     0.748753000  0.998753000  0.253040000
     0.745514000  0.995515000  0.745515000
     0.750375000  0.501219000  0.251219000
     0.748753000  0.503040000  0.748753000
     0.253040000  0.251247000  0.001247000
     0.251219000  0.249625000  0.498781000
     0.251219000  0.748781000  0.999625000
     0.249472000  0.750528000  0.500528000
     0.745514000  0.254485000  0.004485000
     0.748753000  0.251247000  0.496960000
     0.748753000  0.746959000  0.001247000
     0.750375000  0.748782000  0.498782000
     0.875000000  0.125000000  0.875000000
     0.126656000  0.125000000  0.375000000
     0.132779000  0.125000000  0.875000000
     0.125892000  0.625000000  0.375000000
     0.126656000  0.625000000  0.875000000
     0.623344000  0.125000000  0.375000000
     0.617221000  0.125000000  0.875000000
     0.624108000  0.625000000  0.375000000
     0.623344000  0.625000000  0.875000000
     0.124848000  0.374848000  0.124848000
     0.127488000  0.377488000  0.622512000
     0.127488000  0.872512000  0.127488000
     0.124848000  0.875152000  0.625152000
     0.622512000  0.377488000  0.127488000
     0.625152000  0.374848000  0.625152000
     0.625152000  0.875152000  0.124848000
     0.622512000  0.872512000  0.622512000
     0.375000000  0.125000000  0.126656000
     0.375000000  0.125000000  0.623344000
     0.375000000  0.625000000  0.125892000
     0.375000000  0.625000000  0.624108000
     0.875000000  0.125000000  0.132779000
     0.875000000  0.125000000  0.617221000
     0.875000000  0.625000000  0.126656000
     0.875000000  0.625000000  0.623344000
     0.375000000  0.375892000  0.375000000
     0.375000000  0.376656000  0.875000000
     0.375000000  0.874108000  0.375000000
     0.375000000  0.873344000  0.875000000
     0.875000000  0.376656000  0.375000000
     0.875000000  0.382779000  0.875000000
     0.875000000  0.873344000  0.375000000
     0.875000000  0.867221000  0.875000000

  ion indices of the primitive-cell ions
   primitive index   ion index
                 1           1
                 2           2
                 3           3
                 4           4
                 5           5
                 6           6
                 7           7
                 8           8
                 9           9
                10          10
                11          11
                12          12
                13          13
                14          14
                15          15
                16          16
                17          17
                18          18
                19          19
                20          20
                21          21
                22          22
                23          23
                24          24
                25          25
                26          26
                27          27
                28          28
                29          29
                30          30
                31          31
                32          32
                33          33
                34          34
                35          35
                36          36
                37          37
                38          38
                39          39
                40          40
                41          41
                42          42
                43          43
                44          44
                45          45
                46          46
                47          47
                48          48
                49          49
                50          50
                51          51
                52          52
                53          53
                54          54
                55          55
                56          56
                57          57
                58          58
                59          59
                60          60
                61          61
                62          62
                63          63
                64          64
                65          65

----------------------------------------------------------------------------------------



 KPOINTS: 2x2x2 Gamma                             

Automatic generation of k-mesh.
 Grid dimensions read from file:
 generate k-points for:    2    2    2

 Generating k-lattice:

  Cartesian coordinates                     Fractional coordinates (reciprocal lattice)
     0.038206530  0.000000000  0.000000000     0.500000000  0.000000000  0.000000000
     0.000000000  0.038206530  0.000000000     0.000000000  0.500000000  0.000000000
     0.000000000  0.000000000  0.038206530     0.000000000  0.000000000  0.500000000

  Length of vectors
     0.038206530  0.038206530  0.038206530

  Shift w.r.t. Gamma in fractional coordinates (k-lattice)
     0.500000000  0.500000000  0.500000000

 
 Subroutine IBZKPT returns following result:
 ===========================================
 
 Found      2 irreducible k-points:
 
 Following reciprocal coordinates:
            Coordinates               Weight
  0.250000  0.250000  0.250000      4.000000
 -0.250000 -0.250000 -0.250000      4.000000
 
 Following cartesian coordinates:
            Coordinates               Weight
  0.019103  0.019103  0.019103      4.000000
 -0.019103 -0.019103 -0.019103      4.000000
 
 
 Subroutine IBZKPT_HF returns following result:
 ==============================================
 
 Found      8 k-points in 1st BZ
 the following      8 k-points will be used (e.g. in the exchange kernel)
 Following reciprocal coordinates:   # in IRBZ
  0.250000  0.250000  0.250000    0.12500000   1 t-inv F
 -0.250000 -0.250000 -0.250000    0.12500000   2 t-inv F
  0.250000 -0.250000 -0.250000    0.12500000   1 t-inv F
 -0.250000 -0.250000  0.250000    0.12500000   1 t-inv F
 -0.250000  0.250000 -0.250000    0.12500000   1 t-inv F
 -0.250000  0.250000  0.250000    0.12500000   2 t-inv F
  0.250000  0.250000 -0.250000    0.12500000   2 t-inv F
  0.250000 -0.250000  0.250000    0.12500000   2 t-inv F
 -----------------------------------------------------------------------------
|                                                                             |
|           W    W    AA    RRRRR   N    N  II  N    N   GGGG   !!!           |
|           W    W   A  A   R    R  NN   N  II  NN   N  G    G  !!!           |
|           W    W  A    A  R    R  N N  N  II  N N  N  G       !!!           |
|           W WW W  AAAAAA  RRRRR   N  N N  II  N  N N  G  GGG   !            |
|           WW  WW  A    A  R   R   N   NN  II  N   NN  G    G                |
|           W    W  A    A  R    R  N    N  II  N    N   GGGG   !!!           |
|                                                                             |
|     The number of bands has been changed from the values supplied in        |
|     the INCAR file. This is a result of running the parallel version.       |
|     The orbitals not found in the WAVECAR file will be initialized with     |
|     random numbers, which is usually adequate. For correlated               |
|     calculations, however, you should redo the groundstate calculation.     |
|     I found NBANDS = 640. Now, NBANDS = 1024.                               |
|                                                                             |
 -----------------------------------------------------------------------------



--------------------------------------------------------------------------------------------------------




 Dimension of arrays:
   k-points           NKPTS =      2   k-points in BZ     NKDIM =      8   number of bands    NBANDS=   1024
   number of dos      NEDOS =    301   number of ions     NIONS =     65
   non local maximal  LDIM  =      6   non local SUM 2l+1 LMDIM =     18
   total plane-waves  NPLWV = 884736
   max r-space proj   IRMAX =      1   max aug-charges    IRDMAX=  23156
   dimension x,y,z NGX =    96 NGY =   96 NGZ =   96
   dimension x,y,z NGXF=   192 NGYF=  192 NGZF=  192
   support grid    NGXF=   192 NGYF=  192 NGZF=  192
   ions per type =              33  32
   NGX,Y,Z   is equivalent  to a cutoff of  12.20, 12.20, 12.20 a.u.
   NGXF,Y,Z  is equivalent  to a cutoff of  24.39, 24.39, 24.39 a.u.

 SYSTEM =  CdTe                                    
 POSCAR =  Cd33 Te32                               

 Startparameter for this run:
   NWRITE =      2    write-flag & timer
   PREC   = accura    normal or accurate (medium, high low for compatibility)
   ISTART =      0    job   : 0-new  1-cont  2-samecut
   ICHARG =      2    charge: 1-file 2-atom 10-const
   ISPIN  =      1    spin polarized calculation?
   LNONCOLLINEAR =      T non collinear calculations
   LSORBIT =      F    spin-orbit coupling
   INIWAV =      1    electr: 0-lowe 1-rand  2-diag
   LASPH  =      T    aspherical Exc in radial PAW
 Electronic Relaxation 1
   ENCUT  =  450.0 eV  33.07 Ry    5.75 a.u.  22.64 22.64 22.64*2*pi/ulx,y,z
   ENINI  =  450.0     initial cutoff
   ENAUG  =  456.1 eV  augmentation charge cutoff
   NELM   =      7;   NELMIN=  2; NELMDL=  5     # of ELM steps 
   EDIFF  = 0.1E-03   stopping-criterion for ELM
   LREAL  =      F    real-space projection
   NLSPLINE    = F    spline interpolate recip. space projectors
   LCOMPAT=      F    compatible to vasp.4.4
   GGA_COMPAT  = T    GGA compatible to vasp.4.4-vasp.4.6
   LMAXPAW     = -100 max onsite density
   LMAXMIX     =    2 max onsite mixed and CHGCAR
   VOSKOWN=      0    Vosko Wilk Nusair interpolation
   ROPT   =    0.00000   0.00000
 Ionic relaxation
   EDIFFG = 0.1E-02   stopping-criterion for IOM
   NSW    =      0    number of steps for IOM
   NBLOCK =      1;   KBLOCK =      1    inner block; outer block 
   IBRION =     -1    ionic relax: 0-MD 1-quasi-New 2-CG
   NFREE  =      0    steps in history (QN), initial steepest desc. (CG)
   ISIF   =      2    stress and relaxation
   IWAVPR =     10    prediction:  0-non 1-charg 2-wave 3-comb
   ISYM   =      3    0-nonsym 1-usesym 2-fastsym
   LCORR  =      T    Harris-Foulkes like correction to forces

   POTIM  = 0.5000    time-step for ionic-motion
   TEIN   =    0.0    initial temperature
   TEBEG  =    0.0;   TEEND  =   0.0 temperature during run
   SMASS  =  -3.00    Nose mass-parameter (am)
   estimated Nose-frequenzy (Omega)   =  0.10E-29 period in steps = 0.13E+47 mass=  -0.391E-26a.u.
   SCALEE = 1.0000    scale energy and forces
   NPACO  =    256;   APACO  = 10.0  distance and # of slots for P.C.
   PSTRESS=    0.0 pullay stress

  Mass of Ions in am
   POMASS = 112.41127.60
  Ionic Valenz
   ZVAL   =  12.00  6.00
  Atomic Wigner-Seitz radii
   RWIGS  =  -1.00 -1.00
  virtual crystal weights 
   VCA    =   1.00  1.00
   NELECT =     588.0000    total number of electrons
   NUPDOWN=      -1.0000    fix difference up-down

 DOS related values:
   EMIN   =  10.00;   EMAX   =-10.00  energy-range for DOS
   EFERMI =   0.00;   METHOD = LEGACY      
   ISMEAR =     0;   SIGMA  =   0.05  broadening in eV -4-tet -1-fermi 0-gaus
   EFERMI_NEDOS =   21; number of points for ismear=-14 and -15

 Electronic relaxation 2 (details)
   IALGO  =     58    algorithm
   LDIAG  =      T    sub-space diagonalisation (order eigenvalues)
   LSUBROT=      F    optimize rotation matrix (better conditioning)
   LROBUST=      F    robust break criterion during scf (extrapolated energy error)
   ISEARCH=      0    line search for conjugate gradient (0, 1=use gradient)
   TURBO    =      0    0=normal 1=particle mesh
   IRESTART =      0    0=no restart 2=restart with 2 vectors
   NREBOOT  =      0    no. of reboots
   NMIN     =      0    reboot dimension
   EREF     =   0.00    reference energy to select bands
   IMIX   =      4    mixing-type and parameters
     AMIX     =   0.40;   BMIX     =  1.00
     AMIX_MAG =   1.60;   BMIX_MAG =  1.00
     AMIN     =   0.10
     WC   =   100.;   INIMIX=   1;  MIXPRE=   1;  MAXMIX= -45

 Intra band minimization:
   WEIMIN = 0.0000     energy-eigenvalue tresh-hold
   EBREAK =  0.24E-07  absolut break condition
   DEPER  =   0.30     relativ break condition  

   TIME   =   0.40     timestep for ELM

  volume/ion in A,a.u.               =      34.48       232.69
  Fermi-wavevector in a.u.,A,eV,Ry     =   1.048017  1.980464 14.943809  1.098339
  Thomas-Fermi vector in A             =   2.182921

 Write flags
   LWAVE        =      F    write WAVECAR
   LDOWNSAMPLE  =      F    k-point downsampling of WAVECAR
   LCHARG       =      F    write CHGCAR
   LVTOT        =      F    write LOCPOT, total local potential
   LVHAR        =      F    write LOCPOT, Hartree potential only
   WRT_POTENTIAL= false  ! write potential to hdf5 file
   LELF         =      F    write electronic localiz. function (ELF)
   LORBIT       =      0    0 simple, 1 ext, 2 COOP (PROOUT), +10 PAW based schemes


 Python interface
   PLUGINS active      =      F    recompile with -DPLUGINS to activate

 Dipole corrections
   LMONO      =      F    monopole corrections only (constant potential shift)
   LDIPOL     =      F    correct potential (dipole corrections)
   IDIPOL     =      0    1-x, 2-y, 3-z, 4-all directions 
   EPSILON    =  1.0000000 bulk dielectric constant
   LVACPOTAV  =      F  vacuum potentials using an averaging scheme for the charge density
   VACPOTFLAT =  0.1000000 required flatness to determine vacuum potential

Coulomb truncation method
  LTRUNCATE          =      F  Coulomb kernel truncation to be used


 Exchange correlation treatment:
   GGA     = PE    functional components
   XC_C    = 1    coefficients multiplying the functional components
   LIBXC   =     F    Libxc                    
   VOSKOWN =     0    Vosko Wilk Nusair interpolation
   EXXOEP  =     0    0=HF, 1=EXX-LHF (local Hartree Fock) 2=EXX OEP
   LHFCALC =     T    Hartree Fock is set to
   LSYMGRAD=     F    symmetrize gradient (conserves proper symmetry)
   PRECFOCK=fast      Normal, Fast or Accurate (Low or Medium for compatibility)
   LRHFCALC=     F    long range Hartree Fock
   LRSCOR  =     F    long range correlation only (use DFT for short range part)
   LTHOMAS =     F    Thomas Fermi screening in HF
   LMODELHF=     F    short range full HF, long range fraction AEXX
   FOCKCORR=     1    mode to apply convergence corrections
   LFOCKACE=     T    use Adeptively-Compressed-Exchange operator
   ENCUT4O =  -1.0   cutoff for four orbital integrals eV
   LMAXFOCK=     4    L truncation for augmentation on plane wave grid
   LMAXFOCKAE=  -1    L truncation for all-electron charge restoration on plane wave grid
   NMAXFOCKAE=   1    number of basis functions for all-electron charge restoration
   LFOCKAEDFT=     F  apply the AE augmentation even for DFT
   NKREDX  =     1    reduce k-point grid by
   NKREDY  =     1    reduce k-point grid by
   NKREDZ  =     1    reduce k-point grid by
   SHIFTRED=     F    shift reduced grid of Gamma
   HFKIDENT=     F    idential grid for each k-point
   ODDONLY =     F    use only odd q-grid points
   EVENONLY=     F    use only even q-grid points
   HFALPHA =   -1.0000 decay constant for conv. correction
   MCALPHA =    0.0000 extent of test-charge in conv. correction in multipole expansion
   AEXX    =    0.2500 exact exchange contribution
   HFSCREEN=    0.2000 screening length (either q_TF or 0.3 A-1)
   HFSCREENC=   0.2000 screening length for correlation (either q_TF or 0.3 A-1)
   HFRCUT  =    0.0000 spherical cutoff for potential kernel
   ALDAX   =    0.7500 LDA exchange part
   AGGAX   =    0.7500 GGA exchange part
   AMGGAX  =    0.7500 meta-GGA exchange part
   ALDAC   =    1.0000 LDA correlation
   AGGAC   =    1.0000 GGA correlation
   AMGGAC  =    1.0000 meta-GGA correlation
   ENCUTFOCK=  -1.0 apply spherical cutoff to Coloumb kernel
   NBANDSGWLOW=     1    first orbital included in HF term
   NBLOCK_FOCK=     8    blocking factor in FOCK_ACC

 Parameters of functionals:
   PE:
     No parameter

 Van der Waals corrections
   IVDW    =     0    specifies the selected vdW correction

 Linear response parameters
   LEPSILON=     F    determine dielectric tensor
   LRPA    =     F    only Hartree local field effects (RPA)
   LNABLA  =     F    use nabla operator in PAW spheres
   LVEL    =     F    velocity operator in full k-point grid
   CSHIFT  =0.1000    complex shift for real part using Kramers Kronig
   OMEGAMAX=  -1.0    maximum frequency
   DEG_THRESHOLD= 0.2000000E-02 threshold for treating states as degnerate
   RTIME   =   -0.100 relaxation time in fs
  (WPLASMAI=    0.000 imaginary part of plasma frequency in eV, 0.658/RTIME)
   DFIELD  = 0.0000000 0.0000000 0.0000000 field for delta impulse in time

  Optional k-point grid parameters
   LKPOINTS_OPT  =     F    use optional k-point grid
   KPOINTS_OPT_MODE=     1    mode for optional k-point grid

 Orbital magnetization related:
   ORBITALMAG=     F  switch on orbital magnetization
   LCHIMAG   =     F  perturbation theory with respect to B field
   DQ        =  0.001000  dq finite difference perturbation B field
   LLRAUG    =     F  two centre corrections for induced B field
   LBONE     =     F  B-component reconstruction in AE one-centre
   LVGVCALC  =     T  calculate vGv susceptibility
   LVGVAPPL  =     F  apply vGv susceptibility instead of pGv for G=0

 Random number generation:
   RANDOM_GENERATOR = DEFAULT
   PCG_SEED         = not used


--------------------------------------------------------------------------------------------------------


 Static calculation
 charge density and potential will be updated during run
 non collinear spin polarized calculation
 Conjugate gradient for all bands (Freysoldt, et al. PRB 79, 241103 (2009))
 preconditioned conjugated gradient                                        
 perform sub-space diagonalisation
    before iterative eigenvector-optimisation
 modified Broyden-mixing scheme, WC =      100.0
 initial mixing is a Kerker type mixing with AMIX =  0.4000 and BMIX =      1.0000
 Hartree-type preconditioning will be used
 using additional bands          730
 reciprocal scheme for non local part
 use partial core corrections
 no Harris-corrections to forces 
 use gradient corrections 
 use of overlap-Matrix (Vanderbilt PP)
 Gauss-broadening in eV      SIGMA  =   0.05


--------------------------------------------------------------------------------------------------------


  energy-cutoff  :      450.00
  volume of cell :     2241.29
      direct lattice vectors                 reciprocal lattice vectors
    13.086768000  0.000000000  0.000000000     0.076413061  0.000000000  0.000000000
     0.000000000 13.086768000  0.000000000     0.000000000  0.076413061  0.000000000
     0.000000000  0.000000000 13.086768000     0.000000000  0.000000000  0.076413061

  length of vectors
    13.086768000 13.086768000 13.086768000     0.076413061  0.076413061  0.076413061



 k-points in units of 2pi/SCALE and weight: 2x2x2 Gamma                             
   0.01910327  0.01910327  0.01910327       0.500
  -0.01910327 -0.01910327 -0.01910327       0.500

 k-points in reciprocal lattice and weights: 2x2x2 Gamma                             
   0.25000000  0.25000000  0.25000000       0.500
  -0.25000000 -0.25000000 -0.25000000       0.500

 position of ions in fractional coordinates (direct lattice) 
   0.00448500  0.99551500  0.00448500
   0.00124700  0.99875300  0.49695900
   0.00124700  0.50304100  0.00124700
   0.99962500  0.50121800  0.49878200
   0.49695900  0.99875300  0.00124700
   0.49878100  0.00037500  0.49878100
   0.49878100  0.50121900  0.99962500
   0.50052800  0.49947200  0.50052800
   0.00124700  0.25124700  0.25304000
   0.00448600  0.25448500  0.74551500
   0.99962500  0.74878200  0.25121800
   0.00124700  0.74695900  0.74875300
   0.49878200  0.24962500  0.25121900
   0.49696000  0.25124700  0.74875300
   0.50052800  0.75052800  0.24947200
   0.49878100  0.74878100  0.75037500
   0.25121900  0.00037500  0.25121900
   0.25304000  0.99875300  0.74875300
   0.24947200  0.49947200  0.24947200
   0.25121900  0.50121900  0.75037500
   0.74875300  0.99875300  0.25304000
   0.74551400  0.99551500  0.74551500
   0.75037500  0.50121900  0.25121900
   0.74875300  0.50304000  0.74875300
   0.25304000  0.25124700  0.00124700
   0.25121900  0.24962500  0.49878100
   0.25121900  0.74878100  0.99962500
   0.24947200  0.75052800  0.50052800
   0.74551400  0.25448500  0.00448500
   0.74875300  0.25124700  0.49696000
   0.74875300  0.74695900  0.00124700
   0.75037500  0.74878200  0.49878200
   0.87500000  0.12500000  0.87500000
   0.12665600  0.12500000  0.37500000
   0.13277900  0.12500000  0.87500000
   0.12589200  0.62500000  0.37500000
   0.12665600  0.62500000  0.87500000
   0.62334400  0.12500000  0.37500000
   0.61722100  0.12500000  0.87500000
   0.62410800  0.62500000  0.37500000
   0.62334400  0.62500000  0.87500000
   0.12484800  0.37484800  0.12484800
   0.12748800  0.37748800  0.62251200
   0.12748800  0.87251200  0.12748800
   0.12484800  0.87515200  0.62515200
   0.62251200  0.37748800  0.12748800
   0.62515200  0.37484800  0.62515200
   0.62515200  0.87515200  0.12484800
   0.62251200  0.87251200  0.62251200
   0.37500000  0.12500000  0.12665600
   0.37500000  0.12500000  0.62334400
   0.37500000  0.62500000  0.12589200
   0.37500000  0.62500000  0.62410800
   0.87500000  0.12500000  0.13277900
   0.87500000  0.12500000  0.61722100
   0.87500000  0.62500000  0.12665600
   0.87500000  0.62500000  0.62334400
   0.37500000  0.37589200  0.37500000
   0.37500000  0.37665600  0.87500000
   0.37500000  0.87410800  0.37500000
   0.37500000  0.87334400  0.87500000
   0.87500000  0.37665600  0.37500000
   0.87500000  0.38277900  0.87500000
   0.87500000  0.87334400  0.37500000
   0.87500000  0.86722100  0.87500000

 position of ions in cartesian coordinates  (Angst):
   0.05869415 13.02807385  0.05869415
   0.01631920 13.07044880  6.50358714
   0.01631920  6.58318086  0.01631920
  13.08186046  6.55932368  6.52744432
   6.50358714 13.07044880  0.01631920
   6.52743123  0.00490754  6.52743123
   6.52743123  6.55933677 13.08186046
   6.55029381  6.53647419  6.55029381
   0.01631920  3.28801120  3.31147577
   0.05870724  3.33038615  9.75638185
  13.08186046  9.79913632  3.28763168
   0.01631920  9.77527914  9.79875680
   6.52744432  3.26678446  3.28764477
   6.50360023  3.28801120  9.79875680
   6.55029381  9.82198581  3.26478219
   6.52743123  9.79912323  9.81998354
   3.28764477  0.00490754  3.28764477
   3.31147577 13.07044880  9.79875680
   3.26478219  6.53647419  3.26478219
   3.28764477  6.55933677  9.81998354
   9.79875680 13.07044880  3.31147577
   9.75636876 13.02807385  9.75638185
   9.81998354  6.55933677  3.28764477
   9.79875680  6.58316777  9.79875680
   3.31147577  3.28801120  0.01631920
   3.28764477  3.26678446  6.52743123
   3.28764477  9.79912323 13.08186046
   3.26478219  9.82198581  6.55029381
   9.75636876  3.33038615  0.05869415
   9.79875680  3.28801120  6.50360023
   9.79875680  9.77527914  0.01631920
   9.81998354  9.79913632  6.52744432
  11.45092200  1.63584600 11.45092200
   1.65751769  1.63584600  4.90753800
   1.73764797  1.63584600 11.45092200
   1.64751940  8.17923000  4.90753800
   1.65751769  8.17923000 11.45092200
   8.15755831  1.63584600  4.90753800
   8.07742803  1.63584600 11.45092200
   8.16755660  8.17923000  4.90753800
   8.15755831  8.17923000 11.45092200
   1.63385681  4.90554881  1.63385681
   1.66840588  4.94009788  8.14667012
   1.66840588 11.41836212  1.66840588
   1.63385681 11.45291119  8.18121919
   8.14667012  4.94009788  1.66840588
   8.18121919  4.90554881  8.18121919
   8.18121919 11.45291119  1.63385681
   8.14667012 11.41836212  8.14667012
   4.90753800  1.63584600  1.65751769
   4.90753800  1.63584600  8.15755831
   4.90753800  8.17923000  1.64751940
   4.90753800  8.17923000  8.16755660
  11.45092200  1.63584600  1.73764797
  11.45092200  1.63584600  8.07742803
  11.45092200  8.17923000  1.65751769
  11.45092200  8.17923000  8.15755831
   4.90753800  4.91921140  4.90753800
   4.90753800  4.92920969 11.45092200
   4.90753800 11.43924860  4.90753800
   4.90753800 11.42925031 11.45092200
  11.45092200  4.92920969  4.90753800
  11.45092200  5.00933997 11.45092200
  11.45092200 11.42925031  4.90753800
  11.45092200 11.34912003 11.45092200

 Euler angles ALPHA=     0.0000000  BETA=     0.0000000

 transformation matrix from SAXIS to cartesian coordinates
 ---------------------------------------------------------
     1.0000000 m_x    -0.0000000 m_y     0.0000000 m_z
     0.0000000 m_x     1.0000000 m_y     0.0000000 m_z
    -0.0000000 m_x     0.0000000 m_y     1.0000000 m_z

 transformation matrix from cartesian coordinates to SAXIS
 ---------------------------------------------------------
     1.0000000 m_x     0.0000000 m_y    -0.0000000 m_z
    -0.0000000 m_x     1.0000000 m_y     0.0000000 m_z
     0.0000000 m_x     0.0000000 m_y     1.0000000 m_z




--------------------------------------------------------------------------------------------------------


 k-point     1 :   0.2500 0.2500 0.2500  plane waves:   97156
 k-point     2 :  -0.2500-0.2500-0.2500  plane waves:   97156

 maximum and minimum number of plane-waves per node :     24346    24194

 maximum number of plane-waves:     97156
 maximum index in each direction: 
   IXMAX=   22   IYMAX=   22   IZMAX=   22
   IXMIN=  -22   IYMIN=  -22   IZMIN=  -22


 parallel 3D FFT for wavefunctions:
    minimum data exchange during FFTs selected (reduces bandwidth)
 parallel 3D FFT for charge:
    minimum data exchange during FFTs selected (reduces bandwidth)


 FFT grid for exact exchange (Hartree Fock) 
  NGX = 48; NGY = 48; NGZ = 48


 Radii for the augmentation spheres in the non-local exchange
 for species   1 augmentation radius   1.444 (default was   1.070)
       energy cutoff for augmentation   1800.0
 for species   2 augmentation radius   1.606 (default was   1.190)
       energy cutoff for augmentation   1800.0

 real space projection operators:
  total allocation   :       9375.20 KBytes
  max/ min on nodes  :       2371.68       2281.25

 Maximum index for augmentation-charges in exchange          207
  SETUP_FOCK is finished

 total amount of memory used by VASP MPI-rank0   108366. kBytes
=======================================================================

   base                                    :      30000. kBytes
   nonl-proj                               :      19857. kBytes
   fftplans                                :      11460. kBytes
   grid                                    :      37158. kBytes
   one-center                              :       1057. kBytes
   HF                                      :        129. kBytes
   nonlr-proj                              :       3791. kBytes
   wavefun                                 :       4914. kBytes

     INWAV:  cpu time      0.0000: real time      0.0000
 Broyden mixing: mesh for mixing (old mesh)
   NGX = 45   NGY = 45   NGZ = 45
  (NGX  =192   NGY  =192   NGZ  =192)
  gives a total of  91125 points

 initial charge density was supplied:
 charge density of overlapping atoms calculated
 number of electron     588.0000000 magnetization       0.0000000      0.0000000      0.0000000
 keeping initial charge density in first step


--------------------------------------------------------------------------------------------------------


 Maximum index for augmentation-charges          775 (set IRDMAX)


--------------------------------------------------------------------------------------------------------


 First call to EWALD:  gamma=   0.135
 Maximum number of real-space cells   3x   3x   3
 Maximum number of reciprocal cells   3x   3x   3

    FEWALD:  cpu time      0.0525: real time      0.0528


--------------------------------------- Ionic step        1  -------------------------------------------




--------------------------------------- Iteration      1(   1)  ---------------------------------------


    POTLOK:  cpu time      0.7417: real time      0.7441
    SETDIJ:  cpu time      0.1696: real time      0.1700
    TRIAL :  cpu time    170.5383: real time    170.6858
    CORREC:  cpu time      0.0043: real time      0.0043
    --------------------------------------------
      LOOP:  cpu time    171.4938: real time    171.6444

 eigenvalue-minimisations  :  4096
 total energy-change (2. order) :-0.6637218E+05  (-0.2821871E+05)
 number of electron     588.0000000 magnetization       0.0000000      0.0000000      0.0000000
 augmentation part      588.0000000 magnetization       0.0000000      0.0000000      0.0000000

 Free energy of the ion-electron system (eV)
  ---------------------------------------------------
  alpha Z        PSCENC =      1642.45118531
  Ewald energy   TEWEN  =    -33940.17512409
  -Hartree energ DENC   =    -17077.89199325
  -exchange      EXHF   =         0.00000000
  -V(xc)+E(xc)   XCENC  =      -720.79451392
  PAW double counting   =     46138.45347506  -111612.37425480
  entropy T*S    EENTRO =        -0.01784553
  eigenvalues    EBANDS =      -551.25804169
  atomic energy  EATOM  =     49749.42546354
  ---------------------------------------------------
  free energy    TOTEN  =    -66372.18164937 eV

  energy without entropy =   -66372.16380384  energy(sigma->0) =   -66372.17272660
  exchange ACFDT corr.  =         0.00000000  see jH, gK, PRB 81, 115126


--------------------------------------------------------------------------------------------------------




--------------------------------------- Iteration      1(   2)  ---------------------------------------


    TRIAL :  cpu time     75.8061: real time     75.8389
    CORREC:  cpu time      0.0011: real time      0.0011
    --------------------------------------------
      LOOP:  cpu time     75.9231: real time     80.8591

 eigenvalue-minimisations  :  5120
 total energy-change (2. order) :-0.3001924E+04  (-0.2939547E+04)
 number of electron     588.0000000 magnetization       0.0000000      0.0000000      0.0000000
 augmentation part      588.0000000 magnetization       0.0000000      0.0000000      0.0000000

 Free energy of the ion-electron system (eV)
  ---------------------------------------------------
  alpha Z        PSCENC =      1642.45118531
  Ewald energy   TEWEN  =    -33940.17512409
  -Hartree energ DENC   =    -17077.89199325
  -exchange      EXHF   =         0.00000000
  -V(xc)+E(xc)   XCENC  =      -720.79451392
  PAW double counting   =     46138.45347506  -111612.37425480
  entropy T*S    EENTRO =        -0.00000000
  eigenvalues    EBANDS =     -3553.19966689
  atomic energy  EATOM  =     49749.42546354
  ---------------------------------------------------
  free energy    TOTEN  =    -69374.10542904 eV

  energy without entropy =   -69374.10542904  energy(sigma->0) =   -69374.10542904
  exchange ACFDT corr.  =         0.00000000  see jH, gK, PRB 81, 115126


--------------------------------------------------------------------------------------------------------




--------------------------------------- Iteration      1(   3)  ---------------------------------------


    TRIAL :  cpu time     74.6644: real time     74.6945
    CORREC:  cpu time      0.0010: real time      0.0010
    --------------------------------------------
      LOOP:  cpu time     74.7083: real time     74.7533

 eigenvalue-minimisations  :  5120
 total energy-change (2. order) :-0.1034579E+03  (-0.1033179E+03)
 number of electron     588.0000000 magnetization       0.0000000      0.0000000      0.0000000
 augmentation part      588.0000000 magnetization       0.0000000      0.0000000      0.0000000

 Free energy of the ion-electron system (eV)
  ---------------------------------------------------
  alpha Z        PSCENC =      1642.45118531
  Ewald energy   TEWEN  =    -33940.17512409
  -Hartree energ DENC   =    -17077.89199325
  -exchange      EXHF   =         0.00000000
  -V(xc)+E(xc)   XCENC  =      -720.79451392
  PAW double counting   =     46138.45347506  -111612.37425480
  entropy T*S    EENTRO =        -0.00000000
  eigenvalues    EBANDS =     -3656.65755712
  atomic energy  EATOM  =     49749.42546354
  ---------------------------------------------------
  free energy    TOTEN  =    -69477.56331926 eV

  energy without entropy =   -69477.56331926  energy(sigma->0) =   -69477.56331926
  exchange ACFDT corr.  =         0.00000000  see jH, gK, PRB 81, 115126


--------------------------------------------------------------------------------------------------------




--------------------------------------- Iteration      1(   4)  ---------------------------------------


    TRIAL :  cpu time    175.3767: real time    175.4504
    CORREC:  cpu time      0.0010: real time      0.0010
    --------------------------------------------
      LOOP:  cpu time    175.4311: real time    175.5086

 eigenvalue-minimisations  :  7168
 total energy-change (2. order) :-0.2058247E+01  (-0.2058092E+01)
 number of electron     588.0000000 magnetization       0.0000000      0.0000000      0.0000000
 augmentation part      588.0000000 magnetization       0.0000000      0.0000000      0.0000000

 Free energy of the ion-electron system (eV)
  ---------------------------------------------------
  alpha Z        PSCENC =      1642.45118531
  Ewald energy   TEWEN  =    -33940.17512409
  -Hartree energ DENC   =    -17077.89199325
  -exchange      EXHF   =         0.00000000
  -V(xc)+E(xc)   XCENC  =      -720.79451392
  PAW double counting   =     46138.45347506  -111612.37425480
  entropy T*S    EENTRO =        -0.00000000
  eigenvalues    EBANDS =     -3658.71580430
  atomic energy  EATOM  =     49749.42546354
  ---------------------------------------------------
  free energy    TOTEN  =    -69479.62156645 eV

  energy without entropy =   -69479.62156645  energy(sigma->0) =   -69479.62156645
  exchange ACFDT corr.  =         0.00000000  see jH, gK, PRB 81, 115126


--------------------------------------------------------------------------------------------------------




--------------------------------------- Iteration      1(   5)  ---------------------------------------


    POTLOK:  cpu time      0.5815: real time      0.5824
    SETDIJ:  cpu time      0.5109: real time      0.5109
    TRIAL :  cpu time    116.9499: real time    117.0231
    CORREC:  cpu time      0.0011: real time      0.0011
    CHARGE:  cpu time      0.7870: real time      0.7884
    --------------------------------------------
      LOOP:  cpu time    118.8756: real time    118.9658

 eigenvalue-minimisations  :  4096
 total energy-change (2. order) : 0.6928358E+05  (-0.3488757E+02)
 number of electron     587.9999926 magnetization       0.0000000     -0.0000007      0.0000002
 augmentation part      152.0889313 magnetization       0.0000000      0.0000330      0.0000277

 Free energy of the ion-electron system (eV)
  ---------------------------------------------------
  alpha Z        PSCENC =      1642.45118531
  Ewald energy   TEWEN  =    -33940.17512409
  -Hartree energ DENC   =    -17077.89199325
  -exchange      EXHF   =      1182.23070413
  -V(xc)+E(xc)   XCENC  =      -628.54414241
  PAW double counting   =     46030.61060259   -44005.62093883
  entropy T*S    EENTRO =        -0.00000000
  eigenvalues    EBANDS =     -3148.52918018
  atomic energy  EATOM  =     49749.42546354
  ---------------------------------------------------
  free energy    TOTEN  =      -196.04342319 eV

  energy without entropy =     -196.04342319  energy(sigma->0) =     -196.04342319
  exchange ACFDT corr.  =        -0.00000000  see jH, gK, PRB 81, 115126


--------------------------------------------------------------------------------------------------------




--------------------------------------- Iteration      1(   6)  ---------------------------------------


    POTLOK:  cpu time      0.5746: real time      0.5756
    SETDIJ:  cpu time      0.5386: real time      0.5386
    TRIAL :  cpu time     81.1107: real time     81.1633
    CORREC:  cpu time     83.2668: real time     83.3217
    CHARGE:  cpu time      0.6800: real time      0.6801
    --------------------------------------------
      LOOP:  cpu time    166.2178: real time    166.3430

 eigenvalue-minimisations  :     0
 total energy-change (2. order) : 0.1521684E+02  (-0.9884093E+01)
 number of electron     587.9999926 magnetization       0.0000000     -0.0000003     -0.0000026
 augmentation part      155.0831647 magnetization       0.0000000     -0.0000091      0.0000318

 Free energy of the ion-electron system (eV)
  ---------------------------------------------------
  alpha Z        PSCENC =      1642.45118531
  Ewald energy   TEWEN  =    -33940.17512409
  -Hartree energ DENC   =    -16871.56221396
  -exchange      EXHF   =      1148.81883920
  -V(xc)+E(xc)   XCENC  =      -624.92342780
  PAW double counting   =    101434.37696513   -99355.40315127
  entropy T*S    EENTRO =        -0.00000000
  eigenvalues    EBANDS =     -3363.83512182
  atomic energy  EATOM  =     49749.42546354
  ---------------------------------------------------
  free energy    TOTEN  =      -180.82658576 eV

  energy without entropy =     -180.82658576  energy(sigma->0) =     -180.82658576
  exchange ACFDT corr.  =         0.00000000  see jH, gK, PRB 81, 115126


--------------------------------------------------------------------------------------------------------




--------------------------------------- Iteration      1(   7)  ---------------------------------------


    POTLOK:  cpu time      0.5897: real time      0.5900
    SETDIJ:  cpu time      0.5202: real time      0.5203
    TRIAL :  cpu time     80.0093: real time     80.0594
    CORREC:  cpu time     83.1901: real time     83.2441
    EDDIAG:  cpu time     79.3702: real time     79.4218
    CHARGE:  cpu time      0.6490: real time      0.6494
    --------------------------------------------
      LOOP:  cpu time    244.3708: real time    244.5393

 eigenvalue-minimisations  :     0
 total energy-change (2. order) :-0.9865227E+01  (-0.1403633E+01)
 number of electron     587.9999926 magnetization       0.0000000      0.0000012     -0.0000004
 augmentation part      154.0787603 magnetization       0.0000000      0.0000296      0.0000659

 Free energy of the ion-electron system (eV)
  ---------------------------------------------------
  alpha Z        PSCENC =      1642.45118531
  Ewald energy   TEWEN  =    -33940.17512409
  -Hartree energ DENC   =    -17007.73303104
  -exchange      EXHF   =      1139.35577728
  -V(xc)+E(xc)   XCENC  =      -622.59266643
  PAW double counting   =    100698.16921327   -98633.55139974
  entropy T*S    EENTRO =        -0.00000000
  eigenvalues    EBANDS =     -3220.51037305
  atomic energy  EATOM  =     49749.42546354
  ---------------------------------------------------
  free energy    TOTEN  =      -190.69181289 eV

  energy without entropy =     -190.69181289  energy(sigma->0) =     -190.69181289
  exchange ACFDT corr.  =         0.00000000  see jH, gK, PRB 81, 115126


--------------------------------------------------------------------------------------------------------


  average scaling for gradient   1.0017


 average (electrostatic) potential at core
  the test charge radii are     1.0698  1.1897
  (the norm of the test charge is              1.0000)
       1 -32.9911       2 -32.8495       3 -32.8498       4 -32.8871       5 -32.8492
       6 -32.8867       7 -32.8871       8 -32.8723       9 -32.8496      10 -32.9911
      11 -32.8869      12 -32.8493      13 -32.8871      14 -32.8495      15 -32.8720
      16 -32.8867      17 -32.8871      18 -32.8494      19 -32.8719      20 -32.8873
      21 -32.8495      22 -32.9906      23 -32.8871      24 -32.8495      25 -32.8496
      26 -32.8871      27 -32.8870      28 -32.8719      29 -32.9910      30 -32.8494
      31 -32.8494      32 -32.8867      33 -32.0217      34 -87.5019      35 -87.4609
      36 -87.5043      37 -87.5021      38 -87.5022      39 -87.4611      40 -87.5041
      41 -87.5022      42 -87.4933      43 -87.5712      44 -87.5711      45 -87.4931
      46 -87.5712      47 -87.4932      48 -87.4931      49 -87.5716      50 -87.5019
      51 -87.5019      52 -87.5045      53 -87.5043      54 -87.4612      55 -87.4612
      56 -87.5020      57 -87.5021      58 -87.5045      59 -87.5017      60 -87.5043
      61 -87.5022      62 -87.5016      63 -87.4614      64 -87.5023      65 -87.4609



 E-fermi :   3.1776     XC(G=0):  -7.0883     alpha+bet : -7.2837

 WARNING: Could not determine fundamental gap because eigenvalues are not
     sorted.

 Fermi energy:         3.1776203654

 k-point     1 :       0.2500    0.2500    0.2500
  band No.  band energies     occupation 
      1     -10.2690      1.00000
      2     -10.2690      1.00000
      3     -10.1552      1.00000
      4     -10.1552      1.00000
      5     -10.1552      1.00000
      6     -10.1552      1.00000
      7     -10.1418      1.00000
      8     -10.1417      1.00000
      9     -10.0704      1.00000
     10     -10.0704      1.00000
     11     -10.0704      1.00000
     12     -10.0704      1.00000
     13     -10.0533      1.00000
     14     -10.0533      1.00000
     15     -10.0221      1.00000
     16     -10.0221      1.00000
     17     -10.0045      1.00000
     18     -10.0044      1.00000
     19     -10.0044      1.00000
     20     -10.0044      1.00000
     21      -9.9839      1.00000
     22      -9.9839      1.00000
     23      -9.9696      1.00000
     24      -9.9695      1.00000
     25      -9.9694      1.00000
     26      -9.9693      1.00000
     27      -9.9656      1.00000
     28      -9.9656      1.00000
     29      -9.9655      1.00000
     30      -9.9655      1.00000
     31      -9.9577      1.00000
     32      -9.9577      1.00000
     33      -9.9577      1.00000
     34      -9.9577      1.00000
     35      -9.9400      1.00000
     36      -9.9400      1.00000
     37      -9.9350      1.00000
     38      -9.9350      1.00000
     39      -9.9350      1.00000
     40      -9.9350      1.00000
     41      -9.9022      1.00000
     42      -9.9022      1.00000
     43      -9.9022      1.00000
     44      -9.9022      1.00000
     45      -9.9006      1.00000
     46      -9.9006      1.00000
     47      -9.8961      1.00000
     48      -9.8960      1.00000
     49      -9.8911      1.00000
     50      -9.8911      1.00000
     51      -9.8910      1.00000
     52      -9.8910      1.00000
     53      -9.8694      1.00000
     54      -9.8694      1.00000
     55      -9.8556      1.00000
     56      -9.8556      1.00000
     57      -9.8556      1.00000
     58      -9.8556      1.00000
     59      -9.8448      1.00000
     60      -9.8448      1.00000
     61      -9.8389      1.00000
     62      -9.8389      1.00000
     63      -9.8389      1.00000
     64      -9.8389      1.00000
     65      -8.0753      1.00000
     66      -8.0753      1.00000
     67      -8.0753      1.00000
     68      -8.0753      1.00000
     69      -8.0723      1.00000
     70      -8.0723      1.00000
     71      -8.0172      1.00000
     72      -8.0172      1.00000
     73      -7.9722      1.00000
     74      -7.9722      1.00000
     75      -7.9722      1.00000
     76      -7.9722      1.00000
     77      -7.9537      1.00000
     78      -7.9537      1.00000
     79      -7.9537      1.00000
     80      -7.9537      1.00000
     81      -7.9404      1.00000
     82      -7.9403      1.00000
     83      -7.9383      1.00000
     84      -7.9383      1.00000
     85      -7.9383      1.00000
     86      -7.9383      1.00000
     87      -7.9373      1.00000
     88      -7.9373      1.00000
     89      -7.9227      1.00000
     90      -7.9226      1.00000
     91      -7.9226      1.00000
     92      -7.9226      1.00000
     93      -7.9196      1.00000
     94      -7.9196      1.00000
     95      -7.9181      1.00000
     96      -7.9181      1.00000
     97      -7.9181      1.00000
     98      -7.9181      1.00000
     99      -7.9139      1.00000
    100      -7.9138      1.00000
    101      -7.9138      1.00000
    102      -7.9138      1.00000
    103      -7.9137      1.00000
    104      -7.9137      1.00000
    105      -7.9038      1.00000
    106      -7.9038      1.00000
    107      -7.9038      1.00000
    108      -7.9038      1.00000
    109      -7.9016      1.00000
    110      -7.9016      1.00000
    111      -7.9014      1.00000
    112      -7.9014      1.00000
    113      -7.8997      1.00000
    114      -7.8997      1.00000
    115      -7.8997      1.00000
    116      -7.8997      1.00000
    117      -7.8951      1.00000
    118      -7.8951      1.00000
    119      -7.8951      1.00000
    120      -7.8951      1.00000
    121      -7.8924      1.00000
    122      -7.8924      1.00000
    123      -7.8923      1.00000
    124      -7.8923      1.00000
    125      -7.8914      1.00000
    126      -7.8914      1.00000
    127      -7.8913      1.00000
    128      -7.8913      1.00000
    129      -7.8866      1.00000
    130      -7.8866      1.00000
    131      -7.8866      1.00000
    132      -7.8866      1.00000
    133      -7.8856      1.00000
    134      -7.8856      1.00000
    135      -7.8835      1.00000
    136      -7.8835      1.00000
    137      -7.8835      1.00000
    138      -7.8835      1.00000
    139      -7.8834      1.00000
    140      -7.8834      1.00000
    141      -7.8779      1.00000
    142      -7.8779      1.00000
    143      -7.8779      1.00000
    144      -7.8779      1.00000
    145      -7.8761      1.00000
    146      -7.8761      1.00000
    147      -7.8693      1.00000
    148      -7.8693      1.00000
    149      -7.8682      1.00000
    150      -7.8682      1.00000
    151      -7.8682      1.00000
    152      -7.8682      1.00000
    153      -7.8638      1.00000
    154      -7.8638      1.00000
    155      -7.8620      1.00000
    156      -7.8620      1.00000
    157      -7.8620      1.00000
    158      -7.8620      1.00000
    159      -7.8600      1.00000
    160      -7.8600      1.00000
    161      -7.8581      1.00000
    162      -7.8581      1.00000
    163      -7.8581      1.00000
    164      -7.8581      1.00000
    165      -7.8551      1.00000
    166      -7.8551      1.00000
    167      -7.8543      1.00000
    168      -7.8543      1.00000
    169      -7.8543      1.00000
    170      -7.8543      1.00000
    171      -7.8504      1.00000
    172      -7.8504      1.00000
    173      -7.8499      1.00000
    174      -7.8499      1.00000
    175      -7.8499      1.00000
    176      -7.8499      1.00000
    177      -7.8406      1.00000
    178      -7.8406      1.00000
    179      -7.8406      1.00000
    180      -7.8406      1.00000
    181      -7.8403      1.00000
    182      -7.8403      1.00000
    183      -7.8385      1.00000
    184      -7.8385      1.00000
    185      -7.8378      1.00000
    186      -7.8378      1.00000
    187      -7.8378      1.00000
    188      -7.8378      1.00000
    189      -7.8301      1.00000
    190      -7.8301      1.00000
    191      -7.8301      1.00000
    192      -7.8301      1.00000
    193      -7.8262      1.00000
    194      -7.8261      1.00000
    195      -7.8261      1.00000
    196      -7.8261      1.00000
    197      -7.8257      1.00000
    198      -7.8257      1.00000
    199      -7.8195      1.00000
    200      -7.8195      1.00000
    201      -7.8195      1.00000
    202      -7.8195      1.00000
    203      -7.8188      1.00000
    204      -7.8187      1.00000
    205      -7.8132      1.00000
    206      -7.8132      1.00000
    207      -7.8132      1.00000
    208      -7.8132      1.00000
    209      -7.8119      1.00000
    210      -7.8119      1.00000
    211      -7.7847      1.00000
    212      -7.7847      1.00000
    213      -7.7840      1.00000
    214      -7.7840      1.00000
    215      -7.7840      1.00000
    216      -7.7840      1.00000
    217      -7.7744      1.00000
    218      -7.7744      1.00000
    219      -7.7687      1.00000
    220      -7.7687      1.00000
    221      -7.7687      1.00000
    222      -7.7687      1.00000
    223      -7.7673      1.00000
    224      -7.7673      1.00000
    225      -7.7587      1.00000
    226      -7.7587      1.00000
    227      -7.7587      1.00000
    228      -7.7587      1.00000
    229      -7.7526      1.00000
    230      -7.7525      1.00000
    231      -7.7525      1.00000
    232      -7.7525      1.00000
    233      -7.7524      1.00000
    234      -7.7524      1.00000
    235      -7.7460      1.00000
    236      -7.7460      1.00000
    237      -7.7436      1.00000
    238      -7.7436      1.00000
    239      -7.7436      1.00000
    240      -7.7436      1.00000
    241      -7.7367      1.00000
    242      -7.7367      1.00000
    243      -7.7347      1.00000
    244      -7.7347      1.00000
    245      -7.7347      1.00000
    246      -7.7347      1.00000
    247      -7.7310      1.00000
    248      -7.7310      1.00000
    249      -7.7310      1.00000
    250      -7.7310      1.00000
    251      -7.7300      1.00000
    252      -7.7300      1.00000
    253      -7.7300      1.00000
    254      -7.7300      1.00000
    255      -7.7292      1.00000
    256      -7.7292      1.00000
    257      -7.7252      1.00000
    258      -7.7252      1.00000
    259      -7.7252      1.00000
    260      -7.7251      1.00000
    261      -7.7243      1.00000
    262      -7.7243      1.00000
    263      -7.7227      1.00000
    264      -7.7227      1.00000
    265      -7.7223      1.00000
    266      -7.7223      1.00000
    267      -7.7223      1.00000
    268      -7.7223      1.00000
    269      -7.7210      1.00000
    270      -7.7210      1.00000
    271      -7.7196      1.00000
    272      -7.7196      1.00000
    273      -7.7160      1.00000
    274      -7.7160      1.00000
    275      -7.7160      1.00000
    276      -7.7160      1.00000
    277      -7.7124      1.00000
    278      -7.7124      1.00000
    279      -7.7118      1.00000
    280      -7.7118      1.00000
    281      -7.7109      1.00000
    282      -7.7109      1.00000
    283      -7.7109      1.00000
    284      -7.7109      1.00000
    285      -7.7092      1.00000
    286      -7.7092      1.00000
    287      -7.7092      1.00000
    288      -7.7092      1.00000
    289      -7.7049      1.00000
    290      -7.7049      1.00000
    291      -7.7048      1.00000
    292      -7.7048      1.00000
    293      -7.7027      1.00000
    294      -7.7027      1.00000
    295      -7.7027      1.00000
    296      -7.7027      1.00000
    297      -7.7024      1.00000
    298      -7.7024      1.00000
    299      -7.6999      1.00000
    300      -7.6999      1.00000
    301      -7.6966      1.00000
    302      -7.6966      1.00000
    303      -7.6966      1.00000
    304      -7.6966      1.00000
    305      -7.6930      1.00000
    306      -7.6930      1.00000
    307      -7.6930      1.00000
    308      -7.6929      1.00000
    309      -7.6929      1.00000
    310      -7.6929      1.00000
    311      -7.6913      1.00000
    312      -7.6913      1.00000
    313      -7.6903      1.00000
    314      -7.6903      1.00000
    315      -7.6903      1.00000
    316      -7.6903      1.00000
    317      -7.6871      1.00000
    318      -7.6871      1.00000
    319      -7.6870      1.00000
    320      -7.6870      1.00000
    321      -7.6836      1.00000
    322      -7.6836      1.00000
    323      -7.6826      1.00000
    324      -7.6826      1.00000
    325      -7.6826      1.00000
    326      -7.6826      1.00000
    327      -7.6785      1.00000
    328      -7.6785      1.00000
    329      -7.5904      1.00000
    330      -7.5904      1.00000
    331      -7.5881      1.00000
    332      -7.5881      1.00000
    333      -7.5881      1.00000
    334      -7.5881      1.00000
    335      -7.4842      1.00000
    336      -7.4842      1.00000
    337      -7.4503      1.00000
    338      -7.4503      1.00000
    339      -7.4503      1.00000
    340      -7.4503      1.00000
    341      -7.4365      1.00000
    342      -7.4365      1.00000
    343      -7.3631      1.00000
    344      -7.3631      1.00000
    345      -7.3631      1.00000
    346      -7.3631      1.00000
    347      -7.3241      1.00000
    348      -7.3241      1.00000
    349      -7.3153      1.00000
    350      -7.3153      1.00000
    351      -7.3153      1.00000
    352      -7.3153      1.00000
    353      -7.2888      1.00000
    354      -7.2888      1.00000
    355      -7.2776      1.00000
    356      -7.2776      1.00000
    357      -7.2607      1.00000
    358      -7.2607      1.00000
    359      -7.2606      1.00000
    360      -7.2606      1.00000
    361      -7.1916      1.00000
    362      -7.1916      1.00000
    363      -7.1702      1.00000
    364      -7.1702      1.00000
    365      -7.1702      1.00000
    366      -7.1702      1.00000
    367      -7.1361      1.00000
    368      -7.1361      1.00000
    369      -7.1360      1.00000
    370      -7.1360      1.00000
    371      -7.1337      1.00000
    372      -7.1337      1.00000
    373      -7.0954      1.00000
    374      -7.0954      1.00000
    375      -7.0954      1.00000
    376      -7.0954      1.00000
    377      -7.0850      1.00000
    378      -7.0850      1.00000
    379      -7.0850      1.00000
    380      -7.0850      1.00000
    381      -7.0850      1.00000
    382      -7.0850      1.00000
    383      -7.0602      1.00000
    384      -7.0602      1.00000
    385      -6.8251      1.00000
    386      -6.8251      1.00000
    387      -6.8251      1.00000
    388      -6.8251      1.00000
    389      -6.8003      1.00000
    390      -6.8003      1.00000
    391      -6.8002      1.00000
    392      -6.8002      1.00000
    393      -6.7997      1.00000
    394      -6.7997      1.00000
    395      -3.2164      1.00000
    396      -3.2164      1.00000
    397      -2.8016      1.00000
    398      -2.8016      1.00000
    399      -2.8016      1.00000
    400      -2.8016      1.00000
    401      -2.7374      1.00000
    402      -2.7374      1.00000
    403      -2.6985      1.00000
    404      -2.6985      1.00000
    405      -2.6948      1.00000
    406      -2.6948      1.00000
    407      -2.6947      1.00000
    408      -2.6947      1.00000
    409      -2.6824      1.00000
    410      -2.6823      1.00000
    411      -2.6823      1.00000
    412      -2.6823      1.00000
    413      -2.6810      1.00000
    414      -2.6809      1.00000
    415      -2.6653      1.00000
    416      -2.6653      1.00000
    417      -2.6653      1.00000
    418      -2.6653      1.00000
    419      -2.6474      1.00000
    420      -2.6474      1.00000
    421      -2.6451      1.00000
    422      -2.6451      1.00000
    423      -2.6450      1.00000
    424      -2.6450      1.00000
    425      -2.5150      1.00000
    426      -2.5150      1.00000
    427      -2.3816      1.00000
    428      -2.3816      1.00000
    429      -2.3724      1.00000
    430      -2.3724      1.00000
    431      -2.3724      1.00000
    432      -2.3724      1.00000
    433      -2.3718      1.00000
    434      -2.3718      1.00000
    435      -2.3434      1.00000
    436      -2.3434      1.00000
    437      -2.3434      1.00000
    438      -2.3434      1.00000
    439      -1.9728      1.00000
    440      -1.9728      1.00000
    441      -1.9252      1.00000
    442      -1.9252      1.00000
    443      -1.9251      1.00000
    444      -1.9251      1.00000
    445      -1.7271      1.00000
    446      -1.7271      1.00000
    447      -1.6545      1.00000
    448      -1.6545      1.00000
    449      -1.6545      1.00000
    450      -1.6545      1.00000
    451      -1.0880      1.00000
    452      -1.0880      1.00000
    453      -0.8535      1.00000
    454      -0.8535      1.00000
    455      -0.8535      1.00000
    456      -0.8535      1.00000
    457      -0.8235      1.00000
    458      -0.8235      1.00000
    459      -0.8235      1.00000
    460      -0.8235      1.00000
    461      -0.8129      1.00000
    462      -0.8129      1.00000
    463      -0.8108      1.00000
    464      -0.8108      1.00000
    465      -0.7776      1.00000
    466      -0.7776      1.00000
    467      -0.7689      1.00000
    468      -0.7689      1.00000
    469      -0.7689      1.00000
    470      -0.7689      1.00000
    471      -0.7551      1.00000
    472      -0.7551      1.00000
    473      -0.7551      1.00000
    474      -0.7551      1.00000
    475      -0.5330      1.00000
    476      -0.5330      1.00000
    477      -0.4770      1.00000
    478      -0.4770      1.00000
    479      -0.4770      1.00000
    480      -0.4770      1.00000
    481      -0.4315      1.00000
    482      -0.4315      1.00000
    483      -0.3511      1.00000
    484      -0.3511      1.00000
    485      -0.3511      1.00000
    486      -0.3511      1.00000
    487      -0.3268      1.00000
    488      -0.3268      1.00000
    489      -0.2953      1.00000
    490      -0.2953      1.00000
    491      -0.2953      1.00000
    492      -0.2953      1.00000
    493      -0.1889      1.00000
    494      -0.1889      1.00000
    495      -0.1596      1.00000
    496      -0.1596      1.00000
    497      -0.1596      1.00000
    498      -0.1596      1.00000
    499      -0.1313      1.00000
    500      -0.1313      1.00000
    501      -0.1312      1.00000
    502      -0.1312      1.00000
    503      -0.1267      1.00000
    504      -0.1266      1.00000
    505      -0.1042      1.00000
    506      -0.1042      1.00000
    507      -0.1042      1.00000
    508      -0.1042      1.00000
    509      -0.1025      1.00000
    510      -0.1025      1.00000
    511       0.0536      1.00000
    512       0.0536      1.00000
    513       0.0919      1.00000
    514       0.0919      1.00000
    515       0.0919      1.00000
    516       0.0919      1.00000
    517       0.2527      1.00000
    518       0.2527      1.00000
    519       0.2527      1.00000
    520       0.2527      1.00000
    521       0.2668      1.00000
    522       0.2668      1.00000
    523       0.2918      1.00000
    524       0.2918      1.00000
    525       0.2965      1.00000
    526       0.2965      1.00000
    527       0.2965      1.00000
    528       0.2965      1.00000
    529       0.3671      1.00000
    530       0.3671      1.00000
    531       0.3671      1.00000
    532       0.3671      1.00000
    533       0.3766      1.00000
    534       0.3766      1.00000
    535       0.4417      1.00000
    536       0.4417      1.00000
    537       0.4582      1.00000
    538       0.4582      1.00000
    539       0.4582      1.00000
    540       0.4582      1.00000
    541       0.4623      1.00000
    542       0.4623      1.00000
    543       0.5026      1.00000
    544       0.5026      1.00000
    545       0.5174      1.00000
    546       0.5174      1.00000
    547       0.5174      1.00000
    548       0.5174      1.00000
    549       0.5225      1.00000
    550       0.5225      1.00000
    551       0.5419      1.00000
    552       0.5419      1.00000
    553       0.5420      1.00000
    554       0.5420      1.00000
    555       0.6678      1.00000
    556       0.6678      1.00000
    557       0.6678      1.00000
    558       0.6679      1.00000
    559       0.6897      1.00000
    560       0.6897      1.00000
    561       0.9308      1.00000
    562       0.9308      1.00000
    563       0.9308      1.00000
    564       0.9308      1.00000
    565       0.9516      1.00000
    566       0.9517      1.00000
    567       0.9638      1.00000
    568       0.9638      1.00000
    569       0.9702      1.00000
    570       0.9702      1.00000
    571       0.9702      1.00000
    572       0.9702      1.00000
    573       1.0010      1.00000
    574       1.0010      1.00000
    575       1.0010      1.00000
    576       1.0010      1.00000
    577       1.1792      1.00000
    578       1.1792      1.00000
    579       1.1845      1.00000
    580       1.1845      1.00000
    581       1.1845      1.00000
    582       1.1845      1.00000
    583       1.5202      1.00000
    584       1.5202      1.00000
    585       1.5202      1.00000
    586       1.5202      1.00000
    587       2.9826      1.00000
    588       2.9826      1.00000
    589       4.0263      0.00000
    590       4.0263      0.00000
    591       4.2382      0.00000
    592       4.2382      0.00000
    593       4.6950      0.00000
    594       4.6950      0.00000
    595       4.6950      0.00000
    596       4.6950      0.00000
    597       4.7906      0.00000
    598       4.7907      0.00000
    599       4.9314      0.00000
    600       4.9314      0.00000
    601       4.9669      0.00000
    602       4.9669      0.00000
    603       4.9669      0.00000
    604       4.9669      0.00000
    605       5.0037      0.00000
    606       5.0037      0.00000
    607       5.0128      0.00000
    608       5.0128      0.00000
    609       5.0128      0.00000
    610       5.0128      0.00000
    611       5.1450      0.00000
    612       5.1450      0.00000
    613       5.1450      0.00000
    614       5.1450      0.00000
    615       5.2301      0.00000
    616       5.2301      0.00000
    617       5.3472      0.00000
    618       5.3472      0.00000
    619       5.3855      0.00000
    620       5.3855      0.00000
    621       5.3855      0.00000
    622       5.3855      0.00000
    623       5.4740      0.00000
    624       5.4740      0.00000
    625       5.4740      0.00000
    626       5.4740      0.00000
    627       5.5305      0.00000
    628       5.5305      0.00000
    629       5.6094      0.00000
    630       5.6094      0.00000
    631       5.6094      0.00000
    632       5.6094      0.00000
    633       5.6756      0.00000
    634       5.6756      0.00000
    635       5.7103      0.00000
    636       5.7103      0.00000
    637       5.7103      0.00000
    638       5.7103      0.00000
    639       5.7426      0.00000
    640       5.7426      0.00000
    641       5.7426      0.00000
    642       5.7426      0.00000
    643       5.7449      0.00000
    644       5.7449      0.00000
    645       5.8148      0.00000
    646       5.8148      0.00000
    647       5.9064      0.00000
    648       5.9064      0.00000
    649       5.9064      0.00000
    650       5.9064      0.00000
    651       5.9599      0.00000
    652       5.9599      0.00000
    653       5.9599      0.00000
    654       5.9599      0.00000
    655       5.9668      0.00000
    656       5.9668      0.00000
    657       5.9876      0.00000
    658       5.9876      0.00000
    659       6.0340      0.00000
    660       6.0340      0.00000
    661       6.0341      0.00000
    662       6.0341      0.00000
    663       6.3493      0.00000
    664       6.3493      0.00000
    665       6.4483      0.00000
    666       6.4483      0.00000
    667       6.4483      0.00000
    668       6.4483      0.00000
    669       6.5275      0.00000
    670       6.5275      0.00000
    671       6.8033      0.00000
    672       6.8033      0.00000
    673       6.8033      0.00000
    674       6.8033      0.00000
    675       6.9153      0.00000
    676       6.9153      0.00000
    677       6.9903      0.00000
    678       6.9903      0.00000
    679       6.9903      0.00000
    680       6.9903      0.00000
    681       6.9926      0.00000
    682       6.9926      0.00000
    683       7.0251      0.00000
    684       7.0251      0.00000
    685       7.0251      0.00000
    686       7.0251      0.00000
    687       7.0450      0.00000
    688       7.0450      0.00000
    689       7.0450      0.00000
    690       7.0450      0.00000
    691       7.0577      0.00000
    692       7.0577      0.00000
    693       7.1025      0.00000
    694       7.1025      0.00000
    695       7.1275      0.00000
    696       7.1275      0.00000
    697       7.2506      0.00000
    698       7.2506      0.00000
    699       7.2506      0.00000
    700       7.2506      0.00000
    701       7.3594      0.00000
    702       7.3594      0.00000
    703       7.3252      0.00000
    704       7.3252      0.00000
    705       7.3252      0.00000
    706       7.3252      0.00000
    707       7.4581      0.00000
    708       7.4582      0.00000
    709       7.4582      0.00000
    710       7.4582      0.00000
    711       7.4783      0.00000
    712       7.4783      0.00000
    713       7.5256      0.00000
    714       7.5256      0.00000
    715       7.5256      0.00000
    716       7.5256      0.00000
    717       7.6337      0.00000
    718       7.6337      0.00000
    719       7.6337      0.00000
    720       7.6337      0.00000
    721       7.7678      0.00000
    722       7.7678      0.00000
    723       7.7679      0.00000
    724       7.7678      0.00000
    725       7.8138      0.00000
    726       7.8139      0.00000
    727       7.8127      0.00000
    728       7.8127      0.00000
    729       7.8747      0.00000
    730       7.8747      0.00000
    731       7.8747      0.00000
    732       7.8747      0.00000
    733       7.9652      0.00000
    734       7.9652      0.00000
    735       7.9665      0.00000
    736       7.9665      0.00000
    737       7.9665      0.00000
    738       7.9665      0.00000
    739       8.0013      0.00000
    740       8.0013      0.00000
    741       8.0600      0.00000
    742       8.0600      0.00000
    743       8.0601      0.00000
    744       8.0601      0.00000
    745       8.0860      0.00000
    746       8.0860      0.00000
    747       8.0860      0.00000
    748       8.0860      0.00000
    749       8.0981      0.00000
    750       8.0981      0.00000
    751       8.1501      0.00000
    752       8.1501      0.00000
    753       8.1501      0.00000
    754       8.1501      0.00000
    755       8.1517      0.00000
    756       8.1517      0.00000
    757       8.2432      0.00000
    758       8.2432      0.00000
    759       8.2109      0.00000
    760       8.2109      0.00000
    761       8.2266      0.00000
    762       8.2266      0.00000
    763       8.2266      0.00000
    764       8.2266      0.00000
    765       8.3798      0.00000
    766       8.3798      0.00000
    767       8.3798      0.00000
    768       8.3799      0.00000
    769       8.4068      0.00000
    770       8.4068      0.00000
    771       8.4068      0.00000
    772       8.4068      0.00000
    773       8.4401      0.00000
    774       8.4401      0.00000
    775       8.5805      0.00000
    776       8.5805      0.00000
    777       8.6755      0.00000
    778       8.6755      0.00000
    779       8.6755      0.00000
    780       8.6755      0.00000
    781       8.8556      0.00000
    782       8.8556      0.00000
    783       8.8556      0.00000
    784       8.8556      0.00000
    785       8.9478      0.00000
    786       8.9478      0.00000
    787       9.0254      0.00000
    788       9.0255      0.00000
    789       9.0882      0.00000
    790       9.0882      0.00000
    791       9.2500      0.00000
    792       9.2500      0.00000
    793       9.2500      0.00000
    794       9.2501      0.00000
    795       9.2624      0.00000
    796       9.2624      0.00000
    797       9.2611      0.00000
    798       9.2611      0.00000
    799       9.2611      0.00000
    800       9.2611      0.00000
    801       9.2850      0.00000
    802       9.2851      0.00000
    803       9.2851      0.00000
    804       9.2851      0.00000
    805       9.3023      0.00000
    806       9.3023      0.00000
    807       9.4677      0.00000
    808       9.4677      0.00000
    809       9.4745      0.00000
    810       9.4745      0.00000
    811       9.4745      0.00000
    812       9.4744      0.00000
    813       9.5263      0.00000
    814       9.5263      0.00000
    815       9.5263      0.00000
    816       9.5264      0.00000
    817       9.5054      0.00000
    818       9.5054      0.00000
    819       9.7561      0.00000
    820       9.7561      0.00000
    821       9.7561      0.00000
    822       9.7561      0.00000
    823       9.8127      0.00000
    824       9.8127      0.00000
    825       9.9007      0.00000
    826       9.9008      0.00000
    827       9.9113      0.00000
    828       9.9113      0.00000
    829       9.9113      0.00000
    830       9.9114      0.00000
    831       9.9210      0.00000
    832       9.9210      0.00000
    833       9.9363      0.00000
    834       9.9364      0.00000
    835       9.9364      0.00000
    836       9.9364      0.00000
    837      10.1420      0.00000
    838      10.1420      0.00000
    839      10.1420      0.00000
    840      10.1420      0.00000
    841      10.1522      0.00000
    842      10.1522      0.00000
    843      10.3486      0.00000
    844      10.3486      0.00000
    845      10.3486      0.00000
    846      10.3487      0.00000
    847      10.4532      0.00000
    848      10.4532      0.00000
    849      10.5908      0.00000
    850      10.5909      0.00000
    851      10.6388      0.00000
    852      10.6389      0.00000
    853      10.6569      0.00000
    854      10.6569      0.00000
    855      10.6569      0.00000
    856      10.6569      0.00000
    857      10.7244      0.00000
    858      10.7244      0.00000
    859      10.7244      0.00000
    860      10.7245      0.00000
    861      10.7846      0.00000
    862      10.7847      0.00000
    863      10.8143      0.00000
    864      10.8144      0.00000
    865      10.8484      0.00000
    866      10.8484      0.00000
    867      10.8485      0.00000
    868      10.8484      0.00000
    869      10.8492      0.00000
    870      10.8492      0.00000
    871      10.8948      0.00000
    872      10.8948      0.00000
    873      10.9683      0.00000
    874      10.9683      0.00000
    875      10.9683      0.00000
    876      10.9683      0.00000
    877      11.0181      0.00000
    878      11.0182      0.00000
    879      11.0357      0.00000
    880      11.0357      0.00000
    881      11.0357      0.00000
    882      11.0358      0.00000
    883      11.1073      0.00000
    884      11.1072      0.00000
    885      11.1235      0.00000
    886      11.1235      0.00000
    887      11.1235      0.00000
    888      11.1235      0.00000
    889      11.1528      0.00000
    890      11.1528      0.00000
    891      11.1528      0.00000
    892      11.1528      0.00000
    893      11.1546      0.00000
    894      11.1546      0.00000
    895      11.1767      0.00000
    896      11.1772      0.00000
    897      11.2009      0.00000
    898      11.2009      0.00000
    899      11.2010      0.00000
    900      11.2008      0.00000
    901      11.2433      0.00000
    902      11.2434      0.00000
    903      11.2437      0.00000
    904      11.2442      0.00000
    905      11.4312      0.00000
    906      11.4313      0.00000
    907      11.4772      0.00000
    908      11.4772      0.00000
    909      11.4772      0.00000
    910      11.4773      0.00000
    911      11.5650      0.00000
    912      11.5650      0.00000
    913      11.5650      0.00000
    914      11.5650      0.00000
    915      11.5867      0.00000
    916      11.5867      0.00000
    917      11.6643      0.00000
    918      11.6643      0.00000
    919      11.7826      0.00000
    920      11.7826      0.00000
    921      11.7828      0.00000
    922      11.7829      0.00000
    923      11.8341      0.00000
    924      11.8341      0.00000
    925      11.8343      0.00000
    926      11.8345      0.00000
    927      11.8484      0.00000
    928      11.8484      0.00000
    929      11.8484      0.00000
    930      11.8485      0.00000
    931      11.8800      0.00000
    932      11.8801      0.00000
    933      11.8814      0.00000
    934      11.8815      0.00000
    935      11.9808      0.00000
    936      11.9810      0.00000
    937      11.9811      0.00000
    938      11.9812      0.00000
    939      12.1703      0.00000
    940      12.1705      0.00000
    941      12.3517      0.00000
    942      12.3531      0.00000
    943      12.4446      0.00000
    944      12.4462      0.00000
    945      12.4630      0.00000
    946      12.4629      0.00000
    947      12.4626      0.00000
    948      12.4617      0.00000
    949      12.4649      0.00000
    950      12.4646      0.00000
    951      12.4670      0.00000
    952      12.4697      0.00000
    953      12.5826      0.00000
    954      12.5847      0.00000
    955      12.6030      0.00000
    956      12.6042      0.00000
    957      12.6057      0.00000
    958      12.6060      0.00000
    959      12.6269      0.00000
    960      12.6277      0.00000
    961      12.6293      0.00000
    962      12.6303      0.00000
    963      12.6579      0.00000
    964      12.6616      0.00000
    965      12.9028      0.00000
    966      12.9033      0.00000
    967      12.9040      0.00000
    968      12.9044      0.00000
    969      12.9478      0.00000
    970      12.9478      0.00000
    971      12.9828      0.00000
    972      12.9837      0.00000
    973      12.9836      0.00000
    974      12.9852      0.00000
    975      13.0098      0.00000
    976      13.0264      0.00000
    977      13.0753      0.00000
    978      13.0765      0.00000
    979      13.1985      0.00000
    980      13.2022      0.00000
    981      13.2072      0.00000
    982      13.2109      0.00000
    983      13.2195      0.00000
    984      13.2331      0.00000
    985      13.2547      0.00000
    986      13.2553      0.00000
    987      13.2603      0.00000
    988      13.2720      0.00000
    989      13.2819      0.00000
    990      13.3006      0.00000
    991      13.3757      0.00000
    992      13.3905      0.00000
    993      13.4042      0.00000
    994      13.4169      0.00000
    995      13.4620      0.00000
    996      13.4703      0.00000
    997      13.4758      0.00000
    998      13.4698      0.00000
    999      13.4782      0.00000
   1000      13.4826      0.00000
   1001      13.5418      0.00000
   1002      13.5614      0.00000
   1003      13.5725      0.00000
   1004      13.5780      0.00000
   1005      13.6235      0.00000
   1006      13.6574      0.00000
   1007      13.6941      0.00000
   1008      13.7547      0.00000
   1009      13.7866      0.00000
   1010      13.7955      0.00000
   1011      13.8077      0.00000
   1012      13.8138      0.00000
   1013      13.8340      0.00000
   1014      13.8697      0.00000
   1015      13.8840      0.00000
   1016      13.8982      0.00000
   1017      13.9199      0.00000
   1018      13.9331      0.00000
   1019      13.9402      0.00000
   1020      13.9518      0.00000
   1021      13.9627      0.00000
   1022      13.9665      0.00000
   1023      13.9788      0.00000
   1024      14.0003      0.00000

 k-point     2 :      -0.2500   -0.2500   -0.2500
  band No.  band energies     occupation 
      1     -10.2690      1.00000
      2     -10.2690      1.00000
      3     -10.1552      1.00000
      4     -10.1552      1.00000
      5     -10.1552      1.00000
      6     -10.1552      1.00000
      7     -10.1418      1.00000
      8     -10.1417      1.00000
      9     -10.0704      1.00000
     10     -10.0704      1.00000
     11     -10.0704      1.00000
     12     -10.0704      1.00000
     13     -10.0533      1.00000
     14     -10.0533      1.00000
     15     -10.0221      1.00000
     16     -10.0221      1.00000
     17     -10.0045      1.00000
     18     -10.0045      1.00000
     19     -10.0044      1.00000
     20     -10.0044      1.00000
     21      -9.9839      1.00000
     22      -9.9839      1.00000
     23      -9.9695      1.00000
     24      -9.9695      1.00000
     25      -9.9694      1.00000
     26      -9.9693      1.00000
     27      -9.9656      1.00000
     28      -9.9656      1.00000
     29      -9.9656      1.00000
     30      -9.9655      1.00000
     31      -9.9577      1.00000
     32      -9.9577      1.00000
     33      -9.9577      1.00000
     34      -9.9577      1.00000
     35      -9.9400      1.00000
     36      -9.9400      1.00000
     37      -9.9350      1.00000
     38      -9.9350      1.00000
     39      -9.9350      1.00000
     40      -9.9350      1.00000
     41      -9.9022      1.00000
     42      -9.9022      1.00000
     43      -9.9022      1.00000
     44      -9.9022      1.00000
     45      -9.9006      1.00000
     46      -9.9006      1.00000
     47      -9.8961      1.00000
     48      -9.8960      1.00000
     49      -9.8911      1.00000
     50      -9.8911      1.00000
     51      -9.8910      1.00000
     52      -9.8910      1.00000
     53      -9.8694      1.00000
     54      -9.8694      1.00000
     55      -9.8556      1.00000
     56      -9.8556      1.00000
     57      -9.8556      1.00000
     58      -9.8556      1.00000
     59      -9.8448      1.00000
     60      -9.8448      1.00000
     61      -9.8389      1.00000
     62      -9.8389      1.00000
     63      -9.8389      1.00000
     64      -9.8389      1.00000
     65      -8.0753      1.00000
     66      -8.0753      1.00000
     67      -8.0753      1.00000
     68      -8.0753      1.00000
     69      -8.0723      1.00000
     70      -8.0723      1.00000
     71      -8.0172      1.00000
     72      -8.0172      1.00000
     73      -7.9722      1.00000
     74      -7.9722      1.00000
     75      -7.9722      1.00000
     76      -7.9722      1.00000
     77      -7.9537      1.00000
     78      -7.9537      1.00000
     79      -7.9537      1.00000
     80      -7.9537      1.00000
     81      -7.9404      1.00000
     82      -7.9403      1.00000
     83      -7.9383      1.00000
     84      -7.9383      1.00000
     85      -7.9383      1.00000
     86      -7.9383      1.00000
     87      -7.9373      1.00000
     88      -7.9373      1.00000
     89      -7.9227      1.00000
     90      -7.9227      1.00000
     91      -7.9226      1.00000
     92      -7.9226      1.00000
     93      -7.9196      1.00000
     94      -7.9196      1.00000
     95      -7.9181      1.00000
     96      -7.9181      1.00000
     97      -7.9181      1.00000
     98      -7.9181      1.00000
     99      -7.9139      1.00000
    100      -7.9138      1.00000
    101      -7.9138      1.00000
    102      -7.9138      1.00000
    103      -7.9137      1.00000
    104      -7.9137      1.00000
    105      -7.9038      1.00000
    106      -7.9038      1.00000
    107      -7.9038      1.00000
    108      -7.9038      1.00000
    109      -7.9016      1.00000
    110      -7.9016      1.00000
    111      -7.9014      1.00000
    112      -7.9014      1.00000
    113      -7.8997      1.00000
    114      -7.8997      1.00000
    115      -7.8997      1.00000
    116      -7.8997      1.00000
    117      -7.8951      1.00000
    118      -7.8951      1.00000
    119      -7.8951      1.00000
    120      -7.8951      1.00000
    121      -7.8924      1.00000
    122      -7.8924      1.00000
    123      -7.8923      1.00000
    124      -7.8923      1.00000
    125      -7.8914      1.00000
    126      -7.8914      1.00000
    127      -7.8913      1.00000
    128      -7.8913      1.00000
    129      -7.8866      1.00000
    130      -7.8866      1.00000
    131      -7.8866      1.00000
    132      -7.8866      1.00000
    133      -7.8856      1.00000
    134      -7.8856      1.00000
    135      -7.8835      1.00000
    136      -7.8835      1.00000
    137      -7.8835      1.00000
    138      -7.8835      1.00000
    139      -7.8834      1.00000
    140      -7.8834      1.00000
    141      -7.8779      1.00000
    142      -7.8779      1.00000
    143      -7.8779      1.00000
    144      -7.8779      1.00000
    145      -7.8761      1.00000
    146      -7.8761      1.00000
    147      -7.8693      1.00000
    148      -7.8693      1.00000
    149      -7.8682      1.00000
    150      -7.8682      1.00000
    151      -7.8682      1.00000
    152      -7.8682      1.00000
    153      -7.8638      1.00000
    154      -7.8638      1.00000
    155      -7.8620      1.00000
    156      -7.8620      1.00000
    157      -7.8620      1.00000
    158      -7.8620      1.00000
    159      -7.8600      1.00000
    160      -7.8600      1.00000
    161      -7.8581      1.00000
    162      -7.8581      1.00000
    163      -7.8581      1.00000
    164      -7.8581      1.00000
    165      -7.8551      1.00000
    166      -7.8551      1.00000
    167      -7.8543      1.00000
    168      -7.8543      1.00000
    169      -7.8543      1.00000
    170      -7.8543      1.00000
    171      -7.8504      1.00000
    172      -7.8504      1.00000
    173      -7.8499      1.00000
    174      -7.8499      1.00000
    175      -7.8499      1.00000
    176      -7.8499      1.00000
    177      -7.8406      1.00000
    178      -7.8406      1.00000
    179      -7.8406      1.00000
    180      -7.8406      1.00000
    181      -7.8403      1.00000
    182      -7.8403      1.00000
    183      -7.8385      1.00000
    184      -7.8385      1.00000
    185      -7.8378      1.00000
    186      -7.8378      1.00000
    187      -7.8378      1.00000
    188      -7.8378      1.00000
    189      -7.8301      1.00000
    190      -7.8301      1.00000
    191      -7.8301      1.00000
    192      -7.8301      1.00000
    193      -7.8262      1.00000
    194      -7.8261      1.00000
    195      -7.8261      1.00000
    196      -7.8261      1.00000
    197      -7.8257      1.00000
    198      -7.8257      1.00000
    199      -7.8195      1.00000
    200      -7.8195      1.00000
    201      -7.8195      1.00000
    202      -7.8195      1.00000
    203      -7.8188      1.00000
    204      -7.8187      1.00000
    205      -7.8132      1.00000
    206      -7.8132      1.00000
    207      -7.8132      1.00000
    208      -7.8132      1.00000
    209      -7.8119      1.00000
    210      -7.8119      1.00000
    211      -7.7847      1.00000
    212      -7.7847      1.00000
    213      -7.7840      1.00000
    214      -7.7840      1.00000
    215      -7.7840      1.00000
    216      -7.7840      1.00000
    217      -7.7744      1.00000
    218      -7.7744      1.00000
    219      -7.7687      1.00000
    220      -7.7687      1.00000
    221      -7.7687      1.00000
    222      -7.7687      1.00000
    223      -7.7673      1.00000
    224      -7.7673      1.00000
    225      -7.7587      1.00000
    226      -7.7587      1.00000
    227      -7.7587      1.00000
    228      -7.7587      1.00000
    229      -7.7526      1.00000
    230      -7.7525      1.00000
    231      -7.7525      1.00000
    232      -7.7525      1.00000
    233      -7.7524      1.00000
    234      -7.7524      1.00000
    235      -7.7460      1.00000
    236      -7.7459      1.00000
    237      -7.7436      1.00000
    238      -7.7436      1.00000
    239      -7.7436      1.00000
    240      -7.7436      1.00000
    241      -7.7367      1.00000
    242      -7.7367      1.00000
    243      -7.7347      1.00000
    244      -7.7347      1.00000
    245      -7.7347      1.00000
    246      -7.7347      1.00000
    247      -7.7310      1.00000
    248      -7.7310      1.00000
    249      -7.7310      1.00000
    250      -7.7310      1.00000
    251      -7.7300      1.00000
    252      -7.7300      1.00000
    253      -7.7300      1.00000
    254      -7.7300      1.00000
    255      -7.7292      1.00000
    256      -7.7292      1.00000
    257      -7.7252      1.00000
    258      -7.7252      1.00000
    259      -7.7252      1.00000
    260      -7.7251      1.00000
    261      -7.7243      1.00000
    262      -7.7243      1.00000
    263      -7.7227      1.00000
    264      -7.7227      1.00000
    265      -7.7223      1.00000
    266      -7.7223      1.00000
    267      -7.7223      1.00000
    268      -7.7223      1.00000
    269      -7.7210      1.00000
    270      -7.7210      1.00000
    271      -7.7196      1.00000
    272      -7.7196      1.00000
    273      -7.7160      1.00000
    274      -7.7160      1.00000
    275      -7.7160      1.00000
    276      -7.7160      1.00000
    277      -7.7124      1.00000
    278      -7.7124      1.00000
    279      -7.7118      1.00000
    280      -7.7118      1.00000
    281      -7.7109      1.00000
    282      -7.7109      1.00000
    283      -7.7109      1.00000
    284      -7.7109      1.00000
    285      -7.7092      1.00000
    286      -7.7092      1.00000
    287      -7.7092      1.00000
    288      -7.7092      1.00000
    289      -7.7049      1.00000
    290      -7.7049      1.00000
    291      -7.7048      1.00000
    292      -7.7048      1.00000
    293      -7.7027      1.00000
    294      -7.7027      1.00000
    295      -7.7027      1.00000
    296      -7.7027      1.00000
    297      -7.7024      1.00000
    298      -7.7024      1.00000
    299      -7.6999      1.00000
    300      -7.6999      1.00000
    301      -7.6966      1.00000
    302      -7.6966      1.00000
    303      -7.6966      1.00000
    304      -7.6966      1.00000
    305      -7.6930      1.00000
    306      -7.6930      1.00000
    307      -7.6930      1.00000
    308      -7.6929      1.00000
    309      -7.6929      1.00000
    310      -7.6929      1.00000
    311      -7.6913      1.00000
    312      -7.6913      1.00000
    313      -7.6903      1.00000
    314      -7.6903      1.00000
    315      -7.6903      1.00000
    316      -7.6903      1.00000
    317      -7.6871      1.00000
    318      -7.6871      1.00000
    319      -7.6870      1.00000
    320      -7.6870      1.00000
    321      -7.6836      1.00000
    322      -7.6836      1.00000
    323      -7.6826      1.00000
    324      -7.6826      1.00000
    325      -7.6826      1.00000
    326      -7.6826      1.00000
    327      -7.6785      1.00000
    328      -7.6785      1.00000
    329      -7.5904      1.00000
    330      -7.5904      1.00000
    331      -7.5881      1.00000
    332      -7.5881      1.00000
    333      -7.5881      1.00000
    334      -7.5881      1.00000
    335      -7.4842      1.00000
    336      -7.4842      1.00000
    337      -7.4503      1.00000
    338      -7.4503      1.00000
    339      -7.4503      1.00000
    340      -7.4503      1.00000
    341      -7.4365      1.00000
    342      -7.4365      1.00000
    343      -7.3631      1.00000
    344      -7.3631      1.00000
    345      -7.3631      1.00000
    346      -7.3631      1.00000
    347      -7.3241      1.00000
    348      -7.3241      1.00000
    349      -7.3153      1.00000
    350      -7.3153      1.00000
    351      -7.3153      1.00000
    352      -7.3153      1.00000
    353      -7.2888      1.00000
    354      -7.2888      1.00000
    355      -7.2776      1.00000
    356      -7.2776      1.00000
    357      -7.2607      1.00000
    358      -7.2607      1.00000
    359      -7.2606      1.00000
    360      -7.2606      1.00000
    361      -7.1916      1.00000
    362      -7.1916      1.00000
    363      -7.1702      1.00000
    364      -7.1702      1.00000
    365      -7.1702      1.00000
    366      -7.1702      1.00000
    367      -7.1361      1.00000
    368      -7.1361      1.00000
    369      -7.1360      1.00000
    370      -7.1360      1.00000
    371      -7.1337      1.00000
    372      -7.1337      1.00000
    373      -7.0954      1.00000
    374      -7.0954      1.00000
    375      -7.0954      1.00000
    376      -7.0954      1.00000
    377      -7.0850      1.00000
    378      -7.0850      1.00000
    379      -7.0850      1.00000
    380      -7.0850      1.00000
    381      -7.0850      1.00000
    382      -7.0850      1.00000
    383      -7.0602      1.00000
    384      -7.0602      1.00000
    385      -6.8251      1.00000
    386      -6.8251      1.00000
    387      -6.8251      1.00000
    388      -6.8251      1.00000
    389      -6.8003      1.00000
    390      -6.8003      1.00000
    391      -6.8002      1.00000
    392      -6.8002      1.00000
    393      -6.7997      1.00000
    394      -6.7997      1.00000
    395      -3.2164      1.00000
    396      -3.2164      1.00000
    397      -2.8016      1.00000
    398      -2.8016      1.00000
    399      -2.8016      1.00000
    400      -2.8016      1.00000
    401      -2.7374      1.00000
    402      -2.7374      1.00000
    403      -2.6985      1.00000
    404      -2.6985      1.00000
    405      -2.6948      1.00000
    406      -2.6948      1.00000
    407      -2.6947      1.00000
    408      -2.6947      1.00000
    409      -2.6824      1.00000
    410      -2.6823      1.00000
    411      -2.6823      1.00000
    412      -2.6823      1.00000
    413      -2.6810      1.00000
    414      -2.6809      1.00000
    415      -2.6653      1.00000
    416      -2.6653      1.00000
    417      -2.6653      1.00000
    418      -2.6653      1.00000
    419      -2.6474      1.00000
    420      -2.6474      1.00000
    421      -2.6451      1.00000
    422      -2.6451      1.00000
    423      -2.6450      1.00000
    424      -2.6450      1.00000
    425      -2.5150      1.00000
    426      -2.5150      1.00000
    427      -2.3816      1.00000
    428      -2.3816      1.00000
    429      -2.3724      1.00000
    430      -2.3724      1.00000
    431      -2.3724      1.00000
    432      -2.3724      1.00000
    433      -2.3718      1.00000
    434      -2.3718      1.00000
    435      -2.3434      1.00000
    436      -2.3434      1.00000
    437      -2.3434      1.00000
    438      -2.3434      1.00000
    439      -1.9728      1.00000
    440      -1.9728      1.00000
    441      -1.9252      1.00000
    442      -1.9252      1.00000
    443      -1.9252      1.00000
    444      -1.9251      1.00000
    445      -1.7271      1.00000
    446      -1.7271      1.00000
    447      -1.6545      1.00000
    448      -1.6545      1.00000
    449      -1.6545      1.00000
    450      -1.6545      1.00000
    451      -1.0880      1.00000
    452      -1.0880      1.00000
    453      -0.8535      1.00000
    454      -0.8535      1.00000
    455      -0.8535      1.00000
    456      -0.8535      1.00000
    457      -0.8235      1.00000
    458      -0.8235      1.00000
    459      -0.8235      1.00000
    460      -0.8235      1.00000
    461      -0.8129      1.00000
    462      -0.8129      1.00000
    463      -0.8108      1.00000
    464      -0.8108      1.00000
    465      -0.7776      1.00000
    466      -0.7776      1.00000
    467      -0.7689      1.00000
    468      -0.7689      1.00000
    469      -0.7689      1.00000
    470      -0.7689      1.00000
    471      -0.7551      1.00000
    472      -0.7551      1.00000
    473      -0.7551      1.00000
    474      -0.7551      1.00000
    475      -0.5330      1.00000
    476      -0.5330      1.00000
    477      -0.4770      1.00000
    478      -0.4770      1.00000
    479      -0.4770      1.00000
    480      -0.4770      1.00000
    481      -0.4315      1.00000
    482      -0.4315      1.00000
    483      -0.3511      1.00000
    484      -0.3511      1.00000
    485      -0.3511      1.00000
    486      -0.3511      1.00000
    487      -0.3268      1.00000
    488      -0.3268      1.00000
    489      -0.2953      1.00000
    490      -0.2953      1.00000
    491      -0.2953      1.00000
    492      -0.2953      1.00000
    493      -0.1889      1.00000
    494      -0.1889      1.00000
    495      -0.1596      1.00000
    496      -0.1596      1.00000
    497      -0.1596      1.00000
    498      -0.1596      1.00000
    499      -0.1313      1.00000
    500      -0.1312      1.00000
    501      -0.1312      1.00000
    502      -0.1312      1.00000
    503      -0.1267      1.00000
    504      -0.1266      1.00000
    505      -0.1042      1.00000
    506      -0.1042      1.00000
    507      -0.1042      1.00000
    508      -0.1042      1.00000
    509      -0.1025      1.00000
    510      -0.1025      1.00000
    511       0.0536      1.00000
    512       0.0536      1.00000
    513       0.0919      1.00000
    514       0.0919      1.00000
    515       0.0919      1.00000
    516       0.0919      1.00000
    517       0.2527      1.00000
    518       0.2527      1.00000
    519       0.2527      1.00000
    520       0.2527      1.00000
    521       0.2668      1.00000
    522       0.2668      1.00000
    523       0.2918      1.00000
    524       0.2918      1.00000
    525       0.2965      1.00000
    526       0.2965      1.00000
    527       0.2965      1.00000
    528       0.2965      1.00000
    529       0.3671      1.00000
    530       0.3671      1.00000
    531       0.3671      1.00000
    532       0.3671      1.00000
    533       0.3766      1.00000
    534       0.3766      1.00000
    535       0.4417      1.00000
    536       0.4417      1.00000
    537       0.4582      1.00000
    538       0.4582      1.00000
    539       0.4582      1.00000
    540       0.4582      1.00000
    541       0.4623      1.00000
    542       0.4623      1.00000
    543       0.5026      1.00000
    544       0.5026      1.00000
    545       0.5174      1.00000
    546       0.5174      1.00000
    547       0.5174      1.00000
    548       0.5174      1.00000
    549       0.5225      1.00000
    550       0.5225      1.00000
    551       0.5419      1.00000
    552       0.5419      1.00000
    553       0.5420      1.00000
    554       0.5420      1.00000
    555       0.6678      1.00000
    556       0.6678      1.00000
    557       0.6678      1.00000
    558       0.6679      1.00000
    559       0.6897      1.00000
    560       0.6897      1.00000
    561       0.9308      1.00000
    562       0.9308      1.00000
    563       0.9308      1.00000
    564       0.9308      1.00000
    565       0.9516      1.00000
    566       0.9517      1.00000
    567       0.9638      1.00000
    568       0.9638      1.00000
    569       0.9702      1.00000
    570       0.9702      1.00000
    571       0.9702      1.00000
    572       0.9702      1.00000
    573       1.0010      1.00000
    574       1.0010      1.00000
    575       1.0010      1.00000
    576       1.0010      1.00000
    577       1.1792      1.00000
    578       1.1792      1.00000
    579       1.1845      1.00000
    580       1.1845      1.00000
    581       1.1845      1.00000
    582       1.1845      1.00000
    583       1.5202      1.00000
    584       1.5202      1.00000
    585       1.5202      1.00000
    586       1.5202      1.00000
    587       2.9826      1.00000
    588       2.9826      1.00000
    589       4.0263      0.00000
    590       4.0263      0.00000
    591       4.2382      0.00000
    592       4.2382      0.00000
    593       4.6950      0.00000
    594       4.6950      0.00000
    595       4.6950      0.00000
    596       4.6950      0.00000
    597       4.7906      0.00000
    598       4.7907      0.00000
    599       4.9314      0.00000
    600       4.9314      0.00000
    601       4.9669      0.00000
    602       4.9669      0.00000
    603       4.9669      0.00000
    604       4.9669      0.00000
    605       5.0037      0.00000
    606       5.0037      0.00000
    607       5.0128      0.00000
    608       5.0128      0.00000
    609       5.0128      0.00000
    610       5.0128      0.00000
    611       5.1450      0.00000
    612       5.1450      0.00000
    613       5.1450      0.00000
    614       5.1450      0.00000
    615       5.2301      0.00000
    616       5.2301      0.00000
    617       5.3472      0.00000
    618       5.3472      0.00000
    619       5.3855      0.00000
    620       5.3855      0.00000
    621       5.3855      0.00000
    622       5.3855      0.00000
    623       5.4740      0.00000
    624       5.4740      0.00000
    625       5.4740      0.00000
    626       5.4741      0.00000
    627       5.5305      0.00000
    628       5.5305      0.00000
    629       5.6094      0.00000
    630       5.6094      0.00000
    631       5.6094      0.00000
    632       5.6094      0.00000
    633       5.6756      0.00000
    634       5.6757      0.00000
    635       5.7103      0.00000
    636       5.7103      0.00000
    637       5.7103      0.00000
    638       5.7103      0.00000
    639       5.7426      0.00000
    640       5.7426      0.00000
    641       5.7426      0.00000
    642       5.7426      0.00000
    643       5.7449      0.00000
    644       5.7449      0.00000
    645       5.8148      0.00000
    646       5.8148      0.00000
    647       5.9064      0.00000
    648       5.9064      0.00000
    649       5.9064      0.00000
    650       5.9064      0.00000
    651       5.9599      0.00000
    652       5.9599      0.00000
    653       5.9599      0.00000
    654       5.9599      0.00000
    655       5.9668      0.00000
    656       5.9668      0.00000
    657       5.9876      0.00000
    658       5.9876      0.00000
    659       6.0341      0.00000
    660       6.0341      0.00000
    661       6.0341      0.00000
    662       6.0341      0.00000
    663       6.3493      0.00000
    664       6.3493      0.00000
    665       6.4483      0.00000
    666       6.4483      0.00000
    667       6.4483      0.00000
    668       6.4483      0.00000
    669       6.5275      0.00000
    670       6.5275      0.00000
    671       6.8033      0.00000
    672       6.8033      0.00000
    673       6.8033      0.00000
    674       6.8033      0.00000
    675       6.9153      0.00000
    676       6.9153      0.00000
    677       6.9903      0.00000
    678       6.9903      0.00000
    679       6.9903      0.00000
    680       6.9903      0.00000
    681       6.9926      0.00000
    682       6.9926      0.00000
    683       7.0251      0.00000
    684       7.0251      0.00000
    685       7.0251      0.00000
    686       7.0251      0.00000
    687       7.0450      0.00000
    688       7.0450      0.00000
    689       7.0450      0.00000
    690       7.0450      0.00000
    691       7.0577      0.00000
    692       7.0577      0.00000
    693       7.1025      0.00000
    694       7.1025      0.00000
    695       7.1275      0.00000
    696       7.1275      0.00000
    697       7.2506      0.00000
    698       7.2506      0.00000
    699       7.2506      0.00000
    700       7.2506      0.00000
    701       7.3594      0.00000
    702       7.3594      0.00000
    703       7.3252      0.00000
    704       7.3252      0.00000
    705       7.3252      0.00000
    706       7.3252      0.00000
    707       7.4581      0.00000
    708       7.4582      0.00000
    709       7.4582      0.00000
    710       7.4582      0.00000
    711       7.4783      0.00000
    712       7.4783      0.00000
    713       7.5256      0.00000
    714       7.5256      0.00000
    715       7.5256      0.00000
    716       7.5256      0.00000
    717       7.6337      0.00000
    718       7.6337      0.00000
    719       7.6337      0.00000
    720       7.6337      0.00000
    721       7.7678      0.00000
    722       7.7678      0.00000
    723       7.7679      0.00000
    724       7.7679      0.00000
    725       7.8138      0.00000
    726       7.8137      0.00000
    727       7.8127      0.00000
    728       7.8127      0.00000
    729       7.8746      0.00000
    730       7.8746      0.00000
    731       7.8747      0.00000
    732       7.8747      0.00000
    733       7.9652      0.00000
    734       7.9652      0.00000
    735       7.9665      0.00000
    736       7.9665      0.00000
    737       7.9665      0.00000
    738       7.9665      0.00000
    739       8.0013      0.00000
    740       8.0013      0.00000
    741       8.0600      0.00000
    742       8.0600      0.00000
    743       8.0601      0.00000
    744       8.0601      0.00000
    745       8.0860      0.00000
    746       8.0860      0.00000
    747       8.0860      0.00000
    748       8.0860      0.00000
    749       8.0981      0.00000
    750       8.0981      0.00000
    751       8.1501      0.00000
    752       8.1501      0.00000
    753       8.1501      0.00000
    754       8.1501      0.00000
    755       8.1517      0.00000
    756       8.1517      0.00000
    757       8.2432      0.00000
    758       8.2432      0.00000
    759       8.2109      0.00000
    760       8.2109      0.00000
    761       8.2266      0.00000
    762       8.2266      0.00000
    763       8.2266      0.00000
    764       8.2266      0.00000
    765       8.3798      0.00000
    766       8.3798      0.00000
    767       8.3799      0.00000
    768       8.3799      0.00000
    769       8.4068      0.00000
    770       8.4068      0.00000
    771       8.4068      0.00000
    772       8.4068      0.00000
    773       8.4401      0.00000
    774       8.4401      0.00000
    775       8.5805      0.00000
    776       8.5805      0.00000
    777       8.6755      0.00000
    778       8.6755      0.00000
    779       8.6755      0.00000
    780       8.6755      0.00000
    781       8.8556      0.00000
    782       8.8556      0.00000
    783       8.8556      0.00000
    784       8.8556      0.00000
    785       8.9478      0.00000
    786       8.9478      0.00000
    787       9.0255      0.00000
    788       9.0255      0.00000
    789       9.0882      0.00000
    790       9.0882      0.00000
    791       9.2500      0.00000
    792       9.2500      0.00000
    793       9.2500      0.00000
    794       9.2501      0.00000
    795       9.2624      0.00000
    796       9.2624      0.00000
    797       9.2611      0.00000
    798       9.2611      0.00000
    799       9.2611      0.00000
    800       9.2611      0.00000
    801       9.2851      0.00000
    802       9.2851      0.00000
    803       9.2851      0.00000
    804       9.2851      0.00000
    805       9.3023      0.00000
    806       9.3023      0.00000
    807       9.4677      0.00000
    808       9.4677      0.00000
    809       9.4745      0.00000
    810       9.4745      0.00000
    811       9.4745      0.00000
    812       9.4745      0.00000
    813       9.5263      0.00000
    814       9.5263      0.00000
    815       9.5263      0.00000
    816       9.5264      0.00000
    817       9.5054      0.00000
    818       9.5055      0.00000
    819       9.7561      0.00000
    820       9.7561      0.00000
    821       9.7561      0.00000
    822       9.7561      0.00000
    823       9.8127      0.00000
    824       9.8127      0.00000
    825       9.9008      0.00000
    826       9.9008      0.00000
    827       9.9113      0.00000
    828       9.9113      0.00000
    829       9.9113      0.00000
    830       9.9113      0.00000
    831       9.9210      0.00000
    832       9.9210      0.00000
    833       9.9363      0.00000
    834       9.9364      0.00000
    835       9.9364      0.00000
    836       9.9364      0.00000
    837      10.1419      0.00000
    838      10.1420      0.00000
    839      10.1420      0.00000
    840      10.1420      0.00000
    841      10.1522      0.00000
    842      10.1522      0.00000
    843      10.3486      0.00000
    844      10.3486      0.00000
    845      10.3486      0.00000
    846      10.3487      0.00000
    847      10.4532      0.00000
    848      10.4532      0.00000
    849      10.5908      0.00000
    850      10.5909      0.00000
    851      10.6388      0.00000
    852      10.6388      0.00000
    853      10.6569      0.00000
    854      10.6569      0.00000
    855      10.6569      0.00000
    856      10.6569      0.00000
    857      10.7244      0.00000
    858      10.7244      0.00000
    859      10.7245      0.00000
    860      10.7245      0.00000
    861      10.7846      0.00000
    862      10.7847      0.00000
    863      10.8143      0.00000
    864      10.8144      0.00000
    865      10.8484      0.00000
    866      10.8484      0.00000
    867      10.8484      0.00000
    868      10.8485      0.00000
    869      10.8492      0.00000
    870      10.8492      0.00000
    871      10.8948      0.00000
    872      10.8948      0.00000
    873      10.9682      0.00000
    874      10.9683      0.00000
    875      10.9683      0.00000
    876      10.9683      0.00000
    877      11.0181      0.00000
    878      11.0182      0.00000
    879      11.0356      0.00000
    880      11.0357      0.00000
    881      11.0357      0.00000
    882      11.0357      0.00000
    883      11.1073      0.00000
    884      11.1073      0.00000
    885      11.1235      0.00000
    886      11.1235      0.00000
    887      11.1235      0.00000
    888      11.1236      0.00000
    889      11.1528      0.00000
    890      11.1528      0.00000
    891      11.1528      0.00000
    892      11.1528      0.00000
    893      11.1546      0.00000
    894      11.1546      0.00000
    895      11.1768      0.00000
    896      11.1770      0.00000
    897      11.2009      0.00000
    898      11.2009      0.00000
    899      11.2009      0.00000
    900      11.2008      0.00000
    901      11.2435      0.00000
    902      11.2436      0.00000
    903      11.2438      0.00000
    904      11.2440      0.00000
    905      11.4313      0.00000
    906      11.4313      0.00000
    907      11.4772      0.00000
    908      11.4772      0.00000
    909      11.4773      0.00000
    910      11.4773      0.00000
    911      11.5649      0.00000
    912      11.5650      0.00000
    913      11.5650      0.00000
    914      11.5650      0.00000
    915      11.5867      0.00000
    916      11.5867      0.00000
    917      11.6643      0.00000
    918      11.6644      0.00000
    919      11.7825      0.00000
    920      11.7826      0.00000
    921      11.7827      0.00000
    922      11.7828      0.00000
    923      11.8340      0.00000
    924      11.8342      0.00000
    925      11.8343      0.00000
    926      11.8344      0.00000
    927      11.8484      0.00000
    928      11.8484      0.00000
    929      11.8484      0.00000
    930      11.8484      0.00000
    931      11.8799      0.00000
    932      11.8802      0.00000
    933      11.8814      0.00000
    934      11.8815      0.00000
    935      11.9807      0.00000
    936      11.9809      0.00000
    937      11.9810      0.00000
    938      11.9812      0.00000
    939      12.1702      0.00000
    940      12.1709      0.00000
    941      12.3518      0.00000
    942      12.3522      0.00000
    943      12.4445      0.00000
    944      12.4453      0.00000
    945      12.4628      0.00000
    946      12.4627      0.00000
    947      12.4624      0.00000
    948      12.4624      0.00000
    949      12.4650      0.00000
    950      12.4656      0.00000
    951      12.4674      0.00000
    952      12.4684      0.00000
    953      12.5843      0.00000
    954      12.5854      0.00000
    955      12.6014      0.00000
    956      12.6037      0.00000
    957      12.6058      0.00000
    958      12.6068      0.00000
    959      12.6267      0.00000
    960      12.6282      0.00000
    961      12.6302      0.00000
    962      12.6306      0.00000
    963      12.6578      0.00000
    964      12.6599      0.00000
    965      12.9028      0.00000
    966      12.9035      0.00000
    967      12.9037      0.00000
    968      12.9045      0.00000
    969      12.9477      0.00000
    970      12.9478      0.00000
    971      12.9824      0.00000
    972      12.9833      0.00000
    973      12.9834      0.00000
    974      12.9841      0.00000
    975      13.0073      0.00000
    976      13.0229      0.00000
    977      13.0753      0.00000
    978      13.0761      0.00000
    979      13.1978      0.00000
    980      13.2025      0.00000
    981      13.2087      0.00000
    982      13.2120      0.00000
    983      13.2204      0.00000
    984      13.2289      0.00000
    985      13.2572      0.00000
    986      13.2612      0.00000
    987      13.2624      0.00000
    988      13.2777      0.00000
    989      13.2910      0.00000
    990      13.2984      0.00000
    991      13.3696      0.00000
    992      13.3888      0.00000
    993      13.3977      0.00000
    994      13.4165      0.00000
    995      13.4570      0.00000
    996      13.4689      0.00000
    997      13.4767      0.00000
    998      13.4684      0.00000
    999      13.4785      0.00000
   1000      13.4802      0.00000
   1001      13.5259      0.00000
   1002      13.5563      0.00000
   1003      13.5638      0.00000
   1004      13.5928      0.00000
   1005      13.6356      0.00000
   1006      13.6605      0.00000
   1007      13.7013      0.00000
   1008      13.7521      0.00000
   1009      13.7658      0.00000
   1010      13.8038      0.00000
   1011      13.8070      0.00000
   1012      13.8266      0.00000
   1013      13.8316      0.00000
   1014      13.8653      0.00000
   1015      13.8713      0.00000
   1016      13.8969      0.00000
   1017      13.9103      0.00000
   1018      13.9218      0.00000
   1019      13.9421      0.00000
   1020      13.9524      0.00000
   1021      13.9582      0.00000
   1022      13.9688      0.00000
   1023      13.9839      0.00000
   1024      14.0001      0.00000


--------------------------------------------------------------------------------------------------------


 soft charge-density along one line, spin component           1
         0         1         2         3         4         5         6         7         8         9
 total charge-density along one line

 soft charge-density along one line, spin component           2
         0         1         2         3         4         5         6         7         8         9
 total charge-density along one line

 soft charge-density along one line, spin component           3
         0         1         2         3         4         5         6         7         8         9
 total charge-density along one line

 soft charge-density along one line, spin component           4
         0         1         2         3         4         5         6         7         8         9
 total charge-density along one line

 pseudopotential strength for first ion, spin component:           1
-16.537   0.000   0.001  -0.000   0.002   0.000  -0.001   0.000   0.000  -0.000 -16.642  -0.000   0.001  -0.000   0.002   0.000
  0.001   0.000 -16.537   0.000  -0.001   0.000  -0.001  -0.000   0.002   0.000   0.001   0.000 -16.642   0.000  -0.001   0.000
  0.002  -0.000  -0.001  -0.000 -16.541   0.000   0.001  -0.000  -0.000  -0.000   0.002  -0.000  -0.001  -0.000 -16.645   0.000
 -0.001  -0.000  -0.001   0.000   0.001   0.000 -16.537   0.000   0.002  -0.000  -0.001  -0.000  -0.001   0.000   0.001   0.000
  0.000   0.000   0.002  -0.000  -0.000   0.000   0.002   0.000 -16.541   0.000   0.000   0.000   0.002  -0.000  -0.000   0.000
-16.642   0.000   0.001  -0.000   0.002   0.000  -0.001   0.000   0.000  -0.000 -16.723   0.000   0.001  -0.000   0.002   0.000
  0.001   0.000 -16.642  -0.000  -0.001   0.000  -0.001  -0.000   0.002   0.000   0.001   0.000 -16.723   0.000  -0.001   0.000
  0.002  -0.000  -0.001  -0.000 -16.645  -0.000   0.001  -0.000  -0.000  -0.000   0.002  -0.000  -0.001  -0.000 -16.727   0.000
 -0.001  -0.000  -0.001   0.000   0.001   0.000 -16.642  -0.000   0.002  -0.000  -0.001  -0.000  -0.001   0.000   0.001   0.000
  0.000   0.000   0.002  -0.000  -0.000   0.000   0.002   0.000 -16.645  -0.000   0.000   0.000   0.002  -0.000  -0.000   0.000
 -0.002   0.000  -0.002  -0.000   0.000  -0.000   0.002   0.000  -0.000  -0.000  -0.002   0.000  -0.002  -0.000   0.000  -0.000
 -0.003   0.000  -0.003  -0.000   0.000  -0.000   0.003   0.000  -0.000  -0.000  -0.003   0.000  -0.003  -0.000   0.000  -0.000
 -0.001   0.000  -0.001  -0.000  -0.000  -0.000  -0.000   0.000  -0.001   0.000  -0.001   0.000  -0.001  -0.000  -0.000  -0.000
 -0.000  -0.000   0.001  -0.000  -0.001  -0.000  -0.001  -0.000   0.000   0.000  -0.000  -0.000   0.001  -0.000  -0.001  -0.000
  0.001  -0.000  -0.000  -0.000   0.000  -0.000  -0.001  -0.000  -0.001  -0.000   0.001  -0.000  -0.000  -0.000   0.000  -0.000
 -0.001   0.000  -0.001  -0.000  -0.000  -0.000  -0.001   0.000  -0.001   0.000  -0.001   0.000  -0.001  -0.000  -0.000  -0.000
 -0.001  -0.000   0.001  -0.000  -0.001  -0.000  -0.001  -0.000  -0.000   0.000  -0.001  -0.000   0.001  -0.000  -0.001  -0.000
  0.001  -0.000  -0.001  -0.000   0.000  -0.000  -0.001  -0.000  -0.001  -0.000   0.001  -0.000  -0.001  -0.000   0.000  -0.000
 pseudopotential strength for first ion, spin component:           2
 -0.000  -0.000  -0.000  -0.000  -0.000  -0.000   0.000   0.000   0.000  -0.000  -0.000  -0.000  -0.000  -0.000  -0.000  -0.000
 -0.000   0.000  -0.000  -0.000  -0.000   0.000  -0.000  -0.000   0.000  -0.000  -0.000   0.000  -0.000  -0.000  -0.000   0.000
 -0.000   0.000   0.000  -0.000  -0.000  -0.000   0.000  -0.000   0.000   0.000  -0.000   0.000   0.000  -0.000  -0.000  -0.000
 -0.000  -0.000   0.000   0.000  -0.000   0.000  -0.000  -0.000   0.000   0.000  -0.000  -0.000   0.000   0.000  -0.000   0.000
 -0.000   0.000   0.000  -0.000  -0.000  -0.000   0.000  -0.000  -0.000  -0.000  -0.000   0.000   0.000  -0.000  -0.000  -0.000
 -0.000  -0.000  -0.000  -0.000  -0.000  -0.000   0.000   0.000   0.000  -0.000  -0.000  -0.000  -0.000  -0.000  -0.000  -0.000
 -0.000   0.000  -0.000  -0.000  -0.000   0.000  -0.000  -0.000   0.000  -0.000  -0.000   0.000  -0.000  -0.000  -0.000   0.000
 -0.000   0.000   0.000  -0.000  -0.000  -0.000   0.000  -0.000   0.000   0.000  -0.000   0.000   0.000  -0.000  -0.000  -0.000
 -0.000  -0.000   0.000   0.000  -0.000   0.000  -0.000  -0.000  -0.000   0.000  -0.000  -0.000   0.000   0.000  -0.000   0.000
 -0.000   0.000   0.000  -0.000  -0.000  -0.000   0.000  -0.000  -0.000  -0.000  -0.000   0.000   0.000  -0.000  -0.000  -0.000
 -0.000   0.000   0.000  -0.000  -0.000   0.000  -0.000  -0.000   0.000   0.000  -0.000   0.000   0.000  -0.000  -0.000   0.000
 -0.000   0.000   0.000  -0.000  -0.000   0.000  -0.000  -0.000   0.000   0.000  -0.000   0.000   0.000  -0.000  -0.000   0.000
 -0.000   0.000   0.000  -0.000  -0.000  -0.000  -0.000  -0.000  -0.000  -0.000  -0.000   0.000   0.000  -0.000  -0.000  -0.000
 -0.000  -0.000   0.000   0.000   0.000  -0.000  -0.000  -0.000   0.000   0.000  -0.000  -0.000   0.000   0.000   0.000  -0.000
  0.000   0.000  -0.000  -0.000   0.000  -0.000   0.000  -0.000  -0.000  -0.000   0.000   0.000  -0.000  -0.000   0.000  -0.000
 -0.000   0.000   0.000  -0.000  -0.000  -0.000  -0.000  -0.000  -0.000  -0.000  -0.000   0.000   0.000  -0.000  -0.000  -0.000
 -0.000  -0.000   0.000   0.000   0.000  -0.000  -0.000  -0.000   0.000   0.000  -0.000  -0.000   0.000   0.000   0.000  -0.000
  0.000   0.000  -0.000  -0.000   0.000  -0.000   0.000  -0.000  -0.000  -0.000   0.000   0.000  -0.000  -0.000   0.000  -0.000
 pseudopotential strength for first ion, spin component:           3
 -0.000   0.000  -0.000  -0.000  -0.000  -0.000  -0.000   0.000  -0.000  -0.000  -0.000   0.000  -0.000  -0.000  -0.000  -0.000
 -0.000   0.000  -0.000   0.000   0.000   0.000   0.000  -0.000   0.000   0.000  -0.000   0.000  -0.000   0.000   0.000   0.000
 -0.000   0.000  -0.000  -0.000  -0.000   0.000  -0.000  -0.000  -0.000   0.000  -0.000   0.000  -0.000  -0.000  -0.000   0.000
  0.000  -0.000  -0.000   0.000   0.000   0.000  -0.000   0.000   0.000   0.000   0.000  -0.000  -0.000   0.000   0.000   0.000
  0.000   0.000   0.000   0.000   0.000  -0.000   0.000  -0.000  -0.000   0.000   0.000   0.000   0.000   0.000   0.000  -0.000
 -0.000   0.000  -0.000  -0.000  -0.000  -0.000  -0.000   0.000  -0.000  -0.000  -0.000   0.000  -0.000  -0.000  -0.000  -0.000
 -0.000   0.000  -0.000   0.000   0.000   0.000   0.000  -0.000   0.000   0.000  -0.000   0.000  -0.000   0.000   0.000   0.000
 -0.000   0.000  -0.000  -0.000  -0.000   0.000  -0.000  -0.000  -0.000   0.000  -0.000   0.000  -0.000  -0.000  -0.000   0.000
  0.000  -0.000  -0.000   0.000   0.000   0.000  -0.000   0.000   0.000   0.000   0.000  -0.000  -0.000   0.000   0.000   0.000
  0.000   0.000   0.000   0.000   0.000  -0.000  -0.000  -0.000  -0.000   0.000   0.000   0.000   0.000   0.000   0.000  -0.000
 -0.000  -0.000   0.000   0.000  -0.000   0.000  -0.000  -0.000   0.000   0.000  -0.000  -0.000   0.000   0.000  -0.000   0.000
 -0.000  -0.000   0.000   0.000  -0.000   0.000  -0.000  -0.000   0.000   0.000  -0.000  -0.000   0.000   0.000  -0.000   0.000
 -0.000  -0.000   0.000   0.000  -0.000   0.000  -0.000   0.000  -0.000   0.000  -0.000  -0.000   0.000   0.000  -0.000   0.000
 -0.000   0.000  -0.000   0.000  -0.000   0.000  -0.000  -0.000   0.000  -0.000  -0.000   0.000  -0.000   0.000  -0.000   0.000
  0.000  -0.000  -0.000   0.000  -0.000  -0.000   0.000   0.000  -0.000   0.000   0.000  -0.000  -0.000   0.000  -0.000  -0.000
 -0.000  -0.000   0.000   0.000  -0.000   0.000  -0.000   0.000  -0.000   0.000  -0.000  -0.000   0.000   0.000  -0.000   0.000
 -0.000   0.000  -0.000   0.000  -0.000   0.000  -0.000  -0.000   0.000  -0.000  -0.000   0.000  -0.000   0.000  -0.000   0.000
  0.000  -0.000  -0.000   0.000  -0.000  -0.000   0.000   0.000  -0.000   0.000   0.000  -0.000  -0.000   0.000  -0.000  -0.000
 pseudopotential strength for first ion, spin component:           4
-16.537   0.000   0.001   0.000   0.002  -0.000  -0.001  -0.000   0.000  -0.000 -16.642   0.000   0.001   0.000   0.002  -0.000
  0.001  -0.000 -16.537   0.000  -0.001   0.000  -0.001   0.000   0.002  -0.000   0.001  -0.000 -16.642   0.000  -0.001   0.000
  0.002   0.000  -0.001  -0.000 -16.541   0.000   0.001   0.000  -0.000  -0.000   0.002   0.000  -0.001  -0.000 -16.645   0.000
 -0.001   0.000  -0.001  -0.000   0.001  -0.000 -16.537   0.000   0.002   0.000  -0.001   0.000  -0.001  -0.000   0.001  -0.000
  0.000   0.000   0.002   0.000  -0.000   0.000   0.002  -0.000 -16.541   0.000   0.000   0.000   0.002   0.000  -0.000   0.000
-16.642  -0.000   0.001   0.000   0.002  -0.000  -0.001  -0.000   0.000  -0.000 -16.723   0.000   0.001   0.000   0.002  -0.000
  0.001  -0.000 -16.642  -0.000  -0.001   0.000  -0.001   0.000   0.002  -0.000   0.001  -0.000 -16.723   0.000  -0.001   0.000
  0.002   0.000  -0.001  -0.000 -16.645  -0.000   0.001   0.000  -0.000  -0.000   0.002   0.000  -0.001  -0.000 -16.727   0.000
 -0.001   0.000  -0.001  -0.000   0.001  -0.000 -16.642  -0.000   0.002   0.000  -0.001   0.000  -0.001  -0.000   0.001  -0.000
  0.000   0.000   0.002   0.000  -0.000   0.000   0.002  -0.000 -16.645  -0.000   0.000   0.000   0.002   0.000  -0.000   0.000
 -0.002  -0.000  -0.002  -0.000   0.000   0.000   0.002  -0.000  -0.000   0.000  -0.002  -0.000  -0.002  -0.000   0.000   0.000
 -0.003  -0.000  -0.003  -0.000   0.000   0.000   0.003  -0.000  -0.000   0.000  -0.003  -0.000  -0.003  -0.000   0.000   0.000
 -0.001  -0.000  -0.001   0.000  -0.000   0.000  -0.000   0.000  -0.001  -0.000  -0.001  -0.000  -0.001   0.000  -0.000   0.000
 -0.000  -0.000   0.001   0.000  -0.001  -0.000  -0.001  -0.000  -0.000  -0.000  -0.000  -0.000   0.001   0.000  -0.001  -0.000
  0.001   0.000  -0.000  -0.000   0.000   0.000  -0.001  -0.000  -0.001   0.000   0.001   0.000  -0.000  -0.000   0.000   0.000
 -0.001  -0.000  -0.001   0.000  -0.000   0.000  -0.001   0.000  -0.001  -0.000  -0.001  -0.000  -0.001   0.000  -0.000   0.000
 -0.001  -0.000   0.001   0.000  -0.001  -0.000  -0.001  -0.000  -0.000  -0.000  -0.001  -0.000   0.001   0.000  -0.001  -0.000
  0.001   0.000  -0.001  -0.000   0.000   0.000  -0.001  -0.000  -0.001   0.000   0.001   0.000  -0.001  -0.000   0.000   0.000
 total augmentation occupancy for first ion, spin component:           1
  4.230   0.296   0.055  -0.296   0.000  -2.131  -0.310  -0.065   0.309  -0.000   0.446  -0.160   0.018   0.467  -0.018  -0.004
  0.296   4.230  -0.027  -0.296   0.048  -0.310  -2.131   0.032   0.310  -0.056   0.446  -0.160   0.018  -0.018   0.467  -0.004
  0.055  -0.027   2.516   0.027  -0.000  -0.065   0.032  -0.493  -0.032   0.000  -0.000   0.000   0.003   0.006  -0.003  -0.002
 -0.296  -0.296   0.027   4.230   0.047   0.309   0.310  -0.032  -2.131  -0.056  -0.446   0.160   0.467   0.018   0.018  -0.095
  0.000   0.048  -0.000   0.047   2.516  -0.000  -0.056   0.000  -0.056  -0.493   0.000  -0.000   0.005  -0.000   0.005  -0.003
 -2.131  -0.310  -0.065   0.309  -0.000   2.040   0.321   0.074  -0.321   0.000  -0.452   0.174  -0.016  -0.445   0.016   0.003
 -0.310  -2.131   0.032   0.310  -0.056   0.321   2.040  -0.037  -0.321   0.064  -0.452   0.174  -0.016   0.016  -0.445   0.003
 -0.065   0.032  -0.493  -0.032   0.000   0.074  -0.037   0.475   0.037  -0.000   0.000  -0.000  -0.002  -0.003   0.002   0.001
  0.309   0.310  -0.032  -2.131  -0.056  -0.321  -0.321   0.037   2.040   0.064   0.452  -0.174  -0.445  -0.016  -0.016   0.104
 -0.000  -0.056   0.000  -0.056  -0.493   0.000   0.064  -0.000   0.064   0.475  -0.000   0.000  -0.003   0.000  -0.003   0.001
  0.446   0.446  -0.000  -0.446   0.000  -0.452  -0.452   0.000   0.452  -0.000   5.422  -2.058  -0.001   0.001   0.001  -0.003
 -0.160  -0.160   0.000   0.160  -0.000   0.174   0.174  -0.000  -0.174   0.000  -2.058   0.796  -0.003   0.003   0.003   0.002
  0.018   0.018   0.003   0.467   0.005  -0.016  -0.016  -0.002  -0.445  -0.003  -0.001  -0.003   0.224  -0.028  -0.028  -0.054
  0.467  -0.018   0.006   0.018  -0.000  -0.445   0.016  -0.003  -0.016   0.000   0.001   0.003  -0.028   0.224   0.028   0.008
 -0.018   0.467  -0.003   0.018   0.005   0.016  -0.445   0.002  -0.016  -0.003   0.001   0.003  -0.028   0.028   0.224   0.008
 -0.004  -0.004  -0.002  -0.095  -0.003   0.003   0.003   0.001   0.104   0.001  -0.003   0.002  -0.054   0.008   0.008   0.014
 -0.095   0.004  -0.003  -0.004   0.000   0.104  -0.003   0.001   0.003  -0.000   0.003  -0.002   0.008  -0.054  -0.008  -0.002
  0.004  -0.095   0.002  -0.004  -0.003  -0.003   0.104  -0.001   0.003   0.001   0.003  -0.002   0.008  -0.008  -0.054  -0.002
 total augmentation occupancy for first ion, spin component:           2
  0.000   0.000  -0.000  -0.000  -0.000  -0.000  -0.000   0.000   0.000   0.000   0.000  -0.000  -0.000   0.000  -0.000   0.000
  0.000   0.000   0.000  -0.000   0.000  -0.000  -0.000  -0.000   0.000  -0.000   0.000  -0.000  -0.000   0.000   0.000  -0.000
 -0.000   0.000   0.000   0.000   0.000   0.000  -0.000  -0.000  -0.000   0.000  -0.000   0.000   0.000   0.000   0.000  -0.000
 -0.000  -0.000   0.000  -0.000  -0.000   0.000   0.000  -0.000   0.000   0.000   0.000   0.000  -0.000   0.000  -0.000   0.000
 -0.000   0.000   0.000  -0.000   0.000   0.000  -0.000  -0.000   0.000  -0.000  -0.000   0.000   0.000  -0.000   0.000   0.000
 -0.000  -0.000   0.000   0.000   0.000   0.000   0.000  -0.000   0.000  -0.000  -0.000   0.000   0.000  -0.000   0.000  -0.000
 -0.000  -0.000  -0.000   0.000  -0.000   0.000   0.000   0.000  -0.000   0.000  -0.000   0.000   0.000  -0.000  -0.000   0.000
  0.000  -0.000  -0.000  -0.000  -0.000  -0.000   0.000  -0.000   0.000  -0.000   0.000  -0.000  -0.000  -0.000  -0.000  -0.000
  0.000   0.000  -0.000   0.000   0.000   0.000  -0.000   0.000  -0.000  -0.000  -0.000  -0.000  -0.000  -0.000   0.000   0.000
  0.000  -0.000   0.000   0.000  -0.000  -0.000   0.000  -0.000  -0.000   0.000   0.000  -0.000  -0.000   0.000  -0.000  -0.000
  0.000   0.000  -0.000   0.000  -0.000  -0.000  -0.000   0.000  -0.000   0.000   0.000  -0.000  -0.000  -0.000   0.000   0.000
 -0.000  -0.000   0.000   0.000   0.000   0.000   0.000  -0.000  -0.000  -0.000  -0.000   0.000   0.000   0.000  -0.000  -0.000
 -0.000  -0.000   0.000  -0.000   0.000   0.000   0.000  -0.000  -0.000  -0.000  -0.000   0.000  -0.000  -0.000   0.000   0.000
  0.000   0.000   0.000   0.000  -0.000  -0.000  -0.000  -0.000  -0.000   0.000  -0.000   0.000  -0.000  -0.000  -0.000  -0.000
 -0.000   0.000   0.000  -0.000   0.000   0.000  -0.000  -0.000   0.000  -0.000   0.000  -0.000   0.000  -0.000  -0.000  -0.000
  0.000  -0.000  -0.000   0.000   0.000  -0.000   0.000  -0.000   0.000  -0.000   0.000  -0.000   0.000  -0.000  -0.000  -0.000
  0.000   0.000  -0.000  -0.000   0.000  -0.000   0.000   0.000   0.000   0.000   0.000  -0.000   0.000   0.000  -0.000  -0.000
  0.000   0.000   0.000   0.000   0.000  -0.000  -0.000   0.000  -0.000   0.000  -0.000   0.000  -0.000   0.000   0.000   0.000
 total augmentation occupancy for first ion, spin component:           3
  0.000  -0.000  -0.000   0.000   0.000  -0.000   0.000   0.000  -0.000  -0.000   0.000  -0.000   0.000  -0.000  -0.000   0.000
 -0.000  -0.000  -0.000  -0.000  -0.000   0.000   0.000   0.000   0.000   0.000  -0.000   0.000  -0.000   0.000  -0.000  -0.000
 -0.000  -0.000  -0.000  -0.000   0.000   0.000   0.000   0.000   0.000  -0.000  -0.000  -0.000  -0.000   0.000  -0.000  -0.000
  0.000  -0.000  -0.000  -0.000  -0.000  -0.000   0.000   0.000   0.000   0.000   0.000  -0.000  -0.000  -0.000   0.000  -0.000
  0.000  -0.000   0.000  -0.000   0.000  -0.000   0.000   0.000   0.000  -0.000  -0.000   0.000  -0.000   0.000  -0.000  -0.000
 -0.000   0.000   0.000  -0.000  -0.000  -0.000  -0.000  -0.000   0.000   0.000  -0.000   0.000  -0.000   0.000   0.000  -0.000
  0.000   0.000   0.000   0.000   0.000  -0.000   0.000  -0.000  -0.000  -0.000   0.000  -0.000   0.000  -0.000   0.000   0.000
  0.000   0.000   0.000   0.000   0.000  -0.000  -0.000  -0.000  -0.000  -0.000   0.000   0.000   0.000  -0.000   0.000  -0.000
 -0.000   0.000   0.000   0.000   0.000   0.000  -0.000  -0.000  -0.000  -0.000  -0.000   0.000   0.000   0.000   0.000   0.000
 -0.000   0.000  -0.000   0.000  -0.000   0.000  -0.000  -0.000  -0.000   0.000   0.000  -0.000   0.000  -0.000   0.000   0.000
  0.000  -0.000  -0.000   0.000  -0.000  -0.000   0.000   0.000  -0.000   0.000  -0.000   0.000   0.000  -0.000  -0.000  -0.000
 -0.000   0.000  -0.000  -0.000   0.000   0.000  -0.000   0.000   0.000  -0.000   0.000  -0.000  -0.000   0.000   0.000   0.000
  0.000  -0.000  -0.000  -0.000  -0.000  -0.000   0.000   0.000   0.000   0.000   0.000  -0.000   0.000   0.000  -0.000  -0.000
 -0.000   0.000   0.000  -0.000   0.000   0.000  -0.000  -0.000   0.000  -0.000  -0.000   0.000   0.000   0.000  -0.000   0.000
 -0.000  -0.000  -0.000   0.000  -0.000   0.000   0.000   0.000   0.000   0.000  -0.000   0.000  -0.000  -0.000  -0.000  -0.000
  0.000  -0.000  -0.000  -0.000  -0.000  -0.000   0.000  -0.000   0.000   0.000  -0.000   0.000  -0.000   0.000  -0.000   0.000
 -0.000  -0.000  -0.000   0.000  -0.000   0.000   0.000   0.000  -0.000   0.000   0.000  -0.000   0.000  -0.000   0.000  -0.000
 -0.000   0.000   0.000  -0.000   0.000  -0.000  -0.000  -0.000   0.000  -0.000   0.000  -0.000  -0.000   0.000   0.000   0.000
 total augmentation occupancy for first ion, spin component:           4
 -0.000  -0.000  -0.000   0.000  -0.000   0.000   0.000   0.000  -0.000   0.000  -0.000   0.000  -0.000  -0.000   0.000   0.000
 -0.000   0.000   0.000  -0.000  -0.000   0.000  -0.000  -0.000   0.000   0.000  -0.000   0.000   0.000   0.000   0.000  -0.000
 -0.000   0.000   0.000   0.000  -0.000   0.000  -0.000  -0.000  -0.000   0.000   0.000  -0.000   0.000  -0.000   0.000  -0.000
  0.000  -0.000   0.000   0.000  -0.000  -0.000   0.000   0.000  -0.000   0.000  -0.000   0.000   0.000   0.000   0.000  -0.000
 -0.000  -0.000  -0.000  -0.000   0.000   0.000   0.000   0.000   0.000  -0.000   0.000  -0.000  -0.000  -0.000  -0.000   0.000
  0.000   0.000   0.000  -0.000   0.000  -0.000  -0.000  -0.000   0.000  -0.000   0.000  -0.000   0.000   0.000  -0.000  -0.000
  0.000  -0.000  -0.000   0.000   0.000  -0.000   0.000   0.000  -0.000  -0.000   0.000  -0.000  -0.000  -0.000  -0.000   0.000
  0.000  -0.000  -0.000   0.000   0.000  -0.000   0.000   0.000   0.000  -0.000  -0.000   0.000  -0.000   0.000  -0.000   0.000
 -0.000   0.000  -0.000  -0.000   0.000   0.000  -0.000   0.000   0.000  -0.000   0.000  -0.000  -0.000  -0.000  -0.000  -0.000
  0.000   0.000   0.000   0.000  -0.000  -0.000  -0.000  -0.000  -0.000   0.000  -0.000   0.000   0.000   0.000   0.000   0.000
 -0.000  -0.000   0.000  -0.000   0.000   0.000   0.000  -0.000   0.000  -0.000  -0.000   0.000   0.000  -0.000  -0.000  -0.000
  0.000   0.000  -0.000   0.000  -0.000  -0.000  -0.000   0.000  -0.000   0.000   0.000  -0.000  -0.000   0.000   0.000   0.000
 -0.000   0.000   0.000   0.000  -0.000   0.000  -0.000  -0.000  -0.000   0.000   0.000  -0.000  -0.000   0.000   0.000   0.000
 -0.000   0.000  -0.000   0.000  -0.000   0.000  -0.000   0.000  -0.000   0.000  -0.000   0.000   0.000   0.000  -0.000   0.000
  0.000   0.000   0.000   0.000  -0.000  -0.000  -0.000  -0.000  -0.000   0.000  -0.000   0.000   0.000  -0.000  -0.000   0.000
  0.000  -0.000  -0.000  -0.000   0.000  -0.000   0.000   0.000  -0.000   0.000  -0.000   0.000   0.000   0.000   0.000  -0.000
 -0.000  -0.000  -0.000   0.000  -0.000   0.000   0.000  -0.000  -0.000   0.000   0.000  -0.000  -0.000  -0.000   0.000  -0.000
 -0.000   0.000  -0.000  -0.000   0.000   0.000  -0.000   0.000   0.000  -0.000   0.000  -0.000  -0.000   0.000   0.000  -0.000


------------------------ aborting loop EDIFF was not reached (unconverged)  ----------------------------


 -----------------------------------------------------------------------------
|                                                                             |
|           W    W    AA    RRRRR   N    N  II  N    N   GGGG   !!!           |
|           W    W   A  A   R    R  NN   N  II  NN   N  G    G  !!!           |
|           W    W  A    A  R    R  N N  N  II  N N  N  G       !!!           |
|           W WW W  AAAAAA  RRRRR   N  N N  II  N  N N  G  GGG   !            |
|           WW  WW  A    A  R   R   N   NN  II  N   NN  G    G                |
|           W    W  A    A  R    R  N    N  II  N    N   GGGG   !!!           |
|                                                                             |
|     The electronic self-consistency was not achieved in the given           |
|     number of steps (NELM). The forces and other quantities evaluated       |
|     might not be reliable so examine the results carefully. If you find     |
|     spurious results, we suggest increasing NELM, if you were close to      |
|     convergence or switching to a different ALGO or adjusting the           |
|     density mixing parameters otherwise.                                    |
|                                                                             |
 -----------------------------------------------------------------------------

    FORLOC:  cpu time      0.0053: real time      0.0053
    FORHF :  cpu time     93.4958: real time     93.5526
    FORNL :  cpu time      0.5467: real time      0.5473
    STRESS:  cpu time      0.8777: real time      0.8777
    FORCOR:  cpu time      0.4074: real time      0.4079
    OFIELD:  cpu time      0.0021: real time      0.0024

  FORCE on cell =-STRESS in cart. coord.  units (eV):
  Direction    XX          YY          ZZ          XY          YZ          ZX
  --------------------------------------------------------------------------------------
  Alpha Z  1642.45119  1642.45119  1642.45119
  Ewald  -11313.45310-11313.46250-11313.46200    -0.00065     0.00037     0.00096
  Hartree  5631.96221  5631.95970  5631.95989     0.00132     0.00288    -0.00312
  E(xc)   -2173.44166 -2173.44154 -2173.44154     0.00004     0.00008    -0.00018
  Local    -679.35396  -679.34030  -679.34094    -0.00119    -0.00376    -0.00089
  n-local  2011.04655  2011.04986  2011.04421    -3.33045    -3.32391    -3.32237
  augment    14.13861    14.13999    14.13999     0.00018     0.00038    -0.00142
  Kinetic  6651.84455  6651.84282  6651.84826    -3.92608    -3.93102    -3.92955
  Fock    -1832.39416 -1832.39408 -1832.39435    -0.13659    -0.13643    -0.13634
  -------------------------------------------------------------------------------------
  Total     -47.19664   -47.19664   -47.19664    -0.00000     0.00000     0.00000
  in kB     -33.73840   -33.73840   -33.73840    -0.00000     0.00000     0.00000
  external pressure =      -33.74 kB  Pullay stress =        0.00 kB


 VOLUME and BASIS-vectors are now :
 -----------------------------------------------------------------------------
  energy-cutoff  :      450.00
  volume of cell :     2241.29
      direct lattice vectors                 reciprocal lattice vectors
    13.086768000  0.000000000  0.000000000     0.076413061  0.000000000  0.000000000
     0.000000000 13.086768000  0.000000000     0.000000000  0.076413061  0.000000000
     0.000000000  0.000000000 13.086768000     0.000000000  0.000000000  0.076413061

  length of vectors
    13.086768000 13.086768000 13.086768000     0.076413061  0.076413061  0.076413061


 FORCES acting on ions:
    Electron-Ion                     Ewald-Force                    Non-Local-Force
 -----------------------------------------------------------------------------------------------
   -.105E+03 0.105E+03 -.105E+03   0.105E+03 -.105E+03 0.105E+03   -.188E+00 0.188E+00 -.188E+00
   -.145E+02 0.145E+02 0.219E+02   0.142E+02 -.142E+02 -.220E+02   0.309E+00 -.309E+00 -.450E-01
   -.145E+02 -.219E+02 -.145E+02   0.142E+02 0.220E+02 0.142E+02   0.309E+00 0.450E-01 0.309E+00
   -.783E+01 -.701E+01 0.701E+01   0.767E+01 0.717E+01 -.717E+01   0.232E+00 -.153E+00 0.153E+00
   0.219E+02 0.145E+02 -.145E+02   -.220E+02 -.142E+02 0.142E+02   -.450E-01 -.309E+00 0.309E+00
   0.701E+01 0.783E+01 0.701E+01   -.716E+01 -.767E+01 -.716E+01   0.153E+00 -.232E+00 0.153E+00
   0.701E+01 -.701E+01 -.783E+01   -.717E+01 0.716E+01 0.767E+01   0.153E+00 -.153E+00 0.232E+00
   0.661E+01 -.662E+01 0.662E+01   -.657E+01 0.657E+01 -.657E+01   -.756E-01 0.756E-01 -.756E-01
   -.145E+02 -.145E+02 -.219E+02   0.142E+02 0.142E+02 0.220E+02   0.309E+00 0.309E+00 0.450E-01
   -.105E+03 -.105E+03 0.105E+03   0.105E+03 0.105E+03 -.105E+03   -.188E+00 -.188E+00 0.188E+00
   -.783E+01 0.701E+01 -.701E+01   0.767E+01 -.717E+01 0.717E+01   0.232E+00 0.153E+00 -.153E+00
   -.145E+02 0.219E+02 0.145E+02   0.142E+02 -.220E+02 -.142E+02   0.309E+00 -.450E-01 -.309E+00
   0.701E+01 -.783E+01 -.701E+01   -.717E+01 0.767E+01 0.716E+01   0.153E+00 0.232E+00 -.153E+00
   0.219E+02 -.145E+02 0.145E+02   -.220E+02 0.142E+02 -.142E+02   -.450E-01 0.309E+00 -.309E+00
   0.661E+01 0.661E+01 -.661E+01   -.657E+01 -.657E+01 0.657E+01   -.756E-01 -.756E-01 0.756E-01
   0.701E+01 0.701E+01 0.783E+01   -.716E+01 -.716E+01 -.767E+01   0.153E+00 0.153E+00 -.232E+00
   -.701E+01 0.783E+01 -.701E+01   0.716E+01 -.767E+01 0.716E+01   -.153E+00 -.232E+00 -.153E+00
   -.219E+02 0.145E+02 0.145E+02   0.220E+02 -.142E+02 -.142E+02   0.450E-01 -.309E+00 -.309E+00
   -.662E+01 -.661E+01 -.662E+01   0.657E+01 0.657E+01 0.657E+01   0.756E-01 0.756E-01 0.756E-01
   -.701E+01 -.701E+01 0.783E+01   0.717E+01 0.716E+01 -.767E+01   -.153E+00 -.153E+00 -.232E+00
   0.145E+02 0.145E+02 -.219E+02   -.142E+02 -.142E+02 0.220E+02   -.309E+00 -.309E+00 0.450E-01
   0.105E+03 0.105E+03 0.105E+03   -.105E+03 -.105E+03 -.105E+03   0.188E+00 0.188E+00 0.188E+00
   0.783E+01 -.701E+01 -.701E+01   -.766E+01 0.717E+01 0.717E+01   -.232E+00 -.153E+00 -.153E+00
   0.145E+02 -.219E+02 0.145E+02   -.142E+02 0.220E+02 -.142E+02   -.309E+00 0.450E-01 -.309E+00
   -.219E+02 -.145E+02 -.145E+02   0.220E+02 0.142E+02 0.142E+02   0.450E-01 0.309E+00 0.309E+00
   -.701E+01 -.783E+01 0.701E+01   0.716E+01 0.767E+01 -.717E+01   -.153E+00 0.232E+00 0.153E+00
   -.701E+01 0.701E+01 -.783E+01   0.716E+01 -.716E+01 0.767E+01   -.153E+00 0.153E+00 0.232E+00
   -.661E+01 0.661E+01 0.661E+01   0.657E+01 -.657E+01 -.657E+01   0.756E-01 -.756E-01 -.756E-01
   0.105E+03 -.105E+03 -.105E+03   -.105E+03 0.105E+03 0.105E+03   0.188E+00 -.188E+00 -.188E+00
   0.145E+02 -.145E+02 0.219E+02   -.142E+02 0.142E+02 -.220E+02   -.309E+00 0.309E+00 -.450E-01
   0.145E+02 0.219E+02 -.145E+02   -.142E+02 -.220E+02 0.142E+02   -.309E+00 -.450E-01 0.309E+00
   0.783E+01 0.701E+01 0.701E+01   -.766E+01 -.717E+01 -.717E+01   -.232E+00 0.153E+00 0.153E+00
   -.181E-02 -.898E-03 -.407E-03   -.126E-03 0.632E-03 -.109E-02   0.686E-18 0.126E-17 -.116E-17
   -.508E+01 0.190E-03 -.202E-03   0.498E+01 0.656E-03 -.134E-03   0.121E+00 0.245E-18 -.236E-17
   -.594E+02 0.777E-03 -.583E-03   0.587E+02 -.529E-03 0.376E-03   0.772E+00 0.107E-17 -.603E-17
   -.664E+01 0.774E-03 0.437E-03   0.676E+01 -.837E-04 0.196E-04   -.963E-01 -.460E-18 0.228E-17
   -.508E+01 0.356E-03 -.192E-03   0.498E+01 0.607E-04 -.145E-04   0.121E+00 -.206E-17 0.481E-18
   0.508E+01 0.301E-03 -.162E-02   -.498E+01 -.526E-03 0.490E-03   -.121E+00 0.690E-19 -.103E-17
   0.594E+02 0.175E-02 0.456E-03   -.587E+02 -.672E-03 0.570E-03   -.772E+00 -.646E-18 0.336E-18
   0.664E+01 -.115E-02 -.914E-03   -.676E+01 0.708E-03 0.709E-03   0.963E-01 -.303E-17 -.350E-17
   0.508E+01 0.113E-02 0.192E-03   -.498E+01 -.542E-04 -.502E-03   -.121E+00 -.648E-18 -.150E-18
   -.651E+01 -.651E+01 -.651E+01   0.643E+01 0.644E+01 0.644E+01   0.111E+00 0.111E+00 0.111E+00
   -.126E+02 -.126E+02 0.126E+02   0.130E+02 0.130E+02 -.130E+02   -.359E+00 -.359E+00 0.359E+00
   -.126E+02 0.126E+02 -.126E+02   0.130E+02 -.130E+02 0.130E+02   -.359E+00 0.359E+00 -.359E+00
   -.651E+01 0.651E+01 0.651E+01   0.643E+01 -.644E+01 -.644E+01   0.111E+00 -.111E+00 -.111E+00
   0.126E+02 -.126E+02 -.126E+02   -.130E+02 0.130E+02 0.130E+02   0.359E+00 -.359E+00 -.359E+00
   0.651E+01 -.651E+01 0.651E+01   -.644E+01 0.644E+01 -.644E+01   -.111E+00 0.111E+00 -.111E+00
   0.651E+01 0.651E+01 -.651E+01   -.644E+01 -.644E+01 0.643E+01   -.111E+00 -.111E+00 0.111E+00
   0.126E+02 0.126E+02 0.126E+02   -.130E+02 -.130E+02 -.130E+02   0.359E+00 0.359E+00 0.359E+00
   0.916E-03 -.683E-04 -.508E+01   -.985E-04 0.119E-02 0.498E+01   -.725E-19 -.324E-18 0.121E+00
   -.155E-02 -.338E-03 0.508E+01   -.133E-03 -.254E-04 -.498E+01   -.149E-17 0.304E-19 -.121E+00
   0.714E-04 0.852E-03 -.665E+01   -.281E-04 -.139E-03 0.676E+01   0.166E-17 -.165E-17 -.963E-01
   0.781E-04 -.100E-02 0.665E+01   -.204E-04 0.362E-04 -.676E+01   0.244E-17 0.423E-17 0.963E-01
   0.605E-03 0.188E-04 -.594E+02   -.150E-03 0.680E-03 0.586E+02   -.274E-17 0.355E-17 0.772E+00
   0.145E-02 0.180E-02 0.594E+02   0.696E-03 -.743E-03 -.586E+02   0.166E-17 0.304E-17 -.772E+00
   0.508E-03 0.171E-02 -.508E+01   0.984E-05 -.566E-03 0.498E+01   0.316E-18 0.400E-17 0.121E+00
   -.131E-02 0.627E-03 0.508E+01   -.466E-03 0.688E-04 -.498E+01   0.121E-19 -.251E-18 -.121E+00
   0.169E-03 -.665E+01 0.132E-02   0.185E-04 0.676E+01 -.648E-03   -.282E-17 -.963E-01 0.436E-18
   0.408E-03 -.508E+01 -.129E-04   -.744E-04 0.498E+01 0.106E-03   0.192E-17 0.121E+00 -.135E-18
   -.398E-04 0.665E+01 -.784E-03   -.241E-04 -.676E+01 0.528E-04   -.474E-18 0.963E-01 0.749E-19
   -.102E-02 0.508E+01 -.541E-03   -.201E-03 -.498E+01 -.570E-03   -.745E-17 -.121E+00 -.155E-18
   -.399E-03 -.508E+01 0.109E-02   0.172E-03 0.498E+01 -.529E-03   -.174E-18 0.121E+00 0.107E-17
   0.788E-03 -.594E+02 0.879E-04   0.572E-03 0.586E+02 0.743E-03   0.281E-17 0.772E+00 -.131E-17
   -.480E-03 0.508E+01 0.269E-04   -.478E-03 -.498E+01 0.812E-04   -.284E-18 -.121E+00 -.770E-18
   0.135E-02 0.594E+02 0.189E-02   -.184E-03 -.586E+02 -.706E-03   -.402E-18 -.772E+00 -.754E-18
 -----------------------------------------------------------------------------------------------
   -.693E-02 0.736E-02 -.654E-02   -.120E-12 0.924E-13 -.158E-12   -.505E-15 -.111E-15 0.956E-16


 POSITION                                       TOTAL-FORCE (eV/Angst)
 -----------------------------------------------------------------------------------
      0.05869     13.02807      0.05869         0.190247     -0.190247      0.190247
      0.01632     13.07045      6.50359         0.049417     -0.049417     -0.143535
      0.01632      6.58318      0.01632         0.049417      0.143535      0.049417
     13.08186      6.55932      6.52744         0.081868     -0.007677      0.007677
      6.50359     13.07045      0.01632        -0.143535     -0.049417      0.049417
      6.52743      0.00491      6.52743         0.007677     -0.081868      0.007677
      6.52743      6.55934     13.08186         0.007677     -0.007677      0.081868
      6.55029      6.53647      6.55029        -0.038118      0.038118     -0.038118
      0.01632      3.28801      3.31148         0.049417      0.049417      0.143535
      0.05871      3.33039      9.75638         0.190247      0.190247     -0.190247
     13.08186      9.79914      3.28763         0.081868      0.007677     -0.007677
      0.01632      9.77528      9.79876         0.049417     -0.143535     -0.049417
      6.52744      3.26678      3.28764         0.007677      0.081868     -0.007677
      6.50360      3.28801      9.79876        -0.143535      0.049417     -0.049417
      6.55029      9.82199      3.26478        -0.038118     -0.038118      0.038118
      6.52743      9.79912      9.81998         0.007677      0.007677     -0.081868
      3.28764      0.00491      3.28764        -0.007677     -0.081868     -0.007677
      3.31148     13.07045      9.79876         0.143535     -0.049417     -0.049417
      3.26478      6.53647      3.26478         0.038118      0.038118      0.038118
      3.28764      6.55934      9.81998        -0.007677     -0.007677     -0.081868
      9.79876     13.07045      3.31148        -0.049417     -0.049417      0.143535
      9.75637     13.02807      9.75638        -0.190247     -0.190247     -0.190247
      9.81998      6.55934      3.28764        -0.081868     -0.007677     -0.007677
      9.79876      6.58317      9.79876        -0.049417      0.143535     -0.049417
      3.31148      3.28801      0.01632         0.143535      0.049417      0.049417
      3.28764      3.26678      6.52743        -0.007677      0.081868      0.007677
      3.28764      9.79912     13.08186        -0.007677      0.007677      0.081868
      3.26478      9.82199      6.55029         0.038118     -0.038118     -0.038118
      9.75637      3.33039      0.05869        -0.190247      0.190247      0.190247
      9.79876      3.28801      6.50360        -0.049417      0.049417     -0.143535
      9.79876      9.77528      0.01632        -0.049417     -0.143535      0.049417
      9.81998      9.79914      6.52744        -0.081868      0.007677      0.007677
     11.45092      1.63585     11.45092        -0.000000      0.000000     -0.000000
      1.65752      1.63585      4.90754         0.028005      0.000000     -0.000000
      1.73765      1.63585     11.45092         0.006210      0.000000     -0.000000
      1.64752      8.17923      4.90754         0.016807      0.000000     -0.000000
      1.65752      8.17923     11.45092         0.028005      0.000000     -0.000000
      8.15756      1.63585      4.90754        -0.028005      0.000000     -0.000000
      8.07743      1.63585     11.45092        -0.006210      0.000000     -0.000000
      8.16756      8.17923      4.90754        -0.016807      0.000000     -0.000000
      8.15756      8.17923     11.45092        -0.028005      0.000000     -0.000000
      1.63386      4.90555      1.63386         0.040151      0.040151      0.040151
      1.66841      4.94010      8.14667         0.014128      0.014128     -0.014128
      1.66841     11.41836      1.66841         0.014128     -0.014128      0.014128
      1.63386     11.45291      8.18122         0.040151     -0.040151     -0.040151
      8.14667      4.94010      1.66841        -0.014128      0.014128      0.014128
      8.18122      4.90555      8.18122        -0.040151      0.040151     -0.040151
      8.18122     11.45291      1.63386        -0.040151     -0.040151      0.040151
      8.14667     11.41836      8.14667        -0.014128     -0.014128     -0.014128
      4.90754      1.63585      1.65752        -0.000000      0.000000      0.028005
      4.90754      1.63585      8.15756        -0.000000      0.000000     -0.028005
      4.90754      8.17923      1.64752        -0.000000      0.000000      0.016807
      4.90754      8.17923      8.16756        -0.000000      0.000000     -0.016807
     11.45092      1.63585      1.73765        -0.000000      0.000000      0.006210
     11.45092      1.63585      8.07743        -0.000000      0.000000     -0.006210
     11.45092      8.17923      1.65752        -0.000000      0.000000      0.028005
     11.45092      8.17923      8.15756        -0.000000      0.000000     -0.028005
      4.90754      4.91921      4.90754        -0.000000      0.016807     -0.000000
      4.90754      4.92921     11.45092        -0.000000      0.028005     -0.000000
      4.90754     11.43925      4.90754        -0.000000     -0.016807     -0.000000
      4.90754     11.42925     11.45092        -0.000000     -0.028005     -0.000000
     11.45092      4.92921      4.90754        -0.000000      0.028005     -0.000000
     11.45092      5.00934     11.45092        -0.000000      0.006210     -0.000000
     11.45092     11.42925      4.90754        -0.000000     -0.028005     -0.000000
     11.45092     11.34912     11.45092        -0.000000     -0.006210     -0.000000
 -----------------------------------------------------------------------------------
    total drift:                               -0.006927      0.007357     -0.006544


--------------------------------------------------------------------------------------------------------



  FREE ENERGIE OF THE ION-ELECTRON SYSTEM (eV)
  ---------------------------------------------------
  free  energy   TOTEN  =      -190.69181289 eV

  energy  without entropy=     -190.69181289  energy(sigma->0) =     -190.69181289



--------------------------------------------------------------------------------------------------------


    POTLOK:  cpu time      1.1384: real time      1.1388


--------------------------------------------------------------------------------------------------------


     LOOP+:  cpu time   1124.1323: real time   1129.7899
    4ORBIT:  cpu time      0.0000: real time      0.0000

 total amount of memory used by VASP MPI-rank0   137968. kBytes
=======================================================================

   base                                    :      30000. kBytes
   nonl-proj                               :      19857. kBytes
   fftplans                                :      11460. kBytes
   grid                                    :      37158. kBytes
   one-center                              :       1057. kBytes
   HF                                      :        129. kBytes
   nonlr-proj                              :      12683. kBytes
   wavefun                                 :       4914. kBytes
   fock_wrk                                :      20710. kBytes

  
  
 General timing and accounting informations for this job:
 ========================================================
  
                  Total CPU time used (sec):     1350.997
                            User time (sec):     1336.189
                          System time (sec):       14.809
                         Elapsed time (sec):     1470.153
  
                   Maximum memory used (kb):      807960.
                   Average memory used (kb):          N/A
  
                          Minor page faults:       658910
                          Major page faults:         1295
                 Voluntary context switches:        44061
++++ Slurm JobID = 11998578
	linux-vdso.so.1 (0x00007ffdf6dc8000)
	libstdc++.so.6 => /opt/cray/pe/gcc-libs/libstdc++.so.6 (0x0000155421000000)
	libfftw3.so.mpi31.3 => /opt/cray/pe/lib64/libfftw3.so.mpi31.3 (0x0000155420a00000)
	libfftw3_omp.so.mpi31.3 => /opt/cray/pe/lib64/libfftw3_omp.so.mpi31.3 (0x0000155420600000)
	libhdf5_fortran_parallel_gnu_91.so.200 => /opt/cray/pe/lib64/libhdf5_fortran_parallel_gnu_91.so.200 (0x0000155421559000)
	libdl.so.2 => /lib64/libdl.so.2 (0x0000155421552000)
	libsci_gnu_82_mpi_mp.so.5 => /opt/cray/pe/lib64/libsci_gnu_82_mpi_mp.so.5 (0x000015541fe00000)
	libsci_gnu_82_mp.so.5 => /opt/cray/pe/lib64/libsci_gnu_82_mp.so.5 (0x000015541c600000)
	libmpifort_gnu_91.so.12 => /opt/cray/pe/lib64/libmpifort_gnu_91.so.12 (0x000015541c200000)
	libmpi_gnu_91.so.12 => /opt/cray/pe/lib64/libmpi_gnu_91.so.12 (0x0000155419400000)
	libxpmem.so.0 => /opt/xpmem/lib64/libxpmem.so.0 (0x000015542154f000)
	libgfortran.so.5 => /opt/cray/pe/gcc-libs/libgfortran.so.5 (0x0000155418e00000)
	libquadmath.so.0 => /opt/cray/pe/gcc-libs/libquadmath.so.0 (0x0000155418a00000)
	libpthread.so.0 => /lib64/libpthread.so.0 (0x000015542152a000)
	libm.so.6 => /lib64/libm.so.6 (0x00001554208b4000)
	libmvec.so.1 => /lib64/libmvec.so.1 (0x00001554214fe000)
	libgomp.so.1 => /opt/cray/pe/gcc-libs/libgomp.so.1 (0x0000155418600000)
	libgcc_s.so.1 => /opt/cray/pe/gcc-libs/libgcc_s.so.1 (0x0000155418200000)
	libc.so.6 => /lib64/libc.so.6 (0x0000155418009000)
	/lib64/ld-linux-x86-64.so.2 (0x00001554215c5000)
	libhdf5_parallel_gnu_91.so.200 => /opt/cray/pe/lib64/libhdf5_parallel_gnu_91.so.200 (0x0000155417b9a000)
	libfabric.so.1 => /opt/cray/libfabric/1.12.1.2.2.0.0/lib64/libfabric.so.1 (0x0000155417800000)
	libatomic.so.1 => /opt/cray/pe/gcc-libs/libatomic.so.1 (0x0000155417400000)
	librt.so.1 => /lib64/librt.so.1 (0x00001554214f0000)
	libpmi.so.0 => /opt/cray/pe/lib64/libpmi.so.0 (0x0000155417000000)
	libpmi2.so.0 => /opt/cray/pe/lib64/libpmi2.so.0 (0x0000155416c00000)
	libz.so.1 => /lib64/libz.so.1 (0x0000155416800000)
	librdmacm.so.1 => /usr/lib64/librdmacm.so.1 (0x0000155416400000)
	libibverbs.so.1 => /usr/lib64/libibverbs.so.1 (0x0000155416000000)
	libpals.so.0 => /opt/cray/pe/lib64/libpals.so.0 (0x0000155415c00000)
	libnl-3.so.200 => /usr/lib64/libnl-3.so.200 (0x0000155415800000)
	libnl-route-3.so.200 => /usr/lib64/libnl-route-3.so.200 (0x0000155415400000)
	libjansson.so.4 => /usr/lib64/libjansson.so.4 (0x00001554214df000)
rm: cannot remove 'WAVECAR': No such file or directory
 running 8192 mpi-ranks, with    1 threads/rank, on   64 nodes
 distrk:  each k-point on 2048 cores,    4 groups
 distr:  one band on    4 cores,  512 groups
 vasp.6.5.1 10Mar25 (build Dec 19 2025 10:59:10) complex                         
 POSCAR found type information on POSCAR CdTe
 POSCAR found :  2 types and      65 ions
 Reading from existing POTCAR
 scaLAPACK will be used
 Reading from existing POTCAR
 -----------------------------------------------------------------------------
|                                                                             |
|               ----> ADVICE to this user running VASP <----                  |
|                                                                             |
|     You have a (more or less) 'large supercell' and for larger cells it     |
|     might be more efficient to use real-space projection operators.         |
|     Therefore, try LREAL= Auto in the INCAR file.                           |
|     Mind: For very accurate calculation, you might also keep the            |
|     reciprocal projection scheme (i.e. LREAL=.FALSE.).                      |
|                                                                             |
 -----------------------------------------------------------------------------

 LDA part: xc-table for (Slater+PW92), standard interpolation
 -----------------------------------------------------------------------------
|                                                                             |
|           W    W    AA    RRRRR   N    N  II  N    N   GGGG   !!!           |
|           W    W   A  A   R    R  NN   N  II  NN   N  G    G  !!!           |
|           W    W  A    A  R    R  N N  N  II  N N  N  G       !!!           |
|           W WW W  AAAAAA  RRRRR   N  N N  II  N  N N  G  GGG   !            |
|           WW  WW  A    A  R   R   N   NN  II  N   NN  G    G                |
|           W    W  A    A  R    R  N    N  II  N    N   GGGG   !!!           |
|                                                                             |
|     The number of bands has been changed from the values supplied in        |
|     the INCAR file. This is a result of running the parallel version.       |
|     The orbitals not found in the WAVECAR file will be initialized with     |
|     random numbers, which is usually adequate. For correlated               |
|     calculations, however, you should redo the groundstate calculation.     |
|     I found NBANDS = 640. Now, NBANDS = 1024.                               |
|                                                                             |
 -----------------------------------------------------------------------------

 POSCAR, INCAR and KPOINTS ok, starting setup
 FFT: planning ... GRIDC
 FFT: planning ... GRID_SOFT
 FFT: planning ... GRID
 WAVECAR not read
 entering main loop
       N       E                     dE             d eps       ncg     rms           ort
DAV:   1    -0.663721816494E+05   -0.66372E+05   -0.28219E+05  2048   0.975E+02  
DAV:   2    -0.693741054290E+05   -0.30019E+04   -0.29395E+04  2048   0.229E+02  
DAV:   3    -0.694775633193E+05   -0.10346E+03   -0.10332E+03  2048   0.446E+01  
DAV:   4    -0.694796215664E+05   -0.20582E+01   -0.20581E+01  2048   0.479E+00  
DAV:   5    -0.196043423186E+03    0.69284E+05   -0.34888E+02  2048   0.353E+01  
SDA:   6    -0.180826585756E+03    0.15217E+02   -0.34888E+02  2048   0.336E+02   0.000E+00
 gam= 0.000 g(H,U,f)=  0.207E+02 0.129E+02 0.907E-16 ort(H,U,f) = 0.000E+00 0.000E+00 0.000E+00
 gam= 0.000 trial= 0.400  step=  0.5885 mean=  0.4000
CGA:   7    -0.190691812889E+03   -0.98652E+01   -0.98841E+01  2048   0.430E+01  -0.138E+00
 gam= 0.128 g(H,U,f)=  0.309E+01 0.121E+01 0.428E-15 ort(H,U,f) =-0.399E+01 0.385E+01 0.775E-15
 gam= 0.128 trial= 0.419  step=  0.6553 mean=  0.4189
 final diagonalization occupied
 -----------------------------------------------------------------------------
|                                                                             |
|           W    W    AA    RRRRR   N    N  II  N    N   GGGG   !!!           |
|           W    W   A  A   R    R  NN   N  II  NN   N  G    G  !!!           |
|           W    W  A    A  R    R  N N  N  II  N N  N  G       !!!           |
|           W WW W  AAAAAA  RRRRR   N  N N  II  N  N N  G  GGG   !            |
|           WW  WW  A    A  R   R   N   NN  II  N   NN  G    G                |
|           W    W  A    A  R    R  N    N  II  N    N   GGGG   !!!           |
|                                                                             |
|     The electronic self-consistency was not achieved in the given           |
|     number of steps (NELM). The forces and other quantities evaluated       |
|     might not be reliable so examine the results carefully. If you find     |
|     spurious results, we suggest increasing NELM, if you were close to      |
|     convergence or switching to a different ALGO or adjusting the           |
|     density mixing parameters otherwise.                                    |
|                                                                             |
 -----------------------------------------------------------------------------

   1 F= -.19069181E+03 E0= -.19069181E+03  d E =-.751529E-11  mag=     0.0000     0.0000    -0.0000
