 vasp.6.5.1 10Mar25 (build Dec 27 2025 08:36:15) complex                         
 executed on        HPECrayEX_GCC date 2025.12.28  16:50:26
 running  256 mpi-ranks, with    1 threads/rank, on    2 nodes
 distrk:  each k-point on   64 cores,    4 groups
 distr:  one band on NCORE=   8 cores,    8 groups


--------------------------------------------------------------------------------------------------------


 INCAR:
   SYSTEM = CdTe
   ISTART = 0
   ICHARG = 2
   LWAVE = .FALSE.
   LCHARG = .FALSE.
   NCSHMEM = 1
   NBLOCK_FOCK = 8
   LSCAAWARE = .TRUE.
   NELMDL = 5
   NELM = 7
   ALGO = All
   ISIF = 2
   LHFCALC = .TRUE.
   AEXX = 0.25
   HFSCREEN = 0.2
   NBANDS = 640
   ENCUT = 450
   PREC = Accurate
   PRECFOCK = Fast
   LASPH = .TRUE.
   LREAL = .FALSE.
   ISMEAR = 0
   SIGMA = 0.05
   LNONCOLLINEAR = .TRUE.
   MAGMOM = 195*0
   NCORE = 8
   KPAR = 4

 POTCAR:    PAW_PBE Cd 06Sep2000                  
 POTCAR:    PAW_PBE Te 08Apr2002                  
 POTCAR:    PAW_PBE Cd 06Sep2000                  
   VRHFIN =Cd : s2 d10                                                                              
   LEXCH  = PE                                                                                      
   EATOM  =  1293.1815 eV,   95.0462 Ry                                                             
                                                                                                    
   TITEL  = PAW_PBE Cd 06Sep2000                                                                    
   LULTRA =        F    use ultrasoft PP ?                                                          
   IUNSCR =        1    unscreen: 0-lin 1-nonlin 2-no                                               
   RPACOR =    2.000    partial core radius                                                         
   POMASS =  112.411; ZVAL   =   12.000    mass and valenz                                          
   RCORE  =    2.300    outmost cutoff radius                                                       
   RWIGS  =    2.980; RWIGS  =    1.577    wigner-seitz radius (au A)                               
   ENMAX  =  274.336; ENMIN  =  205.752 eV                                                          
   RCLOC  =    2.054    cutoff for local pot                                                        
   LCOR   =        T    correct aug charges                                                         
   LPAW   =        T    paw PP                                                                      
   EAUG   =  456.106                                                                                
   DEXC   =    0.000                                                                                
   RMAX   =    2.358    core radius for proj-oper                                                   
   RAUG   =    1.300    factor for augmentation sphere                                              
   RDEP   =    2.450    radius for radial grids                                                     
   RDEPT  =    1.955    core radius for aug-charge                                                  
                                                                                                    
   Atomic configuration                                                                             
   12 entries                                                                                       
     n  l   j            E        occ.                                                              
     1  0  0.50    -26519.7817   2.0000                                                             
     2  0  0.50     -3936.9612   2.0000                                                             
     2  1  1.50     -3532.2230   6.0000                                                             
     3  0  0.50      -733.7908   2.0000                                                             
     3  1  1.50      -601.0792   6.0000                                                             
     3  2  2.50      -393.5307  10.0000                                                             
     4  0  0.50      -105.8977   2.0000                                                             
     4  1  1.50       -66.9488   6.0000                                                             
     4  2  2.50       -11.7331  10.0000                                                             
     5  0  0.50        -5.6592   2.0000                                                             
     5  1  0.50        -1.3606   0.0000                                                             
     4  3  2.50        -1.3606   0.0000                                                             
   Description                                                                                      
     l       E           TYP  RCUT    TYP  RCUT                                                     
     2    -11.7331479     23  2.300                                                                 
     2    -13.0937305     23  2.300                                                                 
     0     -5.6591502     23  2.300                                                                 
     0     -1.5561433     23  2.300                                                                 
     1     -2.7211652     23  2.300                                                                 
     1      8.3548275     23  2.300                                                                 
  local pseudopotential read in
  partial core-charges read in
  partial kinetic energy density read in
  atomic valenz-charges read in
  non local Contribution for L=           2  read in
    real space projection operators read in
  non local Contribution for L=           2  read in
    real space projection operators read in
  non local Contribution for L=           0  read in
    real space projection operators read in
  non local Contribution for L=           0  read in
    real space projection operators read in
  non local Contribution for L=           1  read in
    real space projection operators read in
  non local Contribution for L=           1  read in
    real space projection operators read in
    PAW grid and wavefunctions read in

   number of l-projection  operators is LMAX  =           6
   number of lm-projection operators is LMMAX =          18

 POTCAR:    PAW_PBE Te 08Apr2002                  
   VRHFIN =Te: s2p4                                                                                 
   LEXCH  = PE                                                                                      
   EATOM  =   223.2721 eV,   16.4100 Ry                                                             
                                                                                                    
   TITEL  = PAW_PBE Te 08Apr2002                                                                    
   LULTRA =        F    use ultrasoft PP ?                                                          
   IUNSCR =        1    unscreen: 0-lin 1-nonlin 2-no                                               
   RPACOR =    2.200    partial core radius                                                         
   POMASS =  127.600; ZVAL   =    6.000    mass and valenz                                          
   RCORE  =    2.300    outmost cutoff radius                                                       
   RWIGS  =    2.900; RWIGS  =    1.535    wigner-seitz radius (au A)                               
   ENMAX  =  174.982; ENMIN  =  131.236 eV                                                          
   ICORE  =        3    local potential                                                             
   LCOR   =        T    correct aug charges                                                         
   LPAW   =        T    paw PP                                                                      
   EAUG   =  368.792                                                                                
   DEXC   =    0.000                                                                                
   RMAX   =    2.345    core radius for proj-oper                                                   
   RAUG   =    1.300    factor for augmentation sphere                                              
   RDEP   =    2.397    radius for radial grids                                                     
   RDEPT  =    2.174    core radius for aug-charge                                                  
                                                                                                    
   Atomic configuration                                                                             
   13 entries                                                                                       
     n  l   j            E        occ.                                                              
     1  0  0.50    -31621.2075   2.0000                                                             
     2  0  0.50     -4848.7941   2.0000                                                             
     2  1  1.50     -4352.1960   6.0000                                                             
     3  0  0.50      -964.9612   2.0000                                                             
     3  1  1.50      -803.6179   6.0000                                                             
     3  2  2.50      -559.8710  10.0000                                                             
     4  0  0.50      -164.3522   2.0000                                                             
     4  1  1.50      -114.3756   6.0000                                                             
     4  2  2.50       -41.6483  10.0000                                                             
     5  0  0.50       -15.1072   2.0000                                                             
     5  1  0.50        -5.9526   4.0000                                                             
     5  2  1.50        -5.4423   0.0000                                                             
     4  3  2.50        -5.4423   0.0000                                                             
   Description                                                                                      
     l       E           TYP  RCUT    TYP  RCUT                                                     
     0    -15.1072389     23  2.300                                                                 
     0    -16.4678215     23  2.300                                                                 
     1     -5.9526306     23  2.300                                                                 
     1     -2.4873968     23  2.300                                                                 
     2     -5.4423304     23  2.300                                                                 
     3     -1.3605826     23  2.300                                                                 
  local pseudopotential read in
  partial core-charges read in
  partial kinetic energy density read in
  atomic valenz-charges read in
  non local Contribution for L=           0  read in
    real space projection operators read in
  non local Contribution for L=           0  read in
    real space projection operators read in
  non local Contribution for L=           1  read in
    real space projection operators read in
  non local Contribution for L=           1  read in
    real space projection operators read in
  non local Contribution for L=           2  read in
    real space projection operators read in
    PAW grid and wavefunctions read in

   number of l-projection  operators is LMAX  =           5
   number of lm-projection operators is LMMAX =          13

 -----------------------------------------------------------------------------
|                                                                             |
|               ----> ADVICE to this user running VASP <----                  |
|                                                                             |
|     You have a (more or less) 'large supercell' and for larger cells it     |
|     might be more efficient to use real-space projection operators.         |
|     Therefore, try LREAL= Auto in the INCAR file.                           |
|     Mind: For very accurate calculation, you might also keep the            |
|     reciprocal projection scheme (i.e. LREAL=.FALSE.).                      |
|                                                                             |
 -----------------------------------------------------------------------------

  PAW_PBE Cd 06Sep2000                  :
 energy of atom  1       EATOM=-1293.1815
 kinetic energy error for atom=    0.0084 (will be added to EATOM!!)
  PAW_PBE Te 08Apr2002                  :
 energy of atom  2       EATOM= -223.2721
 kinetic energy error for atom=    0.0008 (will be added to EATOM!!)


 POSCAR: Cd33 Te32
  positions in direct lattice
  No initial velocities read in


 exchange-correlation table for PE
   RHO(1)=    0.500       N(1)  =     2000
   RHO(2)=  100.500       N(2)  =     4000



--------------------------------------------------------------------------------------------------------


 ion  position               nearest neighbor table
   1  0.004  0.996  0.004-  44 2.79  35 2.93  54 2.93  65 2.93  33 2.94
   2  0.001  0.999  0.497-  55 2.82  34 2.82  64 2.82  45 2.84
   3  0.001  0.503  0.001-  63 2.82  56 2.82  37 2.82  42 2.84
   4  1.000  0.501  0.499-  57 2.82  62 2.82  36 2.82  43 2.84
   5  0.497  0.999  0.001-  39 2.82  50 2.82  61 2.82  48 2.84
   6  0.499  0.000  0.499-  38 2.82  51 2.82  60 2.82  49 2.84
   7  0.499  0.501  1.000-  41 2.82  59 2.82  52 2.82  46 2.84
   8  0.501  0.499  0.501-  47 2.82  40 2.83  53 2.83  58 2.83
   9  0.001  0.251  0.253-  54 2.82  34 2.82  62 2.82  42 2.84
  10  0.004  0.254  0.746-  43 2.79  35 2.93  55 2.93  63 2.93  33 2.94
  11  1.000  0.749  0.251-  56 2.82  64 2.82  36 2.82  44 2.84
  12  0.001  0.747  0.749-  65 2.82  57 2.82  37 2.82  45 2.84
  13  0.499  0.250  0.251-  38 2.82  50 2.82  58 2.82  46 2.84
  14  0.497  0.251  0.749-  39 2.82  51 2.82  59 2.82  47 2.84
  15  0.501  0.751  0.249-  48 2.82  40 2.83  52 2.83  60 2.83
  16  0.499  0.749  0.750-  41 2.82  61 2.82  53 2.82  49 2.84
  17  0.251  0.000  0.251-  34 2.82  50 2.82  60 2.82  44 2.84
  18  0.253  0.999  0.749-  35 2.82  51 2.82  61 2.82  45 2.84
  19  0.249  0.499  0.249-  42 2.82  36 2.83  52 2.83  58 2.83
  20  0.251  0.501  0.750-  37 2.82  59 2.82  53 2.82  43 2.84
  21  0.749  0.999  0.253-  54 2.82  38 2.82  64 2.82  48 2.84
  22  0.746  0.996  0.746-  49 2.79  39 2.93  55 2.93  65 2.93  33 2.94
  23  0.750  0.501  0.251-  56 2.82  62 2.82  40 2.82  46 2.84
  24  0.749  0.503  0.749-  63 2.82  57 2.82  41 2.82  47 2.84
  25  0.253  0.251  0.001-  35 2.82  50 2.82  59 2.82  42 2.84
  26  0.251  0.250  0.499-  34 2.82  51 2.82  58 2.82  43 2.84
  27  0.251  0.749  1.000-  37 2.82  61 2.82  52 2.82  44 2.84
  28  0.249  0.751  0.501-  45 2.82  36 2.83  53 2.83  60 2.83
  29  0.746  0.254  0.004-  46 2.79  39 2.93  54 2.93  63 2.93  33 2.94
  30  0.749  0.251  0.497-  55 2.82  38 2.82  62 2.82  47 2.84
  31  0.749  0.747  0.001-  65 2.82  56 2.82  41 2.82  48 2.84
  32  0.750  0.749  0.499-  57 2.82  64 2.82  40 2.82  49 2.84
  33  0.875  0.125  0.875-   1 2.94  10 2.94  22 2.94  29 2.94  35 3.37  39 3.37  54 3.37  55 3.37
                            63 3.37  65 3.37
  34  0.127  0.125  0.375-  17 2.82  26 2.82   2 2.82   9 2.82
  35  0.133  0.125  0.875-  18 2.82  25 2.82  10 2.93   1 2.93  33 3.37
  36  0.126  0.625  0.375-   4 2.82  11 2.82  19 2.83  28 2.83
  37  0.127  0.625  0.875-  20 2.82  27 2.82   3 2.82  12 2.82
  38  0.623  0.125  0.375-  13 2.82   6 2.82  21 2.82  30 2.82
  39  0.617  0.125  0.875-  14 2.82   5 2.82  22 2.93  29 2.93  33 3.37
  40  0.624  0.625  0.375-  23 2.82  32 2.82   8 2.83  15 2.83
  41  0.623  0.625  0.875-   7 2.82  16 2.82  31 2.82  24 2.82
  42  0.125  0.375  0.125-  19 2.82   9 2.84  25 2.84   3 2.84
  43  0.127  0.377  0.623-  10 2.79   4 2.84  26 2.84  20 2.84
  44  0.127  0.873  0.127-   1 2.79  11 2.84  17 2.84  27 2.84
  45  0.125  0.875  0.625-  28 2.82  18 2.84   2 2.84  12 2.84
  46  0.623  0.377  0.127-  29 2.79  13 2.84  23 2.84   7 2.84
  47  0.625  0.375  0.625-   8 2.82  14 2.84  24 2.84  30 2.84
  48  0.625  0.875  0.125-  15 2.82  21 2.84   5 2.84  31 2.84
  49  0.623  0.873  0.623-  22 2.79  32 2.84   6 2.84  16 2.84
  50  0.375  0.125  0.127-  17 2.82  13 2.82   5 2.82  25 2.82
  51  0.375  0.125  0.623-   6 2.82  26 2.82  18 2.82  14 2.82
  52  0.375  0.625  0.126-   7 2.82  27 2.82  19 2.83  15 2.83
  53  0.375  0.625  0.624-  16 2.82  20 2.82   8 2.83  28 2.83
  54  0.875  0.125  0.133-   9 2.82  21 2.82   1 2.93  29 2.93  33 3.37
  55  0.875  0.125  0.617-  30 2.82   2 2.82  22 2.93  10 2.93  33 3.37
  56  0.875  0.625  0.127-  11 2.82  23 2.82   3 2.82  31 2.82
  57  0.875  0.625  0.623-   4 2.82  32 2.82  12 2.82  24 2.82
  58  0.375  0.376  0.375-  26 2.82  13 2.82  19 2.83   8 2.83
  59  0.375  0.377  0.875-   7 2.82  20 2.82  14 2.82  25 2.82
  60  0.375  0.874  0.375-   6 2.82  17 2.82  15 2.83  28 2.83
  61  0.375  0.873  0.875-  16 2.82  27 2.82   5 2.82  18 2.82
  62  0.875  0.377  0.375-   4 2.82  23 2.82   9 2.82  30 2.82
  63  0.875  0.383  0.875-  24 2.82   3 2.82  10 2.93  29 2.93  33 3.37
  64  0.875  0.873  0.375-  11 2.82  32 2.82   2 2.82  21 2.82
  65  0.875  0.867  0.875-  12 2.82  31 2.82   1 2.93  22 2.93  33 3.37

  LATTYP: Found a simple cubic cell.
 ALAT       =    13.0867680000
  
  Lattice vectors:
  
 A1 = (  13.0867680000,   0.0000000000,   0.0000000000)
 A2 = (   0.0000000000,  13.0867680000,   0.0000000000)
 A3 = (   0.0000000000,   0.0000000000,  13.0867680000)


Analysis of symmetry for initial positions (statically):
=====================================================================
 Subroutine PRICEL returns:
 Original cell was already a primitive cell.
 

 Routine SETGRP: Setting up the symmetry group for a 
 simple cubic supercell.


 Subroutine GETGRP returns: Found 24 space group operations
 (whereof  6 operations were pure point group operations)
 out of a pool of 48 trial point group operations.


The static configuration has the point symmetry C_3v.
 The point group associated with its full space group is T_d .


Analysis of symmetry for dynamics (positions and initial velocities):
=====================================================================
 Subroutine PRICEL returns:
 Original cell was already a primitive cell.
 

 Routine SETGRP: Setting up the symmetry group for a 
 simple cubic supercell.


 Subroutine GETGRP returns: Found 24 space group operations
 (whereof  6 operations were pure point group operations)
 out of a pool of 48 trial point group operations.


The dynamic configuration has the point symmetry C_3v.
 The point group associated with its full space group is T_d .


Analysis of structural, dynamic, and magnetic symmetry:
=====================================================================
 Subroutine PRICEL returns:
 Original cell was already a primitive cell.
 

 Routine SETGRP: Setting up the symmetry group for a 
 simple cubic supercell.


 Subroutine GETGRP returns: Found 24 space group operations
 (whereof  6 operations were pure point group operations)
 out of a pool of 48 trial point group operations.


The overall configuration has the point symmetry C_3v.
 The point group associated with its full space group is T_d .


 Subroutine INISYM returns: Found 24 space group operations
 (whereof  6 operations are pure point group operations),
 and found     1 'primitive' translations


----------------------------------------------------------------------------------------

                                     Primitive cell                                     

  volume of cell :    2241.2856

  direct lattice vectors                    reciprocal lattice vectors
    13.086768000  0.000000000  0.000000000     0.076413061  0.000000000  0.000000000
     0.000000000 13.086768000  0.000000000     0.000000000  0.076413061  0.000000000
     0.000000000  0.000000000 13.086768000     0.000000000  0.000000000  0.076413061

  length of vectors
    13.086768000 13.086768000 13.086768000     0.076413061  0.076413061  0.076413061

  position of ions in fractional coordinates (direct lattice)
     0.004485000  0.995515000  0.004485000
     0.001247000  0.998753000  0.496959000
     0.001247000  0.503041000  0.001247000
     0.999625000  0.501218000  0.498782000
     0.496959000  0.998753000  0.001247000
     0.498781000  0.000375000  0.498781000
     0.498781000  0.501219000  0.999625000
     0.500528000  0.499472000  0.500528000
     0.001247000  0.251247000  0.253040000
     0.004486000  0.254485000  0.745515000
     0.999625000  0.748782000  0.251218000
     0.001247000  0.746959000  0.748753000
     0.498782000  0.249625000  0.251219000
     0.496960000  0.251247000  0.748753000
     0.500528000  0.750528000  0.249472000
     0.498781000  0.748781000  0.750375000
     0.251219000  0.000375000  0.251219000
     0.253040000  0.998753000  0.748753000
     0.249472000  0.499472000  0.249472000
     0.251219000  0.501219000  0.750375000
     0.748753000  0.998753000  0.253040000
     0.745514000  0.995515000  0.745515000
     0.750375000  0.501219000  0.251219000
     0.748753000  0.503040000  0.748753000
     0.253040000  0.251247000  0.001247000
     0.251219000  0.249625000  0.498781000
     0.251219000  0.748781000  0.999625000
     0.249472000  0.750528000  0.500528000
     0.745514000  0.254485000  0.004485000
     0.748753000  0.251247000  0.496960000
     0.748753000  0.746959000  0.001247000
     0.750375000  0.748782000  0.498782000
     0.875000000  0.125000000  0.875000000
     0.126656000  0.125000000  0.375000000
     0.132779000  0.125000000  0.875000000
     0.125892000  0.625000000  0.375000000
     0.126656000  0.625000000  0.875000000
     0.623344000  0.125000000  0.375000000
     0.617221000  0.125000000  0.875000000
     0.624108000  0.625000000  0.375000000
     0.623344000  0.625000000  0.875000000
     0.124848000  0.374848000  0.124848000
     0.127488000  0.377488000  0.622512000
     0.127488000  0.872512000  0.127488000
     0.124848000  0.875152000  0.625152000
     0.622512000  0.377488000  0.127488000
     0.625152000  0.374848000  0.625152000
     0.625152000  0.875152000  0.124848000
     0.622512000  0.872512000  0.622512000
     0.375000000  0.125000000  0.126656000
     0.375000000  0.125000000  0.623344000
     0.375000000  0.625000000  0.125892000
     0.375000000  0.625000000  0.624108000
     0.875000000  0.125000000  0.132779000
     0.875000000  0.125000000  0.617221000
     0.875000000  0.625000000  0.126656000
     0.875000000  0.625000000  0.623344000
     0.375000000  0.375892000  0.375000000
     0.375000000  0.376656000  0.875000000
     0.375000000  0.874108000  0.375000000
     0.375000000  0.873344000  0.875000000
     0.875000000  0.376656000  0.375000000
     0.875000000  0.382779000  0.875000000
     0.875000000  0.873344000  0.375000000
     0.875000000  0.867221000  0.875000000

  ion indices of the primitive-cell ions
   primitive index   ion index
                 1           1
                 2           2
                 3           3
                 4           4
                 5           5
                 6           6
                 7           7
                 8           8
                 9           9
                10          10
                11          11
                12          12
                13          13
                14          14
                15          15
                16          16
                17          17
                18          18
                19          19
                20          20
                21          21
                22          22
                23          23
                24          24
                25          25
                26          26
                27          27
                28          28
                29          29
                30          30
                31          31
                32          32
                33          33
                34          34
                35          35
                36          36
                37          37
                38          38
                39          39
                40          40
                41          41
                42          42
                43          43
                44          44
                45          45
                46          46
                47          47
                48          48
                49          49
                50          50
                51          51
                52          52
                53          53
                54          54
                55          55
                56          56
                57          57
                58          58
                59          59
                60          60
                61          61
                62          62
                63          63
                64          64
                65          65

----------------------------------------------------------------------------------------



 KPOINTS: 2x2x2 Gamma                             

Automatic generation of k-mesh.
 Grid dimensions read from file:
 generate k-points for:    2    2    2

 Generating k-lattice:

  Cartesian coordinates                     Fractional coordinates (reciprocal lattice)
     0.038206530  0.000000000  0.000000000     0.500000000  0.000000000  0.000000000
     0.000000000  0.038206530  0.000000000     0.000000000  0.500000000  0.000000000
     0.000000000  0.000000000  0.038206530     0.000000000  0.000000000  0.500000000

  Length of vectors
     0.038206530  0.038206530  0.038206530

  Shift w.r.t. Gamma in fractional coordinates (k-lattice)
     0.500000000  0.500000000  0.500000000

 
 Subroutine IBZKPT returns following result:
 ===========================================
 
 Found      2 irreducible k-points:
 
 Following reciprocal coordinates:
            Coordinates               Weight
  0.250000  0.250000  0.250000      4.000000
 -0.250000 -0.250000 -0.250000      4.000000
 
 Following cartesian coordinates:
            Coordinates               Weight
  0.019103  0.019103  0.019103      4.000000
 -0.019103 -0.019103 -0.019103      4.000000
 
 
 Subroutine IBZKPT_HF returns following result:
 ==============================================
 
 Found      8 k-points in 1st BZ
 the following      8 k-points will be used (e.g. in the exchange kernel)
 Following reciprocal coordinates:   # in IRBZ
  0.250000  0.250000  0.250000    0.12500000   1 t-inv F
 -0.250000 -0.250000 -0.250000    0.12500000   2 t-inv F
  0.250000 -0.250000 -0.250000    0.12500000   1 t-inv F
 -0.250000 -0.250000  0.250000    0.12500000   1 t-inv F
 -0.250000  0.250000 -0.250000    0.12500000   1 t-inv F
 -0.250000  0.250000  0.250000    0.12500000   2 t-inv F
  0.250000  0.250000 -0.250000    0.12500000   2 t-inv F
  0.250000 -0.250000  0.250000    0.12500000   2 t-inv F


--------------------------------------------------------------------------------------------------------




 Dimension of arrays:
   k-points           NKPTS =      2   k-points in BZ     NKDIM =      8   number of bands    NBANDS=    640
   number of dos      NEDOS =    301   number of ions     NIONS =     65
   non local maximal  LDIM  =      6   non local SUM 2l+1 LMDIM =     18
   total plane-waves  NPLWV = 884736
   max r-space proj   IRMAX =      1   max aug-charges    IRDMAX=  23156
   dimension x,y,z NGX =    96 NGY =   96 NGZ =   96
   dimension x,y,z NGXF=   192 NGYF=  192 NGZF=  192
   support grid    NGXF=   192 NGYF=  192 NGZF=  192
   ions per type =              33  32
   NGX,Y,Z   is equivalent  to a cutoff of  12.20, 12.20, 12.20 a.u.
   NGXF,Y,Z  is equivalent  to a cutoff of  24.39, 24.39, 24.39 a.u.

 SYSTEM =  CdTe                                    
 POSCAR =  Cd33 Te32                               

 Startparameter for this run:
   NWRITE =      2    write-flag & timer
   PREC   = accura    normal or accurate (medium, high low for compatibility)
   ISTART =      0    job   : 0-new  1-cont  2-samecut
   ICHARG =      2    charge: 1-file 2-atom 10-const
   ISPIN  =      1    spin polarized calculation?
   LNONCOLLINEAR =      T non collinear calculations
   LSORBIT =      F    spin-orbit coupling
   INIWAV =      1    electr: 0-lowe 1-rand  2-diag
   LASPH  =      T    aspherical Exc in radial PAW
 Electronic Relaxation 1
   ENCUT  =  450.0 eV  33.07 Ry    5.75 a.u.  22.64 22.64 22.64*2*pi/ulx,y,z
   ENINI  =  450.0     initial cutoff
   ENAUG  =  456.1 eV  augmentation charge cutoff
   NELM   =      7;   NELMIN=  2; NELMDL=  5     # of ELM steps 
   EDIFF  = 0.1E-03   stopping-criterion for ELM
   LREAL  =      F    real-space projection
   NLSPLINE    = F    spline interpolate recip. space projectors
   LCOMPAT=      F    compatible to vasp.4.4
   GGA_COMPAT  = T    GGA compatible to vasp.4.4-vasp.4.6
   LMAXPAW     = -100 max onsite density
   LMAXMIX     =    2 max onsite mixed and CHGCAR
   VOSKOWN=      0    Vosko Wilk Nusair interpolation
   ROPT   =    0.00000   0.00000
 Ionic relaxation
   EDIFFG = 0.1E-02   stopping-criterion for IOM
   NSW    =      0    number of steps for IOM
   NBLOCK =      1;   KBLOCK =      1    inner block; outer block 
   IBRION =     -1    ionic relax: 0-MD 1-quasi-New 2-CG
   NFREE  =      0    steps in history (QN), initial steepest desc. (CG)
   ISIF   =      2    stress and relaxation
   IWAVPR =     10    prediction:  0-non 1-charg 2-wave 3-comb
   ISYM   =      3    0-nonsym 1-usesym 2-fastsym
   LCORR  =      T    Harris-Foulkes like correction to forces

   POTIM  = 0.5000    time-step for ionic-motion
   TEIN   =    0.0    initial temperature
   TEBEG  =    0.0;   TEEND  =   0.0 temperature during run
   SMASS  =  -3.00    Nose mass-parameter (am)
   estimated Nose-frequenzy (Omega)   =  0.10E-29 period in steps = 0.13E+47 mass=  -0.391E-26a.u.
   SCALEE = 1.0000    scale energy and forces
   NPACO  =    256;   APACO  = 10.0  distance and # of slots for P.C.
   PSTRESS=    0.0 pullay stress

  Mass of Ions in am
   POMASS = 112.41127.60
  Ionic Valenz
   ZVAL   =  12.00  6.00
  Atomic Wigner-Seitz radii
   RWIGS  =  -1.00 -1.00
  virtual crystal weights 
   VCA    =   1.00  1.00
   NELECT =     588.0000    total number of electrons
   NUPDOWN=      -1.0000    fix difference up-down

 DOS related values:
   EMIN   =  10.00;   EMAX   =-10.00  energy-range for DOS
   EFERMI =   0.00;   METHOD = LEGACY      
   ISMEAR =     0;   SIGMA  =   0.05  broadening in eV -4-tet -1-fermi 0-gaus
   EFERMI_NEDOS =   21; number of points for ismear=-14 and -15

 Electronic relaxation 2 (details)
   IALGO  =     58    algorithm
   LDIAG  =      T    sub-space diagonalisation (order eigenvalues)
   LSUBROT=      F    optimize rotation matrix (better conditioning)
   LROBUST=      F    robust break criterion during scf (extrapolated energy error)
   ISEARCH=      0    line search for conjugate gradient (0, 1=use gradient)
   TURBO    =      0    0=normal 1=particle mesh
   IRESTART =      0    0=no restart 2=restart with 2 vectors
   NREBOOT  =      0    no. of reboots
   NMIN     =      0    reboot dimension
   EREF     =   0.00    reference energy to select bands
   IMIX   =      4    mixing-type and parameters
     AMIX     =   0.40;   BMIX     =  1.00
     AMIX_MAG =   1.60;   BMIX_MAG =  1.00
     AMIN     =   0.10
     WC   =   100.;   INIMIX=   1;  MIXPRE=   1;  MAXMIX= -45

 Intra band minimization:
   WEIMIN = 0.0000     energy-eigenvalue tresh-hold
   EBREAK =  0.39E-07  absolut break condition
   DEPER  =   0.30     relativ break condition  

   TIME   =   0.40     timestep for ELM

  volume/ion in A,a.u.               =      34.48       232.69
  Fermi-wavevector in a.u.,A,eV,Ry     =   1.048017  1.980464 14.943809  1.098339
  Thomas-Fermi vector in A             =   2.182921

 Write flags
   LWAVE        =      F    write WAVECAR
   LDOWNSAMPLE  =      F    k-point downsampling of WAVECAR
   LCHARG       =      F    write CHGCAR
   LVTOT        =      F    write LOCPOT, total local potential
   LVHAR        =      F    write LOCPOT, Hartree potential only
   WRT_POTENTIAL= false  ! write potential to hdf5 file
   LELF         =      F    write electronic localiz. function (ELF)
   LORBIT       =      0    0 simple, 1 ext, 2 COOP (PROOUT), +10 PAW based schemes


 Python interface
   PLUGINS active      =      F    recompile with -DPLUGINS to activate

 Dipole corrections
   LMONO      =      F    monopole corrections only (constant potential shift)
   LDIPOL     =      F    correct potential (dipole corrections)
   IDIPOL     =      0    1-x, 2-y, 3-z, 4-all directions 
   EPSILON    =  1.0000000 bulk dielectric constant
   LVACPOTAV  =      F  vacuum potentials using an averaging scheme for the charge density
   VACPOTFLAT =  0.1000000 required flatness to determine vacuum potential

Coulomb truncation method
  LTRUNCATE          =      F  Coulomb kernel truncation to be used


 Exchange correlation treatment:
   GGA     = PE    functional components
   XC_C    = 1    coefficients multiplying the functional components
   LIBXC   =     F    Libxc                    
   VOSKOWN =     0    Vosko Wilk Nusair interpolation
   EXXOEP  =     0    0=HF, 1=EXX-LHF (local Hartree Fock) 2=EXX OEP
   LHFCALC =     T    Hartree Fock is set to
   LSYMGRAD=     F    symmetrize gradient (conserves proper symmetry)
   PRECFOCK=fast      Normal, Fast or Accurate (Low or Medium for compatibility)
   LRHFCALC=     F    long range Hartree Fock
   LRSCOR  =     F    long range correlation only (use DFT for short range part)
   LTHOMAS =     F    Thomas Fermi screening in HF
   LMODELHF=     F    short range full HF, long range fraction AEXX
   FOCKCORR=     1    mode to apply convergence corrections
   LFOCKACE=     T    use Adeptively-Compressed-Exchange operator
   ENCUT4O =  -1.0   cutoff for four orbital integrals eV
   LMAXFOCK=     4    L truncation for augmentation on plane wave grid
   LMAXFOCKAE=  -1    L truncation for all-electron charge restoration on plane wave grid
   NMAXFOCKAE=   1    number of basis functions for all-electron charge restoration
   LFOCKAEDFT=     F  apply the AE augmentation even for DFT
   NKREDX  =     1    reduce k-point grid by
   NKREDY  =     1    reduce k-point grid by
   NKREDZ  =     1    reduce k-point grid by
   SHIFTRED=     F    shift reduced grid of Gamma
   HFKIDENT=     F    idential grid for each k-point
   ODDONLY =     F    use only odd q-grid points
   EVENONLY=     F    use only even q-grid points
   HFALPHA =   -1.0000 decay constant for conv. correction
   MCALPHA =    0.0000 extent of test-charge in conv. correction in multipole expansion
   AEXX    =    0.2500 exact exchange contribution
   HFSCREEN=    0.2000 screening length (either q_TF or 0.3 A-1)
   HFSCREENC=   0.2000 screening length for correlation (either q_TF or 0.3 A-1)
   HFRCUT  =    0.0000 spherical cutoff for potential kernel
   ALDAX   =    0.7500 LDA exchange part
   AGGAX   =    0.7500 GGA exchange part
   AMGGAX  =    0.7500 meta-GGA exchange part
   ALDAC   =    1.0000 LDA correlation
   AGGAC   =    1.0000 GGA correlation
   AMGGAC  =    1.0000 meta-GGA correlation
   ENCUTFOCK=  -1.0 apply spherical cutoff to Coloumb kernel
   NBANDSGWLOW=     1    first orbital included in HF term
   NBLOCK_FOCK=     8    blocking factor in FOCK_ACC

 Parameters of functionals:
   PE:
     No parameter

 Van der Waals corrections
   IVDW    =     0    specifies the selected vdW correction

 Linear response parameters
   LEPSILON=     F    determine dielectric tensor
   LRPA    =     F    only Hartree local field effects (RPA)
   LNABLA  =     F    use nabla operator in PAW spheres
   LVEL    =     F    velocity operator in full k-point grid
   CSHIFT  =0.1000    complex shift for real part using Kramers Kronig
   OMEGAMAX=  -1.0    maximum frequency
   DEG_THRESHOLD= 0.2000000E-02 threshold for treating states as degnerate
   RTIME   =   -0.100 relaxation time in fs
  (WPLASMAI=    0.000 imaginary part of plasma frequency in eV, 0.658/RTIME)
   DFIELD  = 0.0000000 0.0000000 0.0000000 field for delta impulse in time

  Optional k-point grid parameters
   LKPOINTS_OPT  =     F    use optional k-point grid
   KPOINTS_OPT_MODE=     1    mode for optional k-point grid

 Orbital magnetization related:
   ORBITALMAG=     F  switch on orbital magnetization
   LCHIMAG   =     F  perturbation theory with respect to B field
   DQ        =  0.001000  dq finite difference perturbation B field
   LLRAUG    =     F  two centre corrections for induced B field
   LBONE     =     F  B-component reconstruction in AE one-centre
   LVGVCALC  =     T  calculate vGv susceptibility
   LVGVAPPL  =     F  apply vGv susceptibility instead of pGv for G=0

 Random number generation:
   RANDOM_GENERATOR = DEFAULT
   PCG_SEED         = not used


--------------------------------------------------------------------------------------------------------


 Static calculation
 charge density and potential will be updated during run
 non collinear spin polarized calculation
 Conjugate gradient for all bands (Freysoldt, et al. PRB 79, 241103 (2009))
 preconditioned conjugated gradient                                        
 perform sub-space diagonalisation
    before iterative eigenvector-optimisation
 modified Broyden-mixing scheme, WC =      100.0
 initial mixing is a Kerker type mixing with AMIX =  0.4000 and BMIX =      1.0000
 Hartree-type preconditioning will be used
 using additional bands          346
 reciprocal scheme for non local part
 use partial core corrections
 no Harris-corrections to forces 
 use gradient corrections 
 use of overlap-Matrix (Vanderbilt PP)
 Gauss-broadening in eV      SIGMA  =   0.05


--------------------------------------------------------------------------------------------------------


  energy-cutoff  :      450.00
  volume of cell :     2241.29
      direct lattice vectors                 reciprocal lattice vectors
    13.086768000  0.000000000  0.000000000     0.076413061  0.000000000  0.000000000
     0.000000000 13.086768000  0.000000000     0.000000000  0.076413061  0.000000000
     0.000000000  0.000000000 13.086768000     0.000000000  0.000000000  0.076413061

  length of vectors
    13.086768000 13.086768000 13.086768000     0.076413061  0.076413061  0.076413061



 k-points in units of 2pi/SCALE and weight: 2x2x2 Gamma                             
   0.01910327  0.01910327  0.01910327       0.500
  -0.01910327 -0.01910327 -0.01910327       0.500

 k-points in reciprocal lattice and weights: 2x2x2 Gamma                             
   0.25000000  0.25000000  0.25000000       0.500
  -0.25000000 -0.25000000 -0.25000000       0.500

 position of ions in fractional coordinates (direct lattice) 
   0.00448500  0.99551500  0.00448500
   0.00124700  0.99875300  0.49695900
   0.00124700  0.50304100  0.00124700
   0.99962500  0.50121800  0.49878200
   0.49695900  0.99875300  0.00124700
   0.49878100  0.00037500  0.49878100
   0.49878100  0.50121900  0.99962500
   0.50052800  0.49947200  0.50052800
   0.00124700  0.25124700  0.25304000
   0.00448600  0.25448500  0.74551500
   0.99962500  0.74878200  0.25121800
   0.00124700  0.74695900  0.74875300
   0.49878200  0.24962500  0.25121900
   0.49696000  0.25124700  0.74875300
   0.50052800  0.75052800  0.24947200
   0.49878100  0.74878100  0.75037500
   0.25121900  0.00037500  0.25121900
   0.25304000  0.99875300  0.74875300
   0.24947200  0.49947200  0.24947200
   0.25121900  0.50121900  0.75037500
   0.74875300  0.99875300  0.25304000
   0.74551400  0.99551500  0.74551500
   0.75037500  0.50121900  0.25121900
   0.74875300  0.50304000  0.74875300
   0.25304000  0.25124700  0.00124700
   0.25121900  0.24962500  0.49878100
   0.25121900  0.74878100  0.99962500
   0.24947200  0.75052800  0.50052800
   0.74551400  0.25448500  0.00448500
   0.74875300  0.25124700  0.49696000
   0.74875300  0.74695900  0.00124700
   0.75037500  0.74878200  0.49878200
   0.87500000  0.12500000  0.87500000
   0.12665600  0.12500000  0.37500000
   0.13277900  0.12500000  0.87500000
   0.12589200  0.62500000  0.37500000
   0.12665600  0.62500000  0.87500000
   0.62334400  0.12500000  0.37500000
   0.61722100  0.12500000  0.87500000
   0.62410800  0.62500000  0.37500000
   0.62334400  0.62500000  0.87500000
   0.12484800  0.37484800  0.12484800
   0.12748800  0.37748800  0.62251200
   0.12748800  0.87251200  0.12748800
   0.12484800  0.87515200  0.62515200
   0.62251200  0.37748800  0.12748800
   0.62515200  0.37484800  0.62515200
   0.62515200  0.87515200  0.12484800
   0.62251200  0.87251200  0.62251200
   0.37500000  0.12500000  0.12665600
   0.37500000  0.12500000  0.62334400
   0.37500000  0.62500000  0.12589200
   0.37500000  0.62500000  0.62410800
   0.87500000  0.12500000  0.13277900
   0.87500000  0.12500000  0.61722100
   0.87500000  0.62500000  0.12665600
   0.87500000  0.62500000  0.62334400
   0.37500000  0.37589200  0.37500000
   0.37500000  0.37665600  0.87500000
   0.37500000  0.87410800  0.37500000
   0.37500000  0.87334400  0.87500000
   0.87500000  0.37665600  0.37500000
   0.87500000  0.38277900  0.87500000
   0.87500000  0.87334400  0.37500000
   0.87500000  0.86722100  0.87500000

 position of ions in cartesian coordinates  (Angst):
   0.05869415 13.02807385  0.05869415
   0.01631920 13.07044880  6.50358714
   0.01631920  6.58318086  0.01631920
  13.08186046  6.55932368  6.52744432
   6.50358714 13.07044880  0.01631920
   6.52743123  0.00490754  6.52743123
   6.52743123  6.55933677 13.08186046
   6.55029381  6.53647419  6.55029381
   0.01631920  3.28801120  3.31147577
   0.05870724  3.33038615  9.75638185
  13.08186046  9.79913632  3.28763168
   0.01631920  9.77527914  9.79875680
   6.52744432  3.26678446  3.28764477
   6.50360023  3.28801120  9.79875680
   6.55029381  9.82198581  3.26478219
   6.52743123  9.79912323  9.81998354
   3.28764477  0.00490754  3.28764477
   3.31147577 13.07044880  9.79875680
   3.26478219  6.53647419  3.26478219
   3.28764477  6.55933677  9.81998354
   9.79875680 13.07044880  3.31147577
   9.75636876 13.02807385  9.75638185
   9.81998354  6.55933677  3.28764477
   9.79875680  6.58316777  9.79875680
   3.31147577  3.28801120  0.01631920
   3.28764477  3.26678446  6.52743123
   3.28764477  9.79912323 13.08186046
   3.26478219  9.82198581  6.55029381
   9.75636876  3.33038615  0.05869415
   9.79875680  3.28801120  6.50360023
   9.79875680  9.77527914  0.01631920
   9.81998354  9.79913632  6.52744432
  11.45092200  1.63584600 11.45092200
   1.65751769  1.63584600  4.90753800
   1.73764797  1.63584600 11.45092200
   1.64751940  8.17923000  4.90753800
   1.65751769  8.17923000 11.45092200
   8.15755831  1.63584600  4.90753800
   8.07742803  1.63584600 11.45092200
   8.16755660  8.17923000  4.90753800
   8.15755831  8.17923000 11.45092200
   1.63385681  4.90554881  1.63385681
   1.66840588  4.94009788  8.14667012
   1.66840588 11.41836212  1.66840588
   1.63385681 11.45291119  8.18121919
   8.14667012  4.94009788  1.66840588
   8.18121919  4.90554881  8.18121919
   8.18121919 11.45291119  1.63385681
   8.14667012 11.41836212  8.14667012
   4.90753800  1.63584600  1.65751769
   4.90753800  1.63584600  8.15755831
   4.90753800  8.17923000  1.64751940
   4.90753800  8.17923000  8.16755660
  11.45092200  1.63584600  1.73764797
  11.45092200  1.63584600  8.07742803
  11.45092200  8.17923000  1.65751769
  11.45092200  8.17923000  8.15755831
   4.90753800  4.91921140  4.90753800
   4.90753800  4.92920969 11.45092200
   4.90753800 11.43924860  4.90753800
   4.90753800 11.42925031 11.45092200
  11.45092200  4.92920969  4.90753800
  11.45092200  5.00933997 11.45092200
  11.45092200 11.42925031  4.90753800
  11.45092200 11.34912003 11.45092200

 Euler angles ALPHA=     0.0000000  BETA=     0.0000000

 transformation matrix from SAXIS to cartesian coordinates
 ---------------------------------------------------------
     1.0000000 m_x    -0.0000000 m_y     0.0000000 m_z
     0.0000000 m_x     1.0000000 m_y     0.0000000 m_z
    -0.0000000 m_x     0.0000000 m_y     1.0000000 m_z

 transformation matrix from cartesian coordinates to SAXIS
 ---------------------------------------------------------
     1.0000000 m_x     0.0000000 m_y    -0.0000000 m_z
    -0.0000000 m_x     1.0000000 m_y     0.0000000 m_z
     0.0000000 m_x     0.0000000 m_y     1.0000000 m_z




--------------------------------------------------------------------------------------------------------


 k-point     1 :   0.2500 0.2500 0.2500  plane waves:   97156
 k-point     2 :  -0.2500-0.2500-0.2500  plane waves:   97156

 maximum and minimum number of plane-waves per node :     12194    12088

 maximum number of plane-waves:     97156
 maximum index in each direction: 
   IXMAX=   22   IYMAX=   22   IZMAX=   22
   IXMIN=  -22   IYMIN=  -22   IZMIN=  -22


 parallel 3D FFT for wavefunctions:
    minimum data exchange during FFTs selected (reduces bandwidth)
 parallel 3D FFT for charge:
    minimum data exchange during FFTs selected (reduces bandwidth)


 FFT grid for exact exchange (Hartree Fock) 
  NGX = 48; NGY = 48; NGZ = 48


 Radii for the augmentation spheres in the non-local exchange
 for species   1 augmentation radius   1.444 (default was   1.070)
       energy cutoff for augmentation   1800.0
 for species   2 augmentation radius   1.606 (default was   1.190)
       energy cutoff for augmentation   1800.0

 real space projection operators:
  total allocation   :       9375.20 KBytes
  max/ min on nodes  :       1191.99       1140.62

 Maximum index for augmentation-charges in exchange          106
  SETUP_FOCK is finished

 total amount of memory used by VASP MPI-rank0   191735. kBytes
=======================================================================

   base                                    :      30000. kBytes
   nonl-proj                               :       9876. kBytes
   fftplans                                :      11995. kBytes
   grid                                    :      40697. kBytes
   one-center                              :        559. kBytes
   HF                                      :        129. kBytes
   nonlr-proj                              :       2389. kBytes
   wavefun                                 :      96090. kBytes

     INWAV:  cpu time      0.0001: real time      0.0001
 Broyden mixing: mesh for mixing (old mesh)
   NGX = 45   NGY = 45   NGZ = 45
  (NGX  =192   NGY  =192   NGZ  =192)
  gives a total of  91125 points

 initial charge density was supplied:
 charge density of overlapping atoms calculated
 number of electron     588.0000000 magnetization       0.0000000      0.0000000      0.0000000
 keeping initial charge density in first step


--------------------------------------------------------------------------------------------------------


 Maximum index for augmentation-charges          775 (set IRDMAX)


--------------------------------------------------------------------------------------------------------


 First call to EWALD:  gamma=   0.135
 Maximum number of real-space cells   3x   3x   3
 Maximum number of reciprocal cells   3x   3x   3

    FEWALD:  cpu time      0.0144: real time      0.0144


--------------------------------------- Ionic step        1  -------------------------------------------




--------------------------------------- Iteration      1(   1)  ---------------------------------------


    POTLOK:  cpu time      0.5758: real time      0.5777
    SETDIJ:  cpu time      0.1951: real time      0.1964
    TRIAL :  cpu time     15.1838: real time     15.5326
    CORREC:  cpu time      0.0031: real time      0.0031
    --------------------------------------------
      LOOP:  cpu time     16.0325: real time     16.3846

 eigenvalue-minimisations  :  2616
 total energy-change (2. order) :-0.6544694E+05  (-0.2595923E+05)
 number of electron     588.0000000 magnetization       0.0000000      0.0000000      0.0000000
 augmentation part      588.0000000 magnetization       0.0000000      0.0000000      0.0000000

 Free energy of the ion-electron system (eV)
  ---------------------------------------------------
  alpha Z        PSCENC =      1642.45118531
  Ewald energy   TEWEN  =    -33940.17512409
  -Hartree energ DENC   =    -17077.89199324
  -exchange      EXHF   =         0.00000000
  -V(xc)+E(xc)   XCENC  =      -720.79451392
  PAW double counting   =     46138.45347506  -111612.37425480
  entropy T*S    EENTRO =        -0.01964980
  eigenvalues    EBANDS =       373.98497313
  atomic energy  EATOM  =     49749.42546354
  ---------------------------------------------------
  free energy    TOTEN  =    -65446.94043881 eV

  energy without entropy =   -65446.92078901  energy(sigma->0) =   -65446.93061391
  exchange ACFDT corr.  =         0.00000000  see jH, gK, PRB 81, 115126


--------------------------------------------------------------------------------------------------------




--------------------------------------- Iteration      1(   2)  ---------------------------------------


    TRIAL :  cpu time     15.9851: real time     15.9960
    CORREC:  cpu time      0.0008: real time      0.0008
    --------------------------------------------
      LOOP:  cpu time     16.0099: real time     16.0259

 eigenvalue-minimisations  :  2816
 total energy-change (2. order) :-0.3743525E+04  (-0.3684828E+04)
 number of electron     588.0000000 magnetization       0.0000000      0.0000000      0.0000000
 augmentation part      588.0000000 magnetization       0.0000000      0.0000000      0.0000000

 Free energy of the ion-electron system (eV)
  ---------------------------------------------------
  alpha Z        PSCENC =      1642.45118531
  Ewald energy   TEWEN  =    -33940.17512409
  -Hartree energ DENC   =    -17077.89199324
  -exchange      EXHF   =         0.00000000
  -V(xc)+E(xc)   XCENC  =      -720.79451392
  PAW double counting   =     46138.45347506  -111612.37425480
  entropy T*S    EENTRO =        -0.00000000
  eigenvalues    EBANDS =     -3369.55992176
  atomic energy  EATOM  =     49749.42546354
  ---------------------------------------------------
  free energy    TOTEN  =    -69190.46568390 eV

  energy without entropy =   -69190.46568390  energy(sigma->0) =   -69190.46568390
  exchange ACFDT corr.  =         0.00000000  see jH, gK, PRB 81, 115126


--------------------------------------------------------------------------------------------------------




--------------------------------------- Iteration      1(   3)  ---------------------------------------


    TRIAL :  cpu time     15.8702: real time     15.9076
    CORREC:  cpu time      0.0007: real time      0.0007
    --------------------------------------------
      LOOP:  cpu time     15.8960: real time     15.9388

 eigenvalue-minimisations  :  2800
 total energy-change (2. order) :-0.2781121E+03  (-0.2765939E+03)
 number of electron     588.0000000 magnetization       0.0000000      0.0000000      0.0000000
 augmentation part      588.0000000 magnetization       0.0000000      0.0000000      0.0000000

 Free energy of the ion-electron system (eV)
  ---------------------------------------------------
  alpha Z        PSCENC =      1642.45118531
  Ewald energy   TEWEN  =    -33940.17512409
  -Hartree energ DENC   =    -17077.89199324
  -exchange      EXHF   =         0.00000000
  -V(xc)+E(xc)   XCENC  =      -720.79451392
  PAW double counting   =     46138.45347506  -111612.37425480
  entropy T*S    EENTRO =        -0.00000000
  eigenvalues    EBANDS =     -3647.67202719
  atomic energy  EATOM  =     49749.42546354
  ---------------------------------------------------
  free energy    TOTEN  =    -69468.57778933 eV

  energy without entropy =   -69468.57778933  energy(sigma->0) =   -69468.57778933
  exchange ACFDT corr.  =         0.00000000  see jH, gK, PRB 81, 115126


--------------------------------------------------------------------------------------------------------




--------------------------------------- Iteration      1(   4)  ---------------------------------------


    TRIAL :  cpu time     16.9076: real time     16.9186
    CORREC:  cpu time      0.0007: real time      0.0007
    --------------------------------------------
      LOOP:  cpu time     16.9293: real time     16.9477

 eigenvalue-minimisations  :  3024
 total energy-change (2. order) :-0.1077405E+02  (-0.1073611E+02)
 number of electron     588.0000000 magnetization       0.0000000      0.0000000      0.0000000
 augmentation part      588.0000000 magnetization       0.0000000      0.0000000      0.0000000

 Free energy of the ion-electron system (eV)
  ---------------------------------------------------
  alpha Z        PSCENC =      1642.45118531
  Ewald energy   TEWEN  =    -33940.17512409
  -Hartree energ DENC   =    -17077.89199324
  -exchange      EXHF   =         0.00000000
  -V(xc)+E(xc)   XCENC  =      -720.79451392
  PAW double counting   =     46138.45347506  -111612.37425480
  entropy T*S    EENTRO =        -0.00000000
  eigenvalues    EBANDS =     -3658.44608175
  atomic energy  EATOM  =     49749.42546354
  ---------------------------------------------------
  free energy    TOTEN  =    -69479.35184389 eV

  energy without entropy =   -69479.35184389  energy(sigma->0) =   -69479.35184389
  exchange ACFDT corr.  =         0.00000000  see jH, gK, PRB 81, 115126


--------------------------------------------------------------------------------------------------------




--------------------------------------- Iteration      1(   5)  ---------------------------------------


    POTLOK:  cpu time      0.7889: real time      0.7900
    SETDIJ:  cpu time      0.5450: real time      0.5453
    TRIAL :  cpu time    829.0398: real time    829.5706
    CORREC:  cpu time      0.0007: real time      0.0007
    CHARGE:  cpu time      4.7643: real time      4.7680
    --------------------------------------------
      LOOP:  cpu time    835.1655: real time    835.7049

 eigenvalue-minimisations  :  2560
 total energy-change (2. order) : 0.6928378E+05  (-0.3835238E+02)
 number of electron     587.9999926 magnetization       0.0000000      0.0000814      0.0000003
 augmentation part      152.1580934 magnetization       0.0000000      0.0000248      0.0003101

 Free energy of the ion-electron system (eV)
  ---------------------------------------------------
  alpha Z        PSCENC =      1642.45118531
  Ewald energy   TEWEN  =    -33940.17512409
  -Hartree energ DENC   =    -17077.89199324
  -exchange      EXHF   =      1181.72754909
  -V(xc)+E(xc)   XCENC  =      -628.54414241
  PAW double counting   =     46030.61060259   -44005.62093904
  entropy T*S    EENTRO =        -0.00000000
  eigenvalues    EBANDS =     -3147.55773143
  atomic energy  EATOM  =     49749.42546354
  ---------------------------------------------------
  free energy    TOTEN  =      -195.57512968 eV

  energy without entropy =     -195.57512968  energy(sigma->0) =     -195.57512968
  exchange ACFDT corr.  =        -0.00000000  see jH, gK, PRB 81, 115126


--------------------------------------------------------------------------------------------------------




--------------------------------------- Iteration      1(   6)  ---------------------------------------


    POTLOK:  cpu time      0.8095: real time      0.8098
    SETDIJ:  cpu time      0.5597: real time      0.5597
    TRIAL :  cpu time    822.5404: real time    823.0381
    CORREC:  cpu time    817.9413: real time    818.4333
    CHARGE:  cpu time      4.6731: real time      4.6759
    --------------------------------------------
      LOOP:  cpu time   1646.5494: real time   1647.5479

 eigenvalue-minimisations  :     0
 total energy-change (2. order) : 0.1499919E+02  (-0.1044186E+02)
 number of electron     587.9999925 magnetization       0.0000000      0.0000512     -0.0000011
 augmentation part      155.0480025 magnetization       0.0000000      0.0004866      0.0004264

 Free energy of the ion-electron system (eV)
  ---------------------------------------------------
  alpha Z        PSCENC =      1642.45118531
  Ewald energy   TEWEN  =    -33940.17512409
  -Hartree energ DENC   =    -16904.64003657
  -exchange      EXHF   =      1149.71725788
  -V(xc)+E(xc)   XCENC  =      -624.21427564
  PAW double counting   =    110039.44769712  -107960.13378064
  entropy T*S    EENTRO =        -0.00000000
  eigenvalues    EBANDS =     -3332.45432926
  atomic energy  EATOM  =     49749.42546354
  ---------------------------------------------------
  free energy    TOTEN  =      -180.57594235 eV

  energy without entropy =     -180.57594235  energy(sigma->0) =     -180.57594235
  exchange ACFDT corr.  =        -0.00000000  see jH, gK, PRB 81, 115126


--------------------------------------------------------------------------------------------------------




--------------------------------------- Iteration      1(   7)  ---------------------------------------


    POTLOK:  cpu time      0.8103: real time      0.8104
    SETDIJ:  cpu time      0.5537: real time      0.5543
    TRIAL :  cpu time    826.0103: real time    826.5034
    CORREC:  cpu time    820.5103: real time    822.1192
    EDDIAG:  cpu time    814.3341: real time    814.8193
    CHARGE:  cpu time      4.7525: real time      4.8528
    --------------------------------------------
      LOOP:  cpu time   2466.9968: real time   2469.6936

 eigenvalue-minimisations  :     0
 total energy-change (2. order) :-0.1043100E+02  (-0.1125349E+01)
 number of electron     587.9999926 magnetization       0.0000000      0.0000248      0.0000006
 augmentation part      154.0168781 magnetization       0.0000000     -0.0000007      0.0002317

 Free energy of the ion-electron system (eV)
  ---------------------------------------------------
  alpha Z        PSCENC =      1642.45118531
  Ewald energy   TEWEN  =    -33940.17512409
  -Hartree energ DENC   =    -17017.89817250
  -exchange      EXHF   =      1138.81533724
  -V(xc)+E(xc)   XCENC  =      -623.11831101
  PAW double counting   =    101886.95258030   -99822.55377336
  entropy T*S    EENTRO =        -0.00000000
  eigenvalues    EBANDS =     -3209.20504289
  atomic energy  EATOM  =     49749.42546354
  ---------------------------------------------------
  free energy    TOTEN  =      -191.00694300 eV

  energy without entropy =     -191.00694300  energy(sigma->0) =     -191.00694300
  exchange ACFDT corr.  =        -0.00000000  see jH, gK, PRB 81, 115126


--------------------------------------------------------------------------------------------------------


  average scaling for gradient   1.0313


 average (electrostatic) potential at core
  the test charge radii are     1.0698  1.1897
  (the norm of the test charge is              1.0000)
       1 -33.1466       2 -32.8837       3 -32.8854       4 -32.9472       5 -32.8836
       6 -32.9462       7 -32.9447       8 -32.9137       9 -32.8862      10 -33.1466
      11 -32.9447      12 -32.8845      13 -32.9452      14 -32.8844      15 -32.9152
      16 -32.9467      17 -32.9464      18 -32.8819      19 -32.9141      20 -32.9461
      21 -32.8825      22 -33.1466      23 -32.9497      24 -32.8847      25 -32.8853
      26 -32.9453      27 -32.9457      28 -32.9154      29 -33.1466      30 -32.8853
      31 -32.8832      32 -32.9468      33 -32.2090      34 -87.5610      35 -87.5574
      36 -87.5624      37 -87.5611      38 -87.5603      39 -87.5548      40 -87.5626
      41 -87.5603      42 -87.5761      43 -87.6347      44 -87.6352      45 -87.5745
      46 -87.6338      47 -87.5744      48 -87.5740      49 -87.6327      50 -87.5604
      51 -87.5606      52 -87.5613      53 -87.5613      54 -87.5572      55 -87.5557
      56 -87.5622      57 -87.5613      58 -87.5611      59 -87.5609      60 -87.5615
      61 -87.5601      62 -87.5618      63 -87.5564      64 -87.5615      65 -87.5564



 E-fermi :   3.1647     XC(G=0):  -7.1124     alpha+bet : -7.2837

 val. band max:        2.9010543574   @ k =  -0.2500  -0.2500  -0.2500
 cond. band min:       3.9963503103   @ k =   0.2500   0.2500   0.2500
 fundamental gap:      1.0952959529
 Fermi energy:         3.1647136687

 k-point     1 :       0.2500    0.2500    0.2500
  band No.  band energies     occupation 
      1     -10.3091      1.00000
      2     -10.3091      1.00000
      3     -10.1938      1.00000
      4     -10.1937      1.00000
      5     -10.1937      1.00000
      6     -10.1936      1.00000
      7     -10.1849      1.00000
      8     -10.1849      1.00000
      9     -10.1097      1.00000
     10     -10.1097      1.00000
     11     -10.1096      1.00000
     12     -10.1095      1.00000
     13     -10.0970      1.00000
     14     -10.0969      1.00000
     15     -10.0651      1.00000
     16     -10.0650      1.00000
     17     -10.0438      1.00000
     18     -10.0438      1.00000
     19     -10.0437      1.00000
     20     -10.0436      1.00000
     21     -10.0244      1.00000
     22     -10.0244      1.00000
     23     -10.0156      1.00000
     24     -10.0155      1.00000
     25     -10.0038      1.00000
     26     -10.0038      1.00000
     27     -10.0036      1.00000
     28     -10.0035      1.00000
     29     -10.0030      1.00000
     30     -10.0029      1.00000
     31      -9.9930      1.00000
     32      -9.9930      1.00000
     33      -9.9925      1.00000
     34      -9.9924      1.00000
     35      -9.9885      1.00000
     36      -9.9884      1.00000
     37      -9.9742      1.00000
     38      -9.9741      1.00000
     39      -9.9739      1.00000
     40      -9.9739      1.00000
     41      -9.9552      1.00000
     42      -9.9552      1.00000
     43      -9.9550      1.00000
     44      -9.9549      1.00000
     45      -9.9430      1.00000
     46      -9.9429      1.00000
     47      -9.9347      1.00000
     48      -9.9347      1.00000
     49      -9.9253      1.00000
     50      -9.9252      1.00000
     51      -9.9246      1.00000
     52      -9.9246      1.00000
     53      -9.9208      1.00000
     54      -9.9208      1.00000
     55      -9.9205      1.00000
     56      -9.9204      1.00000
     57      -9.9204      1.00000
     58      -9.9203      1.00000
     59      -9.9095      1.00000
     60      -9.9094      1.00000
     61      -9.9059      1.00000
     62      -9.9058      1.00000
     63      -9.9057      1.00000
     64      -9.9056      1.00000
     65      -8.1918      1.00000
     66      -8.1917      1.00000
     67      -8.1917      1.00000
     68      -8.1917      1.00000
     69      -8.1902      1.00000
     70      -8.1902      1.00000
     71      -8.1249      1.00000
     72      -8.1249      1.00000
     73      -8.0698      1.00000
     74      -8.0698      1.00000
     75      -8.0698      1.00000
     76      -8.0697      1.00000
     77      -8.0550      1.00000
     78      -8.0550      1.00000
     79      -8.0550      1.00000
     80      -8.0550      1.00000
     81      -8.0546      1.00000
     82      -8.0546      1.00000
     83      -8.0376      1.00000
     84      -8.0376      1.00000
     85      -8.0376      1.00000
     86      -8.0375      1.00000
     87      -8.0363      1.00000
     88      -8.0362      1.00000
     89      -7.9809      1.00000
     90      -7.9808      1.00000
     91      -7.9807      1.00000
     92      -7.9807      1.00000
     93      -7.9769      1.00000
     94      -7.9768      1.00000
     95      -7.9733      1.00000
     96      -7.9733      1.00000
     97      -7.9731      1.00000
     98      -7.9731      1.00000
     99      -7.9710      1.00000
    100      -7.9710      1.00000
    101      -7.9626      1.00000
    102      -7.9626      1.00000
    103      -7.9624      1.00000
    104      -7.9624      1.00000
    105      -7.9542      1.00000
    106      -7.9542      1.00000
    107      -7.9538      1.00000
    108      -7.9538      1.00000
    109      -7.9495      1.00000
    110      -7.9495      1.00000
    111      -7.9468      1.00000
    112      -7.9468      1.00000
    113      -7.9466      1.00000
    114      -7.9466      1.00000
    115      -7.9460      1.00000
    116      -7.9459      1.00000
    117      -7.9411      1.00000
    118      -7.9411      1.00000
    119      -7.9409      1.00000
    120      -7.9409      1.00000
    121      -7.9368      1.00000
    122      -7.9368      1.00000
    123      -7.9332      1.00000
    124      -7.9332      1.00000
    125      -7.9329      1.00000
    126      -7.9329      1.00000
    127      -7.9320      1.00000
    128      -7.9319      1.00000
    129      -7.9300      1.00000
    130      -7.9300      1.00000
    131      -7.9298      1.00000
    132      -7.9298      1.00000
    133      -7.9249      1.00000
    134      -7.9249      1.00000
    135      -7.9247      1.00000
    136      -7.9246      1.00000
    137      -7.9245      1.00000
    138      -7.9244      1.00000
    139      -7.9185      1.00000
    140      -7.9185      1.00000
    141      -7.9174      1.00000
    142      -7.9174      1.00000
    143      -7.9174      1.00000
    144      -7.9173      1.00000
    145      -7.9165      1.00000
    146      -7.9165      1.00000
    147      -7.9137      1.00000
    148      -7.9137      1.00000
    149      -7.9135      1.00000
    150      -7.9134      1.00000
    151      -7.9057      1.00000
    152      -7.9057      1.00000
    153      -7.9054      1.00000
    154      -7.9054      1.00000
    155      -7.9035      1.00000
    156      -7.9035      1.00000
    157      -7.8986      1.00000
    158      -7.8986      1.00000
    159      -7.8982      1.00000
    160      -7.8982      1.00000
    161      -7.8966      1.00000
    162      -7.8966      1.00000
    163      -7.8904      1.00000
    164      -7.8904      1.00000
    165      -7.8904      1.00000
    166      -7.8904      1.00000
    167      -7.8890      1.00000
    168      -7.8890      1.00000
    169      -7.8884      1.00000
    170      -7.8883      1.00000
    171      -7.8840      1.00000
    172      -7.8840      1.00000
    173      -7.8837      1.00000
    174      -7.8837      1.00000
    175      -7.8832      1.00000
    176      -7.8831      1.00000
    177      -7.8797      1.00000
    178      -7.8797      1.00000
    179      -7.8794      1.00000
    180      -7.8794      1.00000
    181      -7.8705      1.00000
    182      -7.8705      1.00000
    183      -7.8702      1.00000
    184      -7.8702      1.00000
    185      -7.8682      1.00000
    186      -7.8682      1.00000
    187      -7.8660      1.00000
    188      -7.8660      1.00000
    189      -7.8659      1.00000
    190      -7.8659      1.00000
    191      -7.8659      1.00000
    192      -7.8658      1.00000
    193      -7.8629      1.00000
    194      -7.8629      1.00000
    195      -7.8626      1.00000
    196      -7.8626      1.00000
    197      -7.8603      1.00000
    198      -7.8603      1.00000
    199      -7.8601      1.00000
    200      -7.8601      1.00000
    201      -7.8599      1.00000
    202      -7.8599      1.00000
    203      -7.8580      1.00000
    204      -7.8580      1.00000
    205      -7.8532      1.00000
    206      -7.8532      1.00000
    207      -7.8530      1.00000
    208      -7.8530      1.00000
    209      -7.8498      1.00000
    210      -7.8498      1.00000
    211      -7.8173      1.00000
    212      -7.8173      1.00000
    213      -7.8164      1.00000
    214      -7.8164      1.00000
    215      -7.8160      1.00000
    216      -7.8160      1.00000
    217      -7.8079      1.00000
    218      -7.8079      1.00000
    219      -7.8034      1.00000
    220      -7.8034      1.00000
    221      -7.8032      1.00000
    222      -7.8032      1.00000
    223      -7.8023      1.00000
    224      -7.8023      1.00000
    225      -7.7944      1.00000
    226      -7.7944      1.00000
    227      -7.7942      1.00000
    228      -7.7942      1.00000
    229      -7.7881      1.00000
    230      -7.7880      1.00000
    231      -7.7875      1.00000
    232      -7.7874      1.00000
    233      -7.7871      1.00000
    234      -7.7871      1.00000
    235      -7.7814      1.00000
    236      -7.7813      1.00000
    237      -7.7790      1.00000
    238      -7.7789      1.00000
    239      -7.7786      1.00000
    240      -7.7786      1.00000
    241      -7.7733      1.00000
    242      -7.7732      1.00000
    243      -7.7706      1.00000
    244      -7.7705      1.00000
    245      -7.7701      1.00000
    246      -7.7700      1.00000
    247      -7.7668      1.00000
    248      -7.7668      1.00000
    249      -7.7665      1.00000
    250      -7.7664      1.00000
    251      -7.7635      1.00000
    252      -7.7635      1.00000
    253      -7.7632      1.00000
    254      -7.7632      1.00000
    255      -7.7614      1.00000
    256      -7.7614      1.00000
    257      -7.7597      1.00000
    258      -7.7596      1.00000
    259      -7.7591      1.00000
    260      -7.7591      1.00000
    261      -7.7586      1.00000
    262      -7.7586      1.00000
    263      -7.7572      1.00000
    264      -7.7572      1.00000
    265      -7.7545      1.00000
    266      -7.7544      1.00000
    267      -7.7543      1.00000
    268      -7.7543      1.00000
    269      -7.7525      1.00000
    270      -7.7525      1.00000
    271      -7.7460      1.00000
    272      -7.7459      1.00000
    273      -7.7418      1.00000
    274      -7.7418      1.00000
    275      -7.7418      1.00000
    276      -7.7417      1.00000
    277      -7.7367      1.00000
    278      -7.7367      1.00000
    279      -7.7362      1.00000
    280      -7.7361      1.00000
    281      -7.7357      1.00000
    282      -7.7357      1.00000
    283      -7.7355      1.00000
    284      -7.7354      1.00000
    285      -7.7337      1.00000
    286      -7.7337      1.00000
    287      -7.7333      1.00000
    288      -7.7332      1.00000
    289      -7.7281      1.00000
    290      -7.7281      1.00000
    291      -7.7280      1.00000
    292      -7.7280      1.00000
    293      -7.7254      1.00000
    294      -7.7254      1.00000
    295      -7.7251      1.00000
    296      -7.7251      1.00000
    297      -7.7249      1.00000
    298      -7.7249      1.00000
    299      -7.7217      1.00000
    300      -7.7217      1.00000
    301      -7.7180      1.00000
    302      -7.7180      1.00000
    303      -7.7177      1.00000
    304      -7.7177      1.00000
    305      -7.7132      1.00000
    306      -7.7132      1.00000
    307      -7.7129      1.00000
    308      -7.7129      1.00000
    309      -7.7125      1.00000
    310      -7.7125      1.00000
    311      -7.7108      1.00000
    312      -7.7108      1.00000
    313      -7.7105      1.00000
    314      -7.7104      1.00000
    315      -7.7103      1.00000
    316      -7.7102      1.00000
    317      -7.7067      1.00000
    318      -7.7067      1.00000
    319      -7.7065      1.00000
    320      -7.7065      1.00000
    321      -7.7032      1.00000
    322      -7.7032      1.00000
    323      -7.7025      1.00000
    324      -7.7025      1.00000
    325      -7.7022      1.00000
    326      -7.7022      1.00000
    327      -7.6975      1.00000
    328      -7.6975      1.00000
    329      -7.6252      1.00000
    330      -7.6252      1.00000
    331      -7.6234      1.00000
    332      -7.6234      1.00000
    333      -7.6234      1.00000
    334      -7.6234      1.00000
    335      -7.5286      1.00000
    336      -7.5286      1.00000
    337      -7.4900      1.00000
    338      -7.4899      1.00000
    339      -7.4899      1.00000
    340      -7.4898      1.00000
    341      -7.4704      1.00000
    342      -7.4704      1.00000
    343      -7.4158      1.00000
    344      -7.4157      1.00000
    345      -7.4155      1.00000
    346      -7.4155      1.00000
    347      -7.3690      1.00000
    348      -7.3690      1.00000
    349      -7.3561      1.00000
    350      -7.3560      1.00000
    351      -7.3560      1.00000
    352      -7.3559      1.00000
    353      -7.3194      1.00000
    354      -7.3194      1.00000
    355      -7.3186      1.00000
    356      -7.3186      1.00000
    357      -7.2945      1.00000
    358      -7.2945      1.00000
    359      -7.2941      1.00000
    360      -7.2941      1.00000
    361      -7.2358      1.00000
    362      -7.2358      1.00000
    363      -7.2215      1.00000
    364      -7.2215      1.00000
    365      -7.2214      1.00000
    366      -7.2213      1.00000
    367      -7.1792      1.00000
    368      -7.1792      1.00000
    369      -7.1788      1.00000
    370      -7.1788      1.00000
    371      -7.1668      1.00000
    372      -7.1667      1.00000
    373      -7.1317      1.00000
    374      -7.1316      1.00000
    375      -7.1314      1.00000
    376      -7.1314      1.00000
    377      -7.1225      1.00000
    378      -7.1225      1.00000
    379      -7.1223      1.00000
    380      -7.1222      1.00000
    381      -7.1209      1.00000
    382      -7.1209      1.00000
    383      -7.0917      1.00000
    384      -7.0917      1.00000
    385      -6.9786      1.00000
    386      -6.9785      1.00000
    387      -6.9785      1.00000
    388      -6.9785      1.00000
    389      -6.9539      1.00000
    390      -6.9539      1.00000
    391      -6.9538      1.00000
    392      -6.9538      1.00000
    393      -6.9538      1.00000
    394      -6.9538      1.00000
    395      -3.2881      1.00000
    396      -3.2880      1.00000
    397      -2.8258      1.00000
    398      -2.8258      1.00000
    399      -2.8257      1.00000
    400      -2.8257      1.00000
    401      -2.7696      1.00000
    402      -2.7695      1.00000
    403      -2.7174      1.00000
    404      -2.7170      1.00000
    405      -2.7170      1.00000
    406      -2.7168      1.00000
    407      -2.7164      1.00000
    408      -2.7161      1.00000
    409      -2.7048      1.00000
    410      -2.7046      1.00000
    411      -2.7045      1.00000
    412      -2.7040      1.00000
    413      -2.7008      1.00000
    414      -2.7003      1.00000
    415      -2.6920      1.00000
    416      -2.6918      1.00000
    417      -2.6917      1.00000
    418      -2.6914      1.00000
    419      -2.6805      1.00000
    420      -2.6803      1.00000
    421      -2.6759      1.00000
    422      -2.6756      1.00000
    423      -2.6754      1.00000
    424      -2.6751      1.00000
    425      -2.5390      1.00000
    426      -2.5389      1.00000
    427      -2.4131      1.00000
    428      -2.4130      1.00000
    429      -2.3966      1.00000
    430      -2.3962      1.00000
    431      -2.3956      1.00000
    432      -2.3955      1.00000
    433      -2.3952      1.00000
    434      -2.3948      1.00000
    435      -2.3730      1.00000
    436      -2.3728      1.00000
    437      -2.3727      1.00000
    438      -2.3725      1.00000
    439      -2.0009      1.00000
    440      -2.0006      1.00000
    441      -1.9510      1.00000
    442      -1.9506      1.00000
    443      -1.9503      1.00000
    444      -1.9502      1.00000
    445      -1.7576      1.00000
    446      -1.7575      1.00000
    447      -1.6830      1.00000
    448      -1.6830      1.00000
    449      -1.6829      1.00000
    450      -1.6829      1.00000
    451      -1.1226      1.00000
    452      -1.1225      1.00000
    453      -0.8926      1.00000
    454      -0.8926      1.00000
    455      -0.8926      1.00000
    456      -0.8925      1.00000
    457      -0.8542      1.00000
    458      -0.8541      1.00000
    459      -0.8541      1.00000
    460      -0.8540      1.00000
    461      -0.8447      1.00000
    462      -0.8447      1.00000
    463      -0.8404      1.00000
    464      -0.8403      1.00000
    465      -0.8163      1.00000
    466      -0.8162      1.00000
    467      -0.8004      1.00000
    468      -0.8003      1.00000
    469      -0.8002      1.00000
    470      -0.8001      1.00000
    471      -0.7865      1.00000
    472      -0.7864      1.00000
    473      -0.7863      1.00000
    474      -0.7863      1.00000
    475      -0.5688      1.00000
    476      -0.5687      1.00000
    477      -0.5112      1.00000
    478      -0.5112      1.00000
    479      -0.5111      1.00000
    480      -0.5111      1.00000
    481      -0.4684      1.00000
    482      -0.4683      1.00000
    483      -0.3813      1.00000
    484      -0.3813      1.00000
    485      -0.3811      1.00000
    486      -0.3811      1.00000
    487      -0.3604      1.00000
    488      -0.3603      1.00000
    489      -0.3296      1.00000
    490      -0.3295      1.00000
    491      -0.3294      1.00000
    492      -0.3293      1.00000
    493      -0.2240      1.00000
    494      -0.2239      1.00000
    495      -0.1954      1.00000
    496      -0.1954      1.00000
    497      -0.1953      1.00000
    498      -0.1952      1.00000
    499      -0.1633      1.00000
    500      -0.1632      1.00000
    501      -0.1632      1.00000
    502      -0.1632      1.00000
    503      -0.1580      1.00000
    504      -0.1580      1.00000
    505      -0.1385      1.00000
    506      -0.1384      1.00000
    507      -0.1383      1.00000
    508      -0.1383      1.00000
    509      -0.1351      1.00000
    510      -0.1350      1.00000
    511       0.0186      1.00000
    512       0.0187      1.00000
    513       0.0572      1.00000
    514       0.0573      1.00000
    515       0.0574      1.00000
    516       0.0574      1.00000
    517       0.2169      1.00000
    518       0.2170      1.00000
    519       0.2170      1.00000
    520       0.2171      1.00000
    521       0.2327      1.00000
    522       0.2327      1.00000
    523       0.2589      1.00000
    524       0.2589      1.00000
    525       0.2620      1.00000
    526       0.2620      1.00000
    527       0.2622      1.00000
    528       0.2622      1.00000
    529       0.3347      1.00000
    530       0.3347      1.00000
    531       0.3348      1.00000
    532       0.3348      1.00000
    533       0.3369      1.00000
    534       0.3369      1.00000
    535       0.4121      1.00000
    536       0.4121      1.00000
    537       0.4212      1.00000
    538       0.4212      1.00000
    539       0.4213      1.00000
    540       0.4213      1.00000
    541       0.4329      1.00000
    542       0.4330      1.00000
    543       0.4611      1.00000
    544       0.4611      1.00000
    545       0.4823      1.00000
    546       0.4824      1.00000
    547       0.4824      1.00000
    548       0.4825      1.00000
    549       0.4947      1.00000
    550       0.4948      1.00000
    551       0.5011      1.00000
    552       0.5011      1.00000
    553       0.5012      1.00000
    554       0.5013      1.00000
    555       0.6314      1.00000
    556       0.6315      1.00000
    557       0.6315      1.00000
    558       0.6315      1.00000
    559       0.6520      1.00000
    560       0.6521      1.00000
    561       0.8915      1.00000
    562       0.8916      1.00000
    563       0.8916      1.00000
    564       0.8916      1.00000
    565       0.9180      1.00000
    566       0.9181      1.00000
    567       0.9236      1.00000
    568       0.9237      1.00000
    569       0.9350      1.00000
    570       0.9350      1.00000
    571       0.9350      1.00000
    572       0.9351      1.00000
    573       0.9660      1.00000
    574       0.9660      1.00000
    575       0.9661      1.00000
    576       0.9662      1.00000
    577       1.1438      1.00000
    578       1.1438      1.00000
    579       1.1438      1.00000
    580       1.1439      1.00000
    581       1.1457      1.00000
    582       1.1458      1.00000
    583       1.4819      1.00000
    584       1.4819      1.00000
    585       1.4820      1.00000
    586       1.4820      1.00000
    587       2.9008      1.00000
    588       2.9010      1.00000
    589       3.9964      0.00000
    590       3.9977      0.00000
    591       4.2087      0.00000
    592       4.2108      0.00000
    593       4.6470      0.00000
    594       4.6477      0.00000
    595       4.6504      0.00000
    596       4.6542      0.00000
    597       4.7550      0.00000
    598       4.7612      0.00000
    599       4.9129      0.00000
    600       4.9162      0.00000
    601       4.9518      0.00000
    602       4.9556      0.00000
    603       4.9596      0.00000
    604       4.9616      0.00000
    605       4.9853      0.00000
    606       4.9912      0.00000
    607       5.0010      0.00000
    608       5.0053      0.00000
    609       5.0166      0.00000
    610       5.0231      0.00000
    611       5.1394      0.00000
    612       5.1485      0.00000
    613       5.1580      0.00000
    614       5.1817      0.00000
    615       5.2263      0.00000
    616       5.2725      0.00000
    617       5.3509      0.00000
    618       5.3739      0.00000
    619       5.3980      0.00000
    620       5.4115      0.00000
    621       5.4221      0.00000
    622       5.4546      0.00000
    623       5.4886      0.00000
    624       5.5098      0.00000
    625       5.5371      0.00000
    626       5.5590      0.00000
    627       5.5832      0.00000
    628       5.6014      0.00000
    629       5.6342      0.00000
    630       5.6723      0.00000
    631       5.6756      0.00000
    632       5.7078      0.00000
    633       5.7244      0.00000
    634       5.7569      0.00000
    635       5.7683      0.00000
    636       5.7850      0.00000
    637       5.8084      0.00000
    638       5.8288      0.00000
    639       5.8740      0.00000
    640       5.8939      0.00000

 k-point     2 :      -0.2500   -0.2500   -0.2500
  band No.  band energies     occupation 
      1     -10.3091      1.00000
      2     -10.3091      1.00000
      3     -10.1938      1.00000
      4     -10.1937      1.00000
      5     -10.1937      1.00000
      6     -10.1936      1.00000
      7     -10.1849      1.00000
      8     -10.1849      1.00000
      9     -10.1097      1.00000
     10     -10.1096      1.00000
     11     -10.1096      1.00000
     12     -10.1095      1.00000
     13     -10.0970      1.00000
     14     -10.0969      1.00000
     15     -10.0651      1.00000
     16     -10.0650      1.00000
     17     -10.0438      1.00000
     18     -10.0437      1.00000
     19     -10.0437      1.00000
     20     -10.0436      1.00000
     21     -10.0244      1.00000
     22     -10.0243      1.00000
     23     -10.0156      1.00000
     24     -10.0155      1.00000
     25     -10.0038      1.00000
     26     -10.0038      1.00000
     27     -10.0037      1.00000
     28     -10.0036      1.00000
     29     -10.0029      1.00000
     30     -10.0029      1.00000
     31      -9.9930      1.00000
     32      -9.9929      1.00000
     33      -9.9925      1.00000
     34      -9.9924      1.00000
     35      -9.9884      1.00000
     36      -9.9884      1.00000
     37      -9.9742      1.00000
     38      -9.9741      1.00000
     39      -9.9739      1.00000
     40      -9.9738      1.00000
     41      -9.9552      1.00000
     42      -9.9551      1.00000
     43      -9.9550      1.00000
     44      -9.9550      1.00000
     45      -9.9430      1.00000
     46      -9.9429      1.00000
     47      -9.9347      1.00000
     48      -9.9347      1.00000
     49      -9.9253      1.00000
     50      -9.9252      1.00000
     51      -9.9247      1.00000
     52      -9.9246      1.00000
     53      -9.9208      1.00000
     54      -9.9208      1.00000
     55      -9.9205      1.00000
     56      -9.9205      1.00000
     57      -9.9204      1.00000
     58      -9.9203      1.00000
     59      -9.9095      1.00000
     60      -9.9094      1.00000
     61      -9.9059      1.00000
     62      -9.9058      1.00000
     63      -9.9057      1.00000
     64      -9.9056      1.00000
     65      -8.1918      1.00000
     66      -8.1917      1.00000
     67      -8.1917      1.00000
     68      -8.1917      1.00000
     69      -8.1902      1.00000
     70      -8.1902      1.00000
     71      -8.1249      1.00000
     72      -8.1249      1.00000
     73      -8.0698      1.00000
     74      -8.0698      1.00000
     75      -8.0697      1.00000
     76      -8.0697      1.00000
     77      -8.0550      1.00000
     78      -8.0550      1.00000
     79      -8.0550      1.00000
     80      -8.0550      1.00000
     81      -8.0546      1.00000
     82      -8.0546      1.00000
     83      -8.0376      1.00000
     84      -8.0376      1.00000
     85      -8.0376      1.00000
     86      -8.0375      1.00000
     87      -8.0363      1.00000
     88      -8.0362      1.00000
     89      -7.9809      1.00000
     90      -7.9808      1.00000
     91      -7.9807      1.00000
     92      -7.9807      1.00000
     93      -7.9769      1.00000
     94      -7.9768      1.00000
     95      -7.9733      1.00000
     96      -7.9733      1.00000
     97      -7.9731      1.00000
     98      -7.9731      1.00000
     99      -7.9710      1.00000
    100      -7.9710      1.00000
    101      -7.9626      1.00000
    102      -7.9626      1.00000
    103      -7.9624      1.00000
    104      -7.9624      1.00000
    105      -7.9542      1.00000
    106      -7.9542      1.00000
    107      -7.9538      1.00000
    108      -7.9538      1.00000
    109      -7.9495      1.00000
    110      -7.9495      1.00000
    111      -7.9468      1.00000
    112      -7.9468      1.00000
    113      -7.9466      1.00000
    114      -7.9466      1.00000
    115      -7.9460      1.00000
    116      -7.9459      1.00000
    117      -7.9411      1.00000
    118      -7.9411      1.00000
    119      -7.9409      1.00000
    120      -7.9409      1.00000
    121      -7.9368      1.00000
    122      -7.9368      1.00000
    123      -7.9332      1.00000
    124      -7.9332      1.00000
    125      -7.9329      1.00000
    126      -7.9329      1.00000
    127      -7.9320      1.00000
    128      -7.9319      1.00000
    129      -7.9300      1.00000
    130      -7.9300      1.00000
    131      -7.9298      1.00000
    132      -7.9298      1.00000
    133      -7.9249      1.00000
    134      -7.9249      1.00000
    135      -7.9247      1.00000
    136      -7.9246      1.00000
    137      -7.9245      1.00000
    138      -7.9244      1.00000
    139      -7.9185      1.00000
    140      -7.9185      1.00000
    141      -7.9174      1.00000
    142      -7.9174      1.00000
    143      -7.9174      1.00000
    144      -7.9174      1.00000
    145      -7.9165      1.00000
    146      -7.9165      1.00000
    147      -7.9137      1.00000
    148      -7.9137      1.00000
    149      -7.9135      1.00000
    150      -7.9134      1.00000
    151      -7.9057      1.00000
    152      -7.9057      1.00000
    153      -7.9054      1.00000
    154      -7.9054      1.00000
    155      -7.9035      1.00000
    156      -7.9035      1.00000
    157      -7.8986      1.00000
    158      -7.8986      1.00000
    159      -7.8982      1.00000
    160      -7.8982      1.00000
    161      -7.8966      1.00000
    162      -7.8966      1.00000
    163      -7.8904      1.00000
    164      -7.8904      1.00000
    165      -7.8904      1.00000
    166      -7.8904      1.00000
    167      -7.8890      1.00000
    168      -7.8890      1.00000
    169      -7.8884      1.00000
    170      -7.8884      1.00000
    171      -7.8840      1.00000
    172      -7.8840      1.00000
    173      -7.8837      1.00000
    174      -7.8837      1.00000
    175      -7.8832      1.00000
    176      -7.8831      1.00000
    177      -7.8797      1.00000
    178      -7.8797      1.00000
    179      -7.8794      1.00000
    180      -7.8794      1.00000
    181      -7.8705      1.00000
    182      -7.8705      1.00000
    183      -7.8702      1.00000
    184      -7.8702      1.00000
    185      -7.8682      1.00000
    186      -7.8682      1.00000
    187      -7.8660      1.00000
    188      -7.8659      1.00000
    189      -7.8659      1.00000
    190      -7.8659      1.00000
    191      -7.8659      1.00000
    192      -7.8658      1.00000
    193      -7.8629      1.00000
    194      -7.8629      1.00000
    195      -7.8626      1.00000
    196      -7.8626      1.00000
    197      -7.8603      1.00000
    198      -7.8603      1.00000
    199      -7.8601      1.00000
    200      -7.8601      1.00000
    201      -7.8599      1.00000
    202      -7.8599      1.00000
    203      -7.8580      1.00000
    204      -7.8580      1.00000
    205      -7.8532      1.00000
    206      -7.8532      1.00000
    207      -7.8530      1.00000
    208      -7.8530      1.00000
    209      -7.8498      1.00000
    210      -7.8498      1.00000
    211      -7.8173      1.00000
    212      -7.8173      1.00000
    213      -7.8164      1.00000
    214      -7.8164      1.00000
    215      -7.8160      1.00000
    216      -7.8160      1.00000
    217      -7.8079      1.00000
    218      -7.8079      1.00000
    219      -7.8034      1.00000
    220      -7.8034      1.00000
    221      -7.8032      1.00000
    222      -7.8032      1.00000
    223      -7.8023      1.00000
    224      -7.8023      1.00000
    225      -7.7944      1.00000
    226      -7.7944      1.00000
    227      -7.7942      1.00000
    228      -7.7942      1.00000
    229      -7.7881      1.00000
    230      -7.7880      1.00000
    231      -7.7874      1.00000
    232      -7.7874      1.00000
    233      -7.7871      1.00000
    234      -7.7871      1.00000
    235      -7.7814      1.00000
    236      -7.7813      1.00000
    237      -7.7790      1.00000
    238      -7.7789      1.00000
    239      -7.7786      1.00000
    240      -7.7786      1.00000
    241      -7.7733      1.00000
    242      -7.7732      1.00000
    243      -7.7706      1.00000
    244      -7.7705      1.00000
    245      -7.7701      1.00000
    246      -7.7700      1.00000
    247      -7.7668      1.00000
    248      -7.7668      1.00000
    249      -7.7665      1.00000
    250      -7.7664      1.00000
    251      -7.7635      1.00000
    252      -7.7635      1.00000
    253      -7.7632      1.00000
    254      -7.7632      1.00000
    255      -7.7614      1.00000
    256      -7.7614      1.00000
    257      -7.7597      1.00000
    258      -7.7596      1.00000
    259      -7.7591      1.00000
    260      -7.7591      1.00000
    261      -7.7586      1.00000
    262      -7.7586      1.00000
    263      -7.7572      1.00000
    264      -7.7572      1.00000
    265      -7.7545      1.00000
    266      -7.7544      1.00000
    267      -7.7543      1.00000
    268      -7.7543      1.00000
    269      -7.7525      1.00000
    270      -7.7525      1.00000
    271      -7.7460      1.00000
    272      -7.7459      1.00000
    273      -7.7418      1.00000
    274      -7.7418      1.00000
    275      -7.7418      1.00000
    276      -7.7417      1.00000
    277      -7.7367      1.00000
    278      -7.7367      1.00000
    279      -7.7362      1.00000
    280      -7.7361      1.00000
    281      -7.7357      1.00000
    282      -7.7357      1.00000
    283      -7.7355      1.00000
    284      -7.7354      1.00000
    285      -7.7337      1.00000
    286      -7.7337      1.00000
    287      -7.7333      1.00000
    288      -7.7332      1.00000
    289      -7.7281      1.00000
    290      -7.7281      1.00000
    291      -7.7280      1.00000
    292      -7.7280      1.00000
    293      -7.7254      1.00000
    294      -7.7254      1.00000
    295      -7.7251      1.00000
    296      -7.7251      1.00000
    297      -7.7249      1.00000
    298      -7.7249      1.00000
    299      -7.7217      1.00000
    300      -7.7217      1.00000
    301      -7.7180      1.00000
    302      -7.7180      1.00000
    303      -7.7177      1.00000
    304      -7.7177      1.00000
    305      -7.7132      1.00000
    306      -7.7132      1.00000
    307      -7.7129      1.00000
    308      -7.7129      1.00000
    309      -7.7125      1.00000
    310      -7.7125      1.00000
    311      -7.7108      1.00000
    312      -7.7108      1.00000
    313      -7.7105      1.00000
    314      -7.7104      1.00000
    315      -7.7103      1.00000
    316      -7.7102      1.00000
    317      -7.7067      1.00000
    318      -7.7067      1.00000
    319      -7.7065      1.00000
    320      -7.7065      1.00000
    321      -7.7032      1.00000
    322      -7.7032      1.00000
    323      -7.7025      1.00000
    324      -7.7025      1.00000
    325      -7.7022      1.00000
    326      -7.7022      1.00000
    327      -7.6975      1.00000
    328      -7.6975      1.00000
    329      -7.6252      1.00000
    330      -7.6252      1.00000
    331      -7.6234      1.00000
    332      -7.6234      1.00000
    333      -7.6234      1.00000
    334      -7.6234      1.00000
    335      -7.5286      1.00000
    336      -7.5286      1.00000
    337      -7.4900      1.00000
    338      -7.4899      1.00000
    339      -7.4899      1.00000
    340      -7.4899      1.00000
    341      -7.4704      1.00000
    342      -7.4704      1.00000
    343      -7.4158      1.00000
    344      -7.4157      1.00000
    345      -7.4155      1.00000
    346      -7.4155      1.00000
    347      -7.3690      1.00000
    348      -7.3689      1.00000
    349      -7.3561      1.00000
    350      -7.3560      1.00000
    351      -7.3560      1.00000
    352      -7.3560      1.00000
    353      -7.3194      1.00000
    354      -7.3194      1.00000
    355      -7.3186      1.00000
    356      -7.3186      1.00000
    357      -7.2945      1.00000
    358      -7.2945      1.00000
    359      -7.2941      1.00000
    360      -7.2941      1.00000
    361      -7.2358      1.00000
    362      -7.2358      1.00000
    363      -7.2215      1.00000
    364      -7.2215      1.00000
    365      -7.2214      1.00000
    366      -7.2213      1.00000
    367      -7.1792      1.00000
    368      -7.1792      1.00000
    369      -7.1788      1.00000
    370      -7.1788      1.00000
    371      -7.1668      1.00000
    372      -7.1667      1.00000
    373      -7.1317      1.00000
    374      -7.1317      1.00000
    375      -7.1314      1.00000
    376      -7.1314      1.00000
    377      -7.1225      1.00000
    378      -7.1225      1.00000
    379      -7.1222      1.00000
    380      -7.1222      1.00000
    381      -7.1209      1.00000
    382      -7.1209      1.00000
    383      -7.0917      1.00000
    384      -7.0917      1.00000
    385      -6.9786      1.00000
    386      -6.9786      1.00000
    387      -6.9785      1.00000
    388      -6.9785      1.00000
    389      -6.9539      1.00000
    390      -6.9539      1.00000
    391      -6.9538      1.00000
    392      -6.9538      1.00000
    393      -6.9538      1.00000
    394      -6.9538      1.00000
    395      -3.2881      1.00000
    396      -3.2881      1.00000
    397      -2.8258      1.00000
    398      -2.8258      1.00000
    399      -2.8257      1.00000
    400      -2.8257      1.00000
    401      -2.7695      1.00000
    402      -2.7695      1.00000
    403      -2.7172      1.00000
    404      -2.7171      1.00000
    405      -2.7168      1.00000
    406      -2.7167      1.00000
    407      -2.7164      1.00000
    408      -2.7161      1.00000
    409      -2.7049      1.00000
    410      -2.7045      1.00000
    411      -2.7044      1.00000
    412      -2.7041      1.00000
    413      -2.7008      1.00000
    414      -2.7004      1.00000
    415      -2.6920      1.00000
    416      -2.6917      1.00000
    417      -2.6914      1.00000
    418      -2.6913      1.00000
    419      -2.6805      1.00000
    420      -2.6801      1.00000
    421      -2.6760      1.00000
    422      -2.6758      1.00000
    423      -2.6756      1.00000
    424      -2.6751      1.00000
    425      -2.5389      1.00000
    426      -2.5388      1.00000
    427      -2.4130      1.00000
    428      -2.4129      1.00000
    429      -2.3964      1.00000
    430      -2.3962      1.00000
    431      -2.3959      1.00000
    432      -2.3955      1.00000
    433      -2.3950      1.00000
    434      -2.3949      1.00000
    435      -2.3730      1.00000
    436      -2.3729      1.00000
    437      -2.3727      1.00000
    438      -2.3724      1.00000
    439      -2.0008      1.00000
    440      -2.0006      1.00000
    441      -1.9509      1.00000
    442      -1.9506      1.00000
    443      -1.9505      1.00000
    444      -1.9503      1.00000
    445      -1.7575      1.00000
    446      -1.7575      1.00000
    447      -1.6830      1.00000
    448      -1.6830      1.00000
    449      -1.6829      1.00000
    450      -1.6829      1.00000
    451      -1.1226      1.00000
    452      -1.1225      1.00000
    453      -0.8927      1.00000
    454      -0.8926      1.00000
    455      -0.8926      1.00000
    456      -0.8925      1.00000
    457      -0.8542      1.00000
    458      -0.8542      1.00000
    459      -0.8541      1.00000
    460      -0.8541      1.00000
    461      -0.8448      1.00000
    462      -0.8447      1.00000
    463      -0.8404      1.00000
    464      -0.8403      1.00000
    465      -0.8162      1.00000
    466      -0.8162      1.00000
    467      -0.8004      1.00000
    468      -0.8002      1.00000
    469      -0.8002      1.00000
    470      -0.8001      1.00000
    471      -0.7864      1.00000
    472      -0.7864      1.00000
    473      -0.7863      1.00000
    474      -0.7862      1.00000
    475      -0.5688      1.00000
    476      -0.5688      1.00000
    477      -0.5112      1.00000
    478      -0.5112      1.00000
    479      -0.5112      1.00000
    480      -0.5110      1.00000
    481      -0.4683      1.00000
    482      -0.4682      1.00000
    483      -0.3814      1.00000
    484      -0.3812      1.00000
    485      -0.3811      1.00000
    486      -0.3810      1.00000
    487      -0.3604      1.00000
    488      -0.3603      1.00000
    489      -0.3297      1.00000
    490      -0.3297      1.00000
    491      -0.3295      1.00000
    492      -0.3293      1.00000
    493      -0.2239      1.00000
    494      -0.2239      1.00000
    495      -0.1954      1.00000
    496      -0.1954      1.00000
    497      -0.1953      1.00000
    498      -0.1952      1.00000
    499      -0.1633      1.00000
    500      -0.1632      1.00000
    501      -0.1632      1.00000
    502      -0.1632      1.00000
    503      -0.1580      1.00000
    504      -0.1580      1.00000
    505      -0.1385      1.00000
    506      -0.1384      1.00000
    507      -0.1384      1.00000
    508      -0.1383      1.00000
    509      -0.1351      1.00000
    510      -0.1350      1.00000
    511       0.0186      1.00000
    512       0.0187      1.00000
    513       0.0573      1.00000
    514       0.0573      1.00000
    515       0.0574      1.00000
    516       0.0574      1.00000
    517       0.2169      1.00000
    518       0.2170      1.00000
    519       0.2170      1.00000
    520       0.2170      1.00000
    521       0.2327      1.00000
    522       0.2327      1.00000
    523       0.2589      1.00000
    524       0.2589      1.00000
    525       0.2620      1.00000
    526       0.2620      1.00000
    527       0.2621      1.00000
    528       0.2622      1.00000
    529       0.3347      1.00000
    530       0.3347      1.00000
    531       0.3348      1.00000
    532       0.3348      1.00000
    533       0.3369      1.00000
    534       0.3369      1.00000
    535       0.4121      1.00000
    536       0.4121      1.00000
    537       0.4212      1.00000
    538       0.4212      1.00000
    539       0.4213      1.00000
    540       0.4213      1.00000
    541       0.4329      1.00000
    542       0.4330      1.00000
    543       0.4611      1.00000
    544       0.4612      1.00000
    545       0.4823      1.00000
    546       0.4824      1.00000
    547       0.4824      1.00000
    548       0.4825      1.00000
    549       0.4947      1.00000
    550       0.4948      1.00000
    551       0.5011      1.00000
    552       0.5011      1.00000
    553       0.5012      1.00000
    554       0.5012      1.00000
    555       0.6314      1.00000
    556       0.6315      1.00000
    557       0.6315      1.00000
    558       0.6315      1.00000
    559       0.6520      1.00000
    560       0.6521      1.00000
    561       0.8915      1.00000
    562       0.8915      1.00000
    563       0.8916      1.00000
    564       0.8917      1.00000
    565       0.9180      1.00000
    566       0.9181      1.00000
    567       0.9236      1.00000
    568       0.9236      1.00000
    569       0.9349      1.00000
    570       0.9350      1.00000
    571       0.9350      1.00000
    572       0.9351      1.00000
    573       0.9660      1.00000
    574       0.9660      1.00000
    575       0.9661      1.00000
    576       0.9661      1.00000
    577       1.1438      1.00000
    578       1.1438      1.00000
    579       1.1438      1.00000
    580       1.1439      1.00000
    581       1.1457      1.00000
    582       1.1458      1.00000
    583       1.4819      1.00000
    584       1.4819      1.00000
    585       1.4819      1.00000
    586       1.4820      1.00000
    587       2.9009      1.00000
    588       2.9011      1.00000
    589       3.9966      0.00000
    590       3.9970      0.00000
    591       4.2089      0.00000
    592       4.2093      0.00000
    593       4.6496      0.00000
    594       4.6525      0.00000
    595       4.6555      0.00000
    596       4.6606      0.00000
    597       4.7620      0.00000
    598       4.7640      0.00000
    599       4.9103      0.00000
    600       4.9169      0.00000
    601       4.9518      0.00000
    602       4.9540      0.00000
    603       4.9544      0.00000
    604       4.9662      0.00000
    605       4.9878      0.00000
    606       4.9922      0.00000
    607       5.0000      0.00000
    608       5.0032      0.00000
    609       5.0077      0.00000
    610       5.0127      0.00000
    611       5.1395      0.00000
    612       5.1555      0.00000
    613       5.1673      0.00000
    614       5.2104      0.00000
    615       5.2406      0.00000
    616       5.2552      0.00000
    617       5.3438      0.00000
    618       5.3699      0.00000
    619       5.4069      0.00000
    620       5.4154      0.00000
    621       5.4553      0.00000
    622       5.4756      0.00000
    623       5.4967      0.00000
    624       5.4992      0.00000
    625       5.5330      0.00000
    626       5.5506      0.00000
    627       5.5604      0.00000
    628       5.5775      0.00000
    629       5.6343      0.00000
    630       5.6493      0.00000
    631       5.6856      0.00000
    632       5.6959      0.00000
    633       5.7216      0.00000
    634       5.7310      0.00000
    635       5.7451      0.00000
    636       5.7696      0.00000
    637       5.8071      0.00000
    638       5.8342      0.00000
    639       5.8509      0.00000
    640       5.9063      0.00000


--------------------------------------------------------------------------------------------------------


 soft charge-density along one line, spin component           1
         0         1         2         3         4         5         6         7         8         9
 total charge-density along one line

 soft charge-density along one line, spin component           2
         0         1         2         3         4         5         6         7         8         9
 total charge-density along one line

 soft charge-density along one line, spin component           3
         0         1         2         3         4         5         6         7         8         9
 total charge-density along one line

 soft charge-density along one line, spin component           4
         0         1         2         3         4         5         6         7         8         9
 total charge-density along one line

 pseudopotential strength for first ion, spin component:           1
-16.627   0.000   0.000   0.000   0.001   0.000  -0.000   0.000   0.000  -0.000 -16.728   0.000   0.000   0.000   0.001   0.000
  0.000  -0.000 -16.627   0.000  -0.001  -0.000  -0.000  -0.000   0.001   0.000   0.000  -0.000 -16.728  -0.000  -0.001  -0.000
  0.001  -0.000  -0.001   0.000 -16.630   0.000   0.001  -0.000  -0.000   0.000   0.001  -0.000  -0.001   0.000 -16.731  -0.000
 -0.000  -0.000  -0.000   0.000   0.001   0.000 -16.627   0.000   0.001  -0.000  -0.000  -0.000  -0.000   0.000   0.001   0.000
  0.000   0.000   0.001  -0.000  -0.000  -0.000   0.001   0.000 -16.630   0.000   0.000   0.000   0.001  -0.000  -0.000  -0.000
-16.728  -0.000   0.000   0.000   0.001   0.000  -0.000   0.000   0.000  -0.000 -16.807   0.000   0.000   0.000   0.001   0.000
  0.000  -0.000 -16.728   0.000  -0.001  -0.000  -0.000  -0.000   0.001   0.000   0.000  -0.000 -16.807   0.000  -0.001  -0.000
  0.001  -0.000  -0.001   0.000 -16.731   0.000   0.001  -0.000  -0.000   0.000   0.001  -0.000  -0.001   0.000 -16.810   0.000
 -0.000  -0.000  -0.000   0.000   0.001   0.000 -16.728  -0.000   0.001  -0.000  -0.000  -0.000  -0.000   0.000   0.001   0.000
  0.000   0.000   0.001  -0.000  -0.000  -0.000   0.001   0.000 -16.731  -0.000   0.000   0.000   0.001  -0.000  -0.000  -0.000
 -0.002   0.000  -0.002   0.000  -0.000   0.000   0.002   0.000   0.000  -0.000  -0.002   0.000  -0.002   0.000  -0.000   0.000
 -0.004   0.000  -0.004   0.000  -0.000   0.000   0.004   0.000   0.000  -0.000  -0.004   0.000  -0.004   0.000  -0.000   0.000
 -0.003   0.000  -0.003   0.000  -0.001   0.000  -0.001   0.000  -0.003   0.000  -0.002   0.000  -0.002   0.000  -0.001   0.000
 -0.001  -0.000   0.003  -0.000  -0.003   0.000  -0.003   0.000   0.000   0.000  -0.001  -0.000   0.002  -0.000  -0.003   0.000
  0.003   0.000  -0.001  -0.000   0.001  -0.000  -0.003   0.000  -0.003   0.000   0.002   0.000  -0.001  -0.000   0.001  -0.000
 -0.003   0.000  -0.003   0.000  -0.002   0.000  -0.001   0.000  -0.003   0.000  -0.003   0.000  -0.003   0.000  -0.002   0.000
 -0.001  -0.000   0.003  -0.000  -0.003   0.000  -0.003   0.000   0.000   0.000  -0.001  -0.000   0.003  -0.000  -0.003   0.000
  0.003   0.000  -0.001  -0.000   0.002  -0.000  -0.003   0.000  -0.003   0.000   0.003   0.000  -0.001  -0.000   0.002  -0.000
 pseudopotential strength for first ion, spin component:           2
 -0.000  -0.000  -0.000   0.000  -0.000   0.000   0.000   0.000   0.000  -0.000  -0.000  -0.000  -0.000   0.000  -0.000   0.000
  0.000  -0.000  -0.000  -0.000  -0.000  -0.000  -0.000  -0.000   0.000   0.000   0.000  -0.000  -0.000  -0.000  -0.000  -0.000
 -0.000   0.000  -0.000   0.000  -0.000  -0.000  -0.000  -0.000  -0.000   0.000  -0.000   0.000  -0.000   0.000  -0.000  -0.000
 -0.000   0.000   0.000  -0.000  -0.000   0.000  -0.000  -0.000  -0.000   0.000  -0.000   0.000   0.000  -0.000  -0.000   0.000
 -0.000   0.000  -0.000  -0.000  -0.000   0.000   0.000   0.000  -0.000  -0.000  -0.000   0.000  -0.000  -0.000  -0.000   0.000
 -0.000  -0.000  -0.000  -0.000  -0.000   0.000   0.000   0.000   0.000  -0.000  -0.000  -0.000  -0.000  -0.000  -0.000   0.000
  0.000  -0.000  -0.000  -0.000  -0.000  -0.000  -0.000  -0.000   0.000   0.000   0.000  -0.000  -0.000  -0.000  -0.000  -0.000
 -0.000   0.000  -0.000   0.000  -0.000  -0.000  -0.000  -0.000  -0.000   0.000  -0.000   0.000  -0.000   0.000  -0.000  -0.000
 -0.000   0.000   0.000  -0.000  -0.000   0.000  -0.000  -0.000  -0.000   0.000  -0.000   0.000   0.000  -0.000  -0.000   0.000
 -0.000   0.000  -0.000  -0.000  -0.000   0.000   0.000   0.000  -0.000  -0.000  -0.000   0.000  -0.000  -0.000  -0.000   0.000
 -0.000   0.000   0.000  -0.000  -0.000   0.000   0.000  -0.000  -0.000  -0.000  -0.000   0.000   0.000  -0.000  -0.000   0.000
 -0.000   0.000   0.000  -0.000  -0.000   0.000   0.000  -0.000  -0.000  -0.000  -0.000   0.000   0.000  -0.000  -0.000   0.000
 -0.000  -0.000  -0.000   0.000   0.000   0.000   0.000   0.000   0.000   0.000  -0.000  -0.000  -0.000   0.000   0.000   0.000
 -0.000   0.000  -0.000  -0.000  -0.000   0.000   0.000  -0.000   0.000   0.000  -0.000   0.000  -0.000  -0.000  -0.000   0.000
 -0.000  -0.000  -0.000   0.000   0.000  -0.000  -0.000   0.000   0.000  -0.000  -0.000  -0.000  -0.000   0.000   0.000  -0.000
 -0.000  -0.000  -0.000   0.000   0.000   0.000   0.000   0.000   0.000   0.000  -0.000  -0.000  -0.000   0.000   0.000   0.000
 -0.000   0.000  -0.000  -0.000  -0.000   0.000   0.000  -0.000   0.000   0.000  -0.000   0.000  -0.000  -0.000  -0.000   0.000
 -0.000  -0.000  -0.000   0.000   0.000  -0.000  -0.000   0.000   0.000  -0.000  -0.000  -0.000  -0.000   0.000   0.000  -0.000
 pseudopotential strength for first ion, spin component:           3
 -0.000   0.000   0.000   0.000  -0.000  -0.000  -0.000  -0.000  -0.000  -0.000  -0.000   0.000   0.000   0.000  -0.000  -0.000
 -0.000  -0.000  -0.000   0.000  -0.000  -0.000   0.000   0.000  -0.000   0.000  -0.000   0.000  -0.000   0.000  -0.000  -0.000
 -0.000  -0.000  -0.000   0.000  -0.000   0.000  -0.000  -0.000  -0.000  -0.000  -0.000  -0.000  -0.000   0.000  -0.000   0.000
  0.000  -0.000  -0.000   0.000  -0.000   0.000  -0.000   0.000   0.000  -0.000   0.000  -0.000  -0.000   0.000  -0.000   0.000
  0.000   0.000   0.000  -0.000  -0.000  -0.000  -0.000  -0.000  -0.000   0.000   0.000   0.000   0.000  -0.000  -0.000  -0.000
 -0.000   0.000   0.000   0.000  -0.000  -0.000  -0.000  -0.000  -0.000  -0.000  -0.000   0.000   0.000   0.000  -0.000  -0.000
 -0.000  -0.000  -0.000   0.000  -0.000  -0.000   0.000   0.000  -0.000   0.000  -0.000   0.000  -0.000   0.000  -0.000  -0.000
 -0.000  -0.000  -0.000   0.000  -0.000   0.000  -0.000  -0.000  -0.000  -0.000  -0.000  -0.000  -0.000   0.000  -0.000   0.000
  0.000  -0.000  -0.000   0.000  -0.000   0.000  -0.000   0.000   0.000  -0.000   0.000  -0.000  -0.000   0.000  -0.000   0.000
  0.000   0.000   0.000  -0.000  -0.000  -0.000  -0.000  -0.000  -0.000   0.000   0.000   0.000   0.000  -0.000  -0.000  -0.000
  0.000  -0.000   0.000   0.000  -0.000   0.000   0.000  -0.000   0.000  -0.000   0.000  -0.000   0.000   0.000  -0.000   0.000
  0.000  -0.000   0.000   0.000  -0.000   0.000   0.000  -0.000   0.000  -0.000   0.000  -0.000   0.000   0.000  -0.000   0.000
  0.000   0.000  -0.000  -0.000   0.000   0.000  -0.000  -0.000   0.000  -0.000   0.000   0.000  -0.000  -0.000   0.000   0.000
  0.000  -0.000  -0.000   0.000  -0.000  -0.000   0.000   0.000   0.000  -0.000   0.000  -0.000  -0.000   0.000  -0.000  -0.000
 -0.000  -0.000   0.000  -0.000  -0.000   0.000   0.000  -0.000   0.000   0.000  -0.000  -0.000   0.000  -0.000  -0.000   0.000
  0.000   0.000  -0.000  -0.000   0.000   0.000  -0.000  -0.000   0.000  -0.000   0.000   0.000  -0.000  -0.000   0.000   0.000
  0.000  -0.000  -0.000   0.000  -0.000  -0.000   0.000   0.000   0.000  -0.000   0.000  -0.000  -0.000   0.000  -0.000  -0.000
 -0.000  -0.000   0.000  -0.000  -0.000  -0.000   0.000  -0.000   0.000   0.000  -0.000  -0.000   0.000  -0.000  -0.000  -0.000
 pseudopotential strength for first ion, spin component:           4
-16.627   0.000   0.000   0.000   0.001   0.000  -0.000  -0.000   0.000  -0.000 -16.728   0.000   0.000   0.000   0.001   0.000
  0.000  -0.000 -16.627   0.000  -0.001  -0.000  -0.000   0.000   0.001   0.000   0.000  -0.000 -16.728   0.000  -0.001  -0.000
  0.001  -0.000  -0.001   0.000 -16.630   0.000   0.001  -0.000  -0.000   0.000   0.001  -0.000  -0.001   0.000 -16.731  -0.000
 -0.000   0.000  -0.000  -0.000   0.001   0.000 -16.627   0.000   0.001   0.000  -0.000   0.000  -0.000  -0.000   0.001   0.000
  0.000   0.000   0.001  -0.000  -0.000  -0.000   0.001  -0.000 -16.630   0.000   0.000   0.000   0.001  -0.000  -0.000  -0.000
-16.728  -0.000   0.000   0.000   0.001   0.000  -0.000  -0.000   0.000  -0.000 -16.807   0.000   0.000   0.000   0.001   0.000
  0.000  -0.000 -16.728  -0.000  -0.001  -0.000  -0.000   0.000   0.001   0.000   0.000  -0.000 -16.807   0.000  -0.001  -0.000
  0.001  -0.000  -0.001   0.000 -16.731   0.000   0.001  -0.000  -0.000   0.000   0.001  -0.000  -0.001   0.000 -16.810   0.000
 -0.000   0.000  -0.000  -0.000   0.001   0.000 -16.728   0.000   0.001   0.000  -0.000   0.000  -0.000  -0.000   0.001   0.000
  0.000   0.000   0.001  -0.000  -0.000  -0.000   0.001  -0.000 -16.731  -0.000   0.000   0.000   0.001  -0.000  -0.000  -0.000
 -0.002   0.000  -0.002   0.000  -0.000   0.000   0.002   0.000  -0.000   0.000  -0.002   0.000  -0.002   0.000  -0.000   0.000
 -0.004   0.000  -0.004   0.000   0.000   0.000   0.004   0.000  -0.000   0.000  -0.004   0.000  -0.004   0.000  -0.000   0.000
 -0.003   0.000  -0.003   0.000  -0.001   0.000  -0.001  -0.000  -0.003   0.000  -0.002   0.000  -0.002   0.000  -0.001   0.000
 -0.001   0.000   0.003  -0.000  -0.003  -0.000  -0.003   0.000   0.000  -0.000  -0.001   0.000   0.002  -0.000  -0.003  -0.000
  0.003  -0.000  -0.001   0.000   0.001  -0.000  -0.003  -0.000  -0.003   0.000   0.002  -0.000  -0.001   0.000   0.001  -0.000
 -0.003   0.000  -0.003   0.000  -0.002   0.000  -0.001  -0.000  -0.003   0.000  -0.003   0.000  -0.003   0.000  -0.002   0.000
 -0.001   0.000   0.003  -0.000  -0.003  -0.000  -0.003   0.000   0.000  -0.000  -0.001   0.000   0.003  -0.000  -0.003  -0.000
  0.003  -0.000  -0.001   0.000   0.002  -0.000  -0.003  -0.000  -0.003  -0.000   0.003  -0.000  -0.001   0.000   0.002  -0.000
 total augmentation occupancy for first ion, spin component:           1
  4.216   0.287   0.050  -0.286   0.000  -2.087  -0.303  -0.061   0.303  -0.000   0.429  -0.150   0.018   0.456  -0.018  -0.005
  0.287   4.215  -0.025  -0.287   0.044  -0.303  -2.087   0.031   0.303  -0.053   0.429  -0.150   0.018  -0.018   0.456  -0.005
  0.050  -0.025   2.585   0.025   0.000  -0.061   0.031  -0.520  -0.031  -0.000  -0.000   0.000   0.004   0.007  -0.004  -0.002
 -0.286  -0.287   0.025   4.216   0.044   0.303   0.303  -0.031  -2.087  -0.053  -0.429   0.150   0.456   0.018   0.018  -0.091
  0.000   0.044   0.000   0.044   2.585  -0.000  -0.053  -0.000  -0.053  -0.520  -0.001   0.001   0.006   0.000   0.006  -0.004
 -2.087  -0.303  -0.061   0.303  -0.000   1.964   0.318   0.072  -0.318   0.000  -0.436   0.165  -0.015  -0.431   0.015   0.003
 -0.303  -2.087   0.031   0.303  -0.053   0.318   1.964  -0.036  -0.318   0.062  -0.436   0.165  -0.015   0.015  -0.431   0.003
 -0.061   0.031  -0.520  -0.031  -0.000   0.072  -0.036   0.457   0.036   0.000   0.000  -0.000  -0.002  -0.004   0.002   0.001
  0.303   0.303  -0.031  -2.087  -0.053  -0.318  -0.318   0.036   1.965   0.062   0.437  -0.165  -0.431  -0.015  -0.015   0.097
 -0.000  -0.053  -0.000  -0.053  -0.520   0.000   0.062   0.000   0.062   0.457   0.001  -0.000  -0.003  -0.000  -0.003   0.001
  0.429   0.429  -0.000  -0.429  -0.001  -0.436  -0.436   0.000   0.437   0.001   5.252  -1.980   0.001  -0.001  -0.001  -0.005
 -0.150  -0.150   0.000   0.150   0.001   0.165   0.165  -0.000  -0.165  -0.000  -1.980   0.762  -0.005   0.005   0.005   0.003
  0.018   0.018   0.004   0.456   0.006  -0.015  -0.015  -0.002  -0.431  -0.003   0.001  -0.005   0.221  -0.028  -0.028  -0.051
  0.456  -0.018   0.007   0.018   0.000  -0.431   0.015  -0.004  -0.015  -0.000  -0.001   0.005  -0.028   0.221   0.028   0.008
 -0.018   0.456  -0.004   0.018   0.006   0.015  -0.431   0.002  -0.015  -0.003  -0.001   0.005  -0.028   0.028   0.221   0.008
 -0.005  -0.005  -0.002  -0.091  -0.004   0.003   0.003   0.001   0.097   0.001  -0.005   0.003  -0.051   0.008   0.008   0.013
 -0.091   0.005  -0.004  -0.005  -0.000   0.097  -0.003   0.002   0.003   0.000   0.005  -0.003   0.008  -0.051  -0.008  -0.002
  0.005  -0.091   0.002  -0.005  -0.004  -0.003   0.097  -0.001   0.003   0.001   0.005  -0.003   0.008  -0.008  -0.051  -0.002
 total augmentation occupancy for first ion, spin component:           2
  0.000   0.000   0.000   0.000  -0.000  -0.000  -0.000  -0.000  -0.000   0.000   0.000  -0.000   0.000  -0.000   0.000  -0.000
  0.000   0.000  -0.000   0.000   0.000  -0.000  -0.000   0.000  -0.000  -0.000  -0.001   0.000   0.000  -0.000  -0.000  -0.000
  0.000  -0.000  -0.000   0.000   0.000   0.000  -0.000   0.000  -0.000  -0.000   0.000  -0.000   0.000   0.000  -0.000  -0.000
  0.000   0.000   0.000  -0.000  -0.000   0.000  -0.000  -0.000   0.000   0.000  -0.000   0.000  -0.000   0.000   0.000  -0.000
 -0.000   0.000   0.000  -0.000   0.000   0.000  -0.000  -0.000   0.000  -0.000   0.000  -0.000  -0.000  -0.000  -0.000   0.000
 -0.000  -0.000   0.000   0.000   0.000   0.000   0.000  -0.000  -0.000  -0.000  -0.000   0.000  -0.000   0.000  -0.000   0.000
 -0.000  -0.000  -0.000  -0.000  -0.000   0.000   0.000   0.000   0.000   0.000   0.000  -0.000  -0.000   0.000   0.000   0.000
 -0.000   0.000   0.000  -0.000  -0.000  -0.000   0.000  -0.000   0.000   0.000  -0.000   0.000  -0.000  -0.000  -0.000   0.000
 -0.000  -0.000  -0.000   0.000   0.000  -0.000   0.000   0.000  -0.000  -0.000   0.000  -0.000   0.000  -0.000  -0.000  -0.000
  0.000  -0.000  -0.000   0.000  -0.000  -0.000   0.000   0.000  -0.000   0.000  -0.000   0.000   0.000   0.000  -0.000  -0.000
  0.000  -0.001   0.000  -0.000   0.000  -0.000   0.000  -0.000   0.000  -0.000  -0.001   0.000  -0.000   0.000   0.000   0.000
 -0.000   0.000  -0.000   0.000  -0.000   0.000  -0.000   0.000  -0.000   0.000   0.000  -0.000   0.000  -0.000   0.000  -0.000
  0.000   0.000   0.000  -0.000  -0.000  -0.000  -0.000  -0.000   0.000   0.000  -0.000   0.000  -0.000   0.000  -0.000   0.000
 -0.000  -0.000   0.000   0.000  -0.000   0.000   0.000  -0.000  -0.000   0.000   0.000  -0.000   0.000  -0.000   0.000  -0.000
  0.000  -0.000  -0.000   0.000  -0.000  -0.000   0.000  -0.000  -0.000  -0.000   0.000   0.000  -0.000   0.000   0.000  -0.000
 -0.000  -0.000  -0.000  -0.000   0.000   0.000   0.000   0.000  -0.000  -0.000   0.000  -0.000   0.000  -0.000  -0.000   0.000
  0.000  -0.000  -0.000  -0.000   0.000  -0.000   0.000   0.000   0.000  -0.000   0.000  -0.000  -0.000   0.000  -0.000   0.000
  0.000   0.000   0.000  -0.000   0.000  -0.000  -0.000  -0.000   0.000   0.000   0.000  -0.000   0.000  -0.000  -0.000   0.000
 total augmentation occupancy for first ion, spin component:           3
 -0.000  -0.000   0.000   0.000  -0.000   0.000   0.000  -0.000  -0.000   0.000   0.000  -0.000   0.000  -0.000   0.000   0.000
 -0.000  -0.000   0.000   0.000  -0.000   0.000   0.000  -0.000  -0.000   0.000  -0.001   0.000  -0.000  -0.000   0.000   0.000
  0.000   0.000  -0.000  -0.000  -0.000  -0.000  -0.000   0.000   0.000   0.000   0.000  -0.000   0.000  -0.000  -0.000  -0.000
  0.000   0.000  -0.000  -0.000   0.000  -0.000  -0.000   0.000   0.000  -0.000  -0.001   0.000   0.000   0.000   0.000  -0.000
 -0.000  -0.000  -0.000   0.000   0.000   0.000   0.000   0.000  -0.000  -0.000   0.000  -0.000  -0.000   0.000   0.000   0.000
  0.000   0.000  -0.000  -0.000   0.000  -0.000  -0.000   0.000   0.000  -0.000  -0.000   0.000  -0.000  -0.000  -0.000  -0.000
  0.000   0.000  -0.000  -0.000   0.000  -0.000  -0.000   0.000   0.000  -0.000   0.001  -0.000   0.000   0.000  -0.000   0.000
 -0.000  -0.000   0.000   0.000   0.000   0.000   0.000  -0.000  -0.000  -0.000  -0.000   0.000  -0.000   0.000   0.000   0.000
 -0.000  -0.000   0.000   0.000  -0.000   0.000   0.000  -0.000  -0.000   0.000   0.001  -0.000  -0.000   0.000  -0.000   0.000
  0.000   0.000   0.000  -0.000  -0.000  -0.000  -0.000  -0.000   0.000   0.000  -0.000   0.000   0.000  -0.000  -0.000  -0.000
  0.000  -0.001   0.000  -0.001   0.000  -0.000   0.001  -0.000   0.001  -0.000   0.001  -0.000  -0.000  -0.000  -0.000   0.000
 -0.000   0.000  -0.000   0.000  -0.000   0.000  -0.000   0.000  -0.000   0.000  -0.000   0.000   0.000   0.000   0.000  -0.000
  0.000  -0.000   0.000   0.000  -0.000  -0.000   0.000  -0.000  -0.000   0.000  -0.000   0.000   0.000   0.000  -0.000  -0.000
 -0.000  -0.000  -0.000   0.000   0.000  -0.000   0.000   0.000   0.000  -0.000  -0.000   0.000   0.000   0.000   0.000  -0.000
  0.000   0.000  -0.000   0.000   0.000  -0.000  -0.000   0.000  -0.000  -0.000  -0.000   0.000  -0.000   0.000  -0.000  -0.000
  0.000   0.000  -0.000  -0.000   0.000  -0.000   0.000   0.000   0.000  -0.000   0.000  -0.000  -0.000  -0.000  -0.000   0.000
  0.000  -0.000  -0.000  -0.000  -0.000  -0.000   0.000   0.000   0.000   0.000  -0.000   0.000  -0.000   0.000  -0.000   0.000
 -0.000  -0.000   0.000  -0.000   0.000   0.000   0.000  -0.000   0.000  -0.000   0.000  -0.000   0.000  -0.000  -0.000   0.000
 total augmentation occupancy for first ion, spin component:           4
 -0.000  -0.000   0.000   0.000  -0.000   0.000   0.000  -0.000  -0.000   0.000   0.000  -0.000  -0.000  -0.000   0.000   0.000
 -0.000  -0.000   0.000  -0.000  -0.000   0.000   0.000  -0.000   0.000   0.000  -0.001   0.000  -0.000  -0.000  -0.000   0.000
  0.000   0.000  -0.000   0.000  -0.000  -0.000  -0.000   0.000  -0.000   0.000   0.000  -0.000   0.000   0.000   0.000  -0.000
  0.000  -0.000   0.000  -0.000   0.000  -0.000   0.000  -0.000   0.000  -0.000  -0.001   0.000  -0.000   0.000  -0.000   0.000
 -0.000  -0.000  -0.000   0.000  -0.000   0.000   0.000   0.000  -0.000   0.000  -0.000   0.000  -0.000   0.000   0.000  -0.000
  0.000   0.000  -0.000  -0.000   0.000  -0.000  -0.000   0.000   0.000  -0.000  -0.000   0.000   0.000   0.000  -0.000  -0.000
  0.000   0.000  -0.000   0.000   0.000  -0.000  -0.000   0.000  -0.000  -0.000   0.001  -0.000   0.000   0.000   0.000  -0.000
 -0.000  -0.000   0.000  -0.000   0.000   0.000   0.000  -0.000   0.000  -0.000  -0.000   0.000  -0.000  -0.000  -0.000   0.000
 -0.000   0.000  -0.000   0.000  -0.000   0.000  -0.000   0.000  -0.000   0.000   0.001  -0.000   0.000  -0.000   0.000  -0.000
  0.000   0.000   0.000  -0.000   0.000  -0.000  -0.000  -0.000   0.000  -0.000   0.000  -0.000   0.000  -0.000  -0.000   0.000
  0.000  -0.001   0.000  -0.001  -0.000  -0.000   0.001  -0.000   0.001   0.000   0.001  -0.000   0.000  -0.000  -0.000   0.000
 -0.000   0.000  -0.000   0.000   0.000   0.000  -0.000   0.000  -0.000  -0.000  -0.000   0.000  -0.000   0.000   0.000  -0.000
 -0.000  -0.000   0.000  -0.000  -0.000   0.000   0.000  -0.000   0.000   0.000   0.000  -0.000  -0.000   0.000   0.000   0.000
 -0.000  -0.000   0.000   0.000   0.000   0.000   0.000  -0.000  -0.000  -0.000  -0.000   0.000   0.000   0.000   0.000  -0.000
  0.000  -0.000   0.000  -0.000   0.000  -0.000   0.000  -0.000   0.000  -0.000  -0.000   0.000   0.000   0.000  -0.000   0.000
  0.000   0.000  -0.000   0.000  -0.000  -0.000  -0.000   0.000  -0.000   0.000   0.000  -0.000   0.000  -0.000   0.000  -0.000
  0.000   0.000  -0.000  -0.000  -0.000  -0.000  -0.000   0.000  -0.000   0.000   0.000  -0.000  -0.000  -0.000  -0.000   0.000
 -0.000   0.000  -0.000   0.000  -0.000  -0.000  -0.000   0.000  -0.000   0.000   0.000  -0.000   0.000  -0.000   0.000   0.000


------------------------ aborting loop EDIFF was not reached (unconverged)  ----------------------------


 -----------------------------------------------------------------------------
|                                                                             |
|           W    W    AA    RRRRR   N    N  II  N    N   GGGG   !!!           |
|           W    W   A  A   R    R  NN   N  II  NN   N  G    G  !!!           |
|           W    W  A    A  R    R  N N  N  II  N N  N  G       !!!           |
|           W WW W  AAAAAA  RRRRR   N  N N  II  N  N N  G  GGG   !            |
|           WW  WW  A    A  R   R   N   NN  II  N   NN  G    G                |
|           W    W  A    A  R    R  N    N  II  N    N   GGGG   !!!           |
|                                                                             |
|     The electronic self-consistency was not achieved in the given           |
|     number of steps (NELM). The forces and other quantities evaluated       |
|     might not be reliable so examine the results carefully. If you find     |
|     spurious results, we suggest increasing NELM, if you were close to      |
|     convergence or switching to a different ALGO or adjusting the           |
|     density mixing parameters otherwise.                                    |
|                                                                             |
 -----------------------------------------------------------------------------

    FORLOC:  cpu time      0.0497: real time      0.0500
    FORHF :  cpu time   1460.1266: real time   1460.8977
    FORNL :  cpu time      8.4711: real time      8.4753
    STRESS:  cpu time      6.6778: real time      6.6821
    FORCOR:  cpu time      0.7630: real time      0.7648
    OFIELD:  cpu time      0.0069: real time      0.0069

  FORCE on cell =-STRESS in cart. coord.  units (eV):
  Direction    XX          YY          ZZ          XY          YZ          ZX
  --------------------------------------------------------------------------------------
  Alpha Z  1642.45119  1642.45119  1642.45119
  Ewald  -11313.45310-11313.46250-11313.46200    -0.00065     0.00037     0.00096
  Hartree  5630.85057  5630.81960  5630.81979    -0.00220    -0.00417     0.00681
  E(xc)   -2170.86659 -2170.86706 -2170.86706     0.00037     0.00074    -0.00019
  Local    -669.84080  -669.81425  -669.81489     0.01213     0.02289    -0.00701
  n-local  2014.11126  2014.12097  2014.13277    -3.09687    -3.10284    -3.07552
  augment    16.65006    16.64600    16.64599     0.00201     0.00404     0.00110
  Kinetic  6649.02889  6649.03578  6649.03927    -3.34237    -3.34129    -3.31557
  Fock    -1831.68427 -1831.68330 -1831.68350    -0.10949    -0.11049    -0.10875
  -------------------------------------------------------------------------------------
  Total     -32.74827   -32.74827   -32.74827     0.00000     0.00000    -0.00000
  in kB     -23.41002   -23.41002   -23.41002     0.00000     0.00000    -0.00000
  external pressure =      -23.41 kB  Pullay stress =        0.00 kB


 VOLUME and BASIS-vectors are now :
 -----------------------------------------------------------------------------
  energy-cutoff  :      450.00
  volume of cell :     2241.29
      direct lattice vectors                 reciprocal lattice vectors
    13.086768000  0.000000000  0.000000000     0.076413061  0.000000000  0.000000000
     0.000000000 13.086768000  0.000000000     0.000000000  0.076413061  0.000000000
     0.000000000  0.000000000 13.086768000     0.000000000  0.000000000  0.076413061

  length of vectors
    13.086768000 13.086768000 13.086768000     0.076413061  0.076413061  0.076413061


 FORCES acting on ions:
    Electron-Ion                     Ewald-Force                    Non-Local-Force
 -----------------------------------------------------------------------------------------------
   -.105E+03 0.105E+03 -.105E+03   0.105E+03 -.105E+03 0.105E+03   -.466E+00 0.466E+00 -.466E+00
   -.147E+02 0.147E+02 0.217E+02   0.142E+02 -.142E+02 -.220E+02   0.361E+00 -.361E+00 0.105E+00
   -.147E+02 -.216E+02 -.147E+02   0.142E+02 0.220E+02 0.142E+02   0.361E+00 -.105E+00 0.361E+00
   -.774E+01 -.707E+01 0.708E+01   0.767E+01 0.717E+01 -.717E+01   0.157E+00 -.119E+00 0.119E+00
   0.217E+02 0.147E+02 -.147E+02   -.220E+02 -.142E+02 0.142E+02   0.105E+00 -.361E+00 0.361E+00
   0.707E+01 0.775E+01 0.707E+01   -.716E+01 -.767E+01 -.716E+01   0.119E+00 -.157E+00 0.119E+00
   0.708E+01 -.707E+01 -.774E+01   -.717E+01 0.716E+01 0.767E+01   0.119E+00 -.119E+00 0.157E+00
   0.653E+01 -.654E+01 0.654E+01   -.657E+01 0.657E+01 -.657E+01   -.267E-01 0.267E-01 -.267E-01
   -.147E+02 -.147E+02 -.217E+02   0.142E+02 0.142E+02 0.220E+02   0.361E+00 0.361E+00 -.105E+00
   -.105E+03 -.105E+03 0.105E+03   0.105E+03 0.105E+03 -.105E+03   -.466E+00 -.466E+00 0.466E+00
   -.774E+01 0.708E+01 -.707E+01   0.767E+01 -.717E+01 0.717E+01   0.157E+00 0.119E+00 -.119E+00
   -.147E+02 0.217E+02 0.147E+02   0.142E+02 -.220E+02 -.142E+02   0.361E+00 0.105E+00 -.361E+00
   0.707E+01 -.774E+01 -.708E+01   -.717E+01 0.767E+01 0.716E+01   0.119E+00 0.157E+00 -.119E+00
   0.217E+02 -.147E+02 0.147E+02   -.220E+02 0.142E+02 -.142E+02   0.105E+00 0.361E+00 -.361E+00
   0.654E+01 0.653E+01 -.653E+01   -.657E+01 -.657E+01 0.657E+01   -.267E-01 -.267E-01 0.267E-01
   0.707E+01 0.707E+01 0.775E+01   -.716E+01 -.716E+01 -.767E+01   0.119E+00 0.119E+00 -.157E+00
   -.707E+01 0.774E+01 -.707E+01   0.716E+01 -.767E+01 0.716E+01   -.119E+00 -.157E+00 -.119E+00
   -.216E+02 0.147E+02 0.147E+02   0.220E+02 -.142E+02 -.142E+02   -.105E+00 -.361E+00 -.361E+00
   -.653E+01 -.653E+01 -.653E+01   0.657E+01 0.657E+01 0.657E+01   0.267E-01 0.267E-01 0.267E-01
   -.706E+01 -.708E+01 0.773E+01   0.717E+01 0.716E+01 -.767E+01   -.119E+00 -.119E+00 -.157E+00
   0.147E+02 0.147E+02 -.217E+02   -.142E+02 -.142E+02 0.220E+02   -.361E+00 -.361E+00 -.105E+00
   0.105E+03 0.105E+03 0.105E+03   -.105E+03 -.105E+03 -.105E+03   0.466E+00 0.466E+00 0.466E+00
   0.773E+01 -.707E+01 -.707E+01   -.766E+01 0.717E+01 0.717E+01   -.157E+00 -.119E+00 -.119E+00
   0.147E+02 -.217E+02 0.147E+02   -.142E+02 0.220E+02 -.142E+02   -.361E+00 -.105E+00 -.361E+00
   -.216E+02 -.147E+02 -.147E+02   0.220E+02 0.142E+02 0.142E+02   -.105E+00 0.361E+00 0.361E+00
   -.707E+01 -.774E+01 0.708E+01   0.716E+01 0.767E+01 -.717E+01   -.119E+00 0.157E+00 0.119E+00
   -.708E+01 0.707E+01 -.774E+01   0.716E+01 -.716E+01 0.767E+01   -.119E+00 0.119E+00 0.157E+00
   -.652E+01 0.654E+01 0.654E+01   0.657E+01 -.657E+01 -.657E+01   0.267E-01 -.267E-01 -.267E-01
   0.105E+03 -.105E+03 -.105E+03   -.105E+03 0.105E+03 0.105E+03   0.466E+00 -.466E+00 -.466E+00
   0.147E+02 -.147E+02 0.217E+02   -.142E+02 0.142E+02 -.220E+02   -.361E+00 0.361E+00 0.105E+00
   0.147E+02 0.217E+02 -.147E+02   -.142E+02 -.220E+02 0.142E+02   -.361E+00 0.105E+00 0.361E+00
   0.774E+01 0.708E+01 0.707E+01   -.766E+01 -.717E+01 -.717E+01   -.157E+00 0.119E+00 0.119E+00
   -.136E-01 -.235E-02 -.631E-02   -.126E-03 0.632E-03 -.109E-02   -.230E-18 0.117E-17 -.167E-17
   -.523E+01 -.629E-02 -.187E-02   0.498E+01 0.656E-03 -.134E-03   0.131E+00 -.884E-19 -.247E-18
   -.592E+02 -.511E-02 -.773E-03   0.587E+02 -.529E-03 0.376E-03   0.887E+00 0.291E-17 -.379E-17
   -.654E+01 0.536E-02 0.337E-02   0.676E+01 -.837E-04 0.196E-04   -.994E-01 -.396E-17 0.123E-17
   -.523E+01 0.849E-02 -.883E-02   0.498E+01 0.607E-04 -.145E-04   0.131E+00 0.216E-18 -.106E-18
   0.523E+01 0.892E-02 0.959E-02   -.498E+01 -.526E-03 0.490E-03   -.131E+00 0.248E-18 -.217E-17
   0.592E+02 -.290E-02 0.954E-03   -.587E+02 -.672E-03 0.570E-03   -.887E+00 0.343E-17 -.135E-20
   0.655E+01 0.658E-02 0.123E-01   -.676E+01 0.708E-03 0.709E-03   0.994E-01 -.263E-17 0.373E-17
   0.523E+01 0.853E-02 0.442E-02   -.498E+01 -.542E-04 -.502E-03   -.131E+00 0.229E-17 0.118E-18
   -.649E+01 -.648E+01 -.649E+01   0.643E+01 0.644E+01 0.644E+01   0.111E+00 0.111E+00 0.111E+00
   -.126E+02 -.126E+02 0.126E+02   0.130E+02 0.130E+02 -.130E+02   -.363E+00 -.363E+00 0.363E+00
   -.126E+02 0.126E+02 -.126E+02   0.130E+02 -.130E+02 0.130E+02   -.363E+00 0.363E+00 -.363E+00
   -.649E+01 0.649E+01 0.648E+01   0.643E+01 -.644E+01 -.644E+01   0.111E+00 -.111E+00 -.111E+00
   0.126E+02 -.126E+02 -.126E+02   -.130E+02 0.130E+02 0.130E+02   0.363E+00 -.363E+00 -.363E+00
   0.648E+01 -.649E+01 0.649E+01   -.644E+01 0.644E+01 -.644E+01   -.111E+00 0.111E+00 -.111E+00
   0.648E+01 0.649E+01 -.649E+01   -.644E+01 -.644E+01 0.643E+01   -.111E+00 -.111E+00 0.111E+00
   0.126E+02 0.126E+02 0.126E+02   -.130E+02 -.130E+02 -.130E+02   0.363E+00 0.363E+00 0.363E+00
   -.224E-02 -.910E-02 -.523E+01   -.985E-04 0.119E-02 0.498E+01   -.270E-17 -.254E-18 0.131E+00
   0.607E-02 -.123E-02 0.524E+01   -.133E-03 -.254E-04 -.498E+01   -.145E-17 0.177E-18 -.131E+00
   0.264E-02 0.333E-02 -.655E+01   -.281E-04 -.139E-03 0.676E+01   -.120E-17 0.117E-17 -.994E-01
   0.430E-02 0.806E-02 0.656E+01   -.204E-04 0.362E-04 -.676E+01   0.318E-17 -.120E-17 0.994E-01
   -.728E-02 -.625E-02 -.592E+02   -.150E-03 0.680E-03 0.586E+02   -.291E-17 0.365E-17 0.887E+00
   -.364E-02 -.721E-03 0.592E+02   0.696E-03 -.743E-03 -.586E+02   -.185E-17 0.136E-17 -.887E+00
   -.812E-02 0.112E-01 -.523E+01   0.984E-05 -.566E-03 0.498E+01   -.452E-19 -.175E-17 0.131E+00
   0.421E-02 0.867E-02 0.523E+01   -.466E-03 0.688E-04 -.498E+01   0.376E-19 0.496E-18 -.131E+00
   0.185E-02 -.656E+01 -.666E-02   0.185E-04 0.676E+01 -.648E-03   0.202E-17 -.994E-01 0.310E-18
   0.298E-02 -.524E+01 -.343E-02   -.744E-04 0.498E+01 0.106E-03   0.383E-18 0.131E+00 -.227E-18
   0.507E-02 0.655E+01 -.219E-02   -.241E-04 -.676E+01 0.528E-04   -.236E-17 0.994E-01 0.696E-18
   0.872E-03 0.523E+01 0.418E-02   -.201E-03 -.498E+01 -.570E-03   -.376E-17 -.131E+00 -.879E-19
   0.153E-02 -.523E+01 -.747E-03   0.172E-03 0.498E+01 -.529E-03   -.276E-19 0.131E+00 -.557E-18
   -.695E-02 -.592E+02 -.843E-02   0.572E-03 0.586E+02 0.743E-03   -.208E-17 0.887E+00 0.134E-17
   -.551E-02 0.524E+01 -.322E-02   -.478E-03 -.498E+01 0.812E-04   -.534E-18 -.131E+00 -.889E-18
   -.389E-02 0.592E+02 -.288E-02   -.184E-03 -.586E+02 -.706E-03   0.325E-17 -.887E+00 0.233E-17
 -----------------------------------------------------------------------------------------------
   0.165E-01 0.110E+00 0.518E-02   -.120E-12 0.924E-13 -.158E-12   0.268E-15 0.111E-15 0.862E-16


 POSITION                                       TOTAL-FORCE (eV/Angst)
 -----------------------------------------------------------------------------------
      0.05869     13.02807      0.05869         0.162818     -0.162818      0.162818
      0.01632     13.07045      6.50359        -0.065524      0.065524     -0.209494
      0.01632      6.58318      0.01632        -0.065524      0.209494     -0.065524
     13.08186      6.55932      6.52744         0.094841     -0.033624      0.033624
      6.50359     13.07045      0.01632        -0.209494      0.065524     -0.065524
      6.52743      0.00491      6.52743         0.033624     -0.094841      0.033624
      6.52743      6.55934     13.08186         0.033624     -0.033624      0.094841
      6.55029      6.53647      6.55029        -0.070867      0.070867     -0.070867
      0.01632      3.28801      3.31148        -0.065524     -0.065524      0.209494
      0.05871      3.33039      9.75638         0.162818      0.162818     -0.162818
     13.08186      9.79914      3.28763         0.094841      0.033624     -0.033624
      0.01632      9.77528      9.79876        -0.065524     -0.209494      0.065524
      6.52744      3.26678      3.28764         0.033624      0.094841     -0.033624
      6.50360      3.28801      9.79876        -0.209494     -0.065524      0.065524
      6.55029      9.82199      3.26478        -0.070867     -0.070867      0.070867
      6.52743      9.79912      9.81998         0.033624      0.033624     -0.094841
      3.28764      0.00491      3.28764        -0.033624     -0.094841     -0.033624
      3.31148     13.07045      9.79876         0.209494      0.065524      0.065524
      3.26478      6.53647      3.26478         0.070867      0.070867      0.070867
      3.28764      6.55934      9.81998        -0.033624     -0.033624     -0.094841
      9.79876     13.07045      3.31148         0.065524      0.065524      0.209494
      9.75637     13.02807      9.75638        -0.162818     -0.162818     -0.162818
      9.81998      6.55934      3.28764        -0.094841     -0.033624     -0.033624
      9.79876      6.58317      9.79876         0.065524      0.209494      0.065524
      3.31148      3.28801      0.01632         0.209494     -0.065524     -0.065524
      3.28764      3.26678      6.52743        -0.033624      0.094841      0.033624
      3.28764      9.79912     13.08186        -0.033624      0.033624      0.094841
      3.26478      9.82199      6.55029         0.070867     -0.070867     -0.070867
      9.75637      3.33039      0.05869        -0.162818      0.162818      0.162818
      9.79876      3.28801      6.50360         0.065524     -0.065524     -0.209494
      9.79876      9.77528      0.01632         0.065524     -0.209494     -0.065524
      9.81998      9.79914      6.52744        -0.094841      0.033624      0.033624
     11.45092      1.63585     11.45092         0.000000     -0.000000      0.000000
      1.65752      1.63585      4.90754        -0.118689     -0.000000      0.000000
      1.73765      1.63585     11.45092         0.339637     -0.000000      0.000000
      1.64752      8.17923      4.90754         0.106912     -0.000000      0.000000
      1.65752      8.17923     11.45092        -0.118689     -0.000000      0.000000
      8.15756      1.63585      4.90754         0.118689     -0.000000      0.000000
      8.07743      1.63585     11.45092        -0.339637     -0.000000      0.000000
      8.16756      8.17923      4.90754        -0.106912     -0.000000      0.000000
      8.15756      8.17923     11.45092         0.118689     -0.000000      0.000000
      1.63386      4.90555      1.63386         0.059231      0.059231      0.059231
      1.66841      4.94010      8.14667         0.051797      0.051797     -0.051797
      1.66841     11.41836      1.66841         0.051797     -0.051797      0.051797
      1.63386     11.45291      8.18122         0.059231     -0.059231     -0.059231
      8.14667      4.94010      1.66841        -0.051797      0.051797      0.051797
      8.18122      4.90555      8.18122        -0.059231      0.059231     -0.059231
      8.18122     11.45291      1.63386        -0.059231     -0.059231      0.059231
      8.14667     11.41836      8.14667        -0.051797     -0.051797     -0.051797
      4.90754      1.63585      1.65752         0.000000     -0.000000     -0.118689
      4.90754      1.63585      8.15756         0.000000     -0.000000      0.118689
      4.90754      8.17923      1.64752         0.000000     -0.000000      0.106912
      4.90754      8.17923      8.16756         0.000000     -0.000000     -0.106912
     11.45092      1.63585      1.73765         0.000000     -0.000000      0.339637
     11.45092      1.63585      8.07743         0.000000     -0.000000     -0.339637
     11.45092      8.17923      1.65752         0.000000     -0.000000     -0.118689
     11.45092      8.17923      8.15756         0.000000     -0.000000      0.118689
      4.90754      4.91921      4.90754         0.000000      0.106912      0.000000
      4.90754      4.92921     11.45092         0.000000     -0.118689      0.000000
      4.90754     11.43925      4.90754         0.000000     -0.106912      0.000000
      4.90754     11.42925     11.45092         0.000000      0.118689      0.000000
     11.45092      4.92921      4.90754         0.000000     -0.118689      0.000000
     11.45092      5.00934     11.45092         0.000000      0.339637      0.000000
     11.45092     11.42925      4.90754         0.000000      0.118689      0.000000
     11.45092     11.34912     11.45092         0.000000     -0.339637      0.000000
 -----------------------------------------------------------------------------------
    total drift:                                0.016506      0.110206      0.005180


--------------------------------------------------------------------------------------------------------



  FREE ENERGIE OF THE ION-ELECTRON SYSTEM (eV)
  ---------------------------------------------------
  free  energy   TOTEN  =      -191.00694300 eV

  energy  without entropy=     -191.00694300  energy(sigma->0) =     -191.00694300



--------------------------------------------------------------------------------------------------------


    POTLOK:  cpu time      1.3589: real time      1.3794


--------------------------------------------------------------------------------------------------------


     LOOP+:  cpu time   6491.6685: real time   6497.3470
    4ORBIT:  cpu time      0.0000: real time      0.0000

 total amount of memory used by VASP MPI-rank0   210908. kBytes
=======================================================================

   base                                    :      30000. kBytes
   nonl-proj                               :       9876. kBytes
   fftplans                                :      11995. kBytes
   grid                                    :      40697. kBytes
   one-center                              :        559. kBytes
   HF                                      :        129. kBytes
   nonlr-proj                              :      11281. kBytes
   wavefun                                 :      96090. kBytes
   fock_wrk                                :      10281. kBytes

  
  
 General timing and accounting informations for this job:
 ========================================================
  
                  Total CPU time used (sec):     6513.835
                            User time (sec):     6434.086
                          System time (sec):       79.749
                         Elapsed time (sec):     6527.890
  
                   Maximum memory used (kb):      459916.
                   Average memory used (kb):          N/A
  
                          Minor page faults:       105846
                          Major page faults:         1620
                 Voluntary context switches:         2539
++++ Slurm JobID = 12018451
	linux-vdso.so.1 (0x00007ffff4f99000)
	libstdc++.so.6 => /opt/cray/pe/gcc-libs/libstdc++.so.6 (0x0000147ae2400000)
	libscalapack.so.2.2 => /work/z19/z19/aturner/.spack-1.0.2/opt/spack/linux-sles15-zen2/gcc-11.2.0/netlib-scalapack-2.2.2-wmj7a5pnzdlyjhjh7mvjpnkmilvoguc5/lib/libscalapack.so.2.2 (0x0000147ae1e50000)
	libopenblas.so.0 => /work/z19/z19/aturner/.spack-1.0.2/opt/spack/linux-sles15-zen2/gcc-11.2.0/openblas-0.3.29-ldkpdriqvfnhdsewzohugwkroqardmbu/lib/libopenblas.so.0 (0x0000147ae0291000)
	libfftw3.so.mpi31.3 => /opt/cray/pe/lib64/libfftw3.so.mpi31.3 (0x0000147adfc00000)
	libfftw3_omp.so.mpi31.3 => /opt/cray/pe/lib64/libfftw3_omp.so.mpi31.3 (0x0000147adf800000)
	libhdf5_fortran_parallel_gnu_91.so.200 => /opt/cray/pe/lib64/libhdf5_fortran_parallel_gnu_91.so.200 (0x0000147ae291b000)
	libdl.so.2 => /lib64/libdl.so.2 (0x0000147ae2916000)
	libmpifort_gnu_91.so.12 => /opt/cray/pe/lib64/libmpifort_gnu_91.so.12 (0x0000147adf400000)
	libmpi_gnu_91.so.12 => /opt/cray/pe/lib64/libmpi_gnu_91.so.12 (0x0000147adc600000)
	libxpmem.so.0 => /opt/xpmem/lib64/libxpmem.so.0 (0x0000147ae2911000)
	libgfortran.so.5 => /opt/cray/pe/gcc-libs/libgfortran.so.5 (0x0000147adc000000)
	libquadmath.so.0 => /opt/cray/pe/gcc-libs/libquadmath.so.0 (0x0000147adbc00000)
	libpthread.so.0 => /lib64/libpthread.so.0 (0x0000147ae28ee000)
	libm.so.6 => /lib64/libm.so.6 (0x0000147ae0145000)
	libmvec.so.1 => /lib64/libmvec.so.1 (0x0000147ae28c2000)
	libgomp.so.1 => /opt/cray/pe/gcc-libs/libgomp.so.1 (0x0000147adb800000)
	libgcc_s.so.1 => /opt/cray/pe/gcc-libs/libgcc_s.so.1 (0x0000147adb400000)
	libc.so.6 => /lib64/libc.so.6 (0x0000147adfa09000)
	/lib64/ld-linux-x86-64.so.2 (0x0000147ae2989000)
	libhdf5_parallel_gnu_91.so.200 => /opt/cray/pe/lib64/libhdf5_parallel_gnu_91.so.200 (0x0000147adaf91000)
	libfabric.so.1 => /opt/cray/libfabric/1.12.1.2.2.0.0/lib64/libfabric.so.1 (0x0000147adac00000)
	libatomic.so.1 => /opt/cray/pe/gcc-libs/libatomic.so.1 (0x0000147ada800000)
	librt.so.1 => /lib64/librt.so.1 (0x0000147ae28b4000)
	libpmi.so.0 => /opt/cray/pe/lib64/libpmi.so.0 (0x0000147ada400000)
	libpmi2.so.0 => /opt/cray/pe/lib64/libpmi2.so.0 (0x0000147ada000000)
	libz.so.1 => /lib64/libz.so.1 (0x0000147ad9c00000)
	librdmacm.so.1 => /usr/lib64/librdmacm.so.1 (0x0000147ad9800000)
	libibverbs.so.1 => /usr/lib64/libibverbs.so.1 (0x0000147ad9400000)
	libpals.so.0 => /opt/cray/pe/lib64/libpals.so.0 (0x0000147ad9000000)
	libnl-3.so.200 => /usr/lib64/libnl-3.so.200 (0x0000147ad8c00000)
	libnl-route-3.so.200 => /usr/lib64/libnl-route-3.so.200 (0x0000147ad8800000)
	libjansson.so.4 => /usr/lib64/libjansson.so.4 (0x0000147ae28a1000)
rm: cannot remove 'WAVECAR': No such file or directory
 running  256 mpi-ranks, with    1 threads/rank, on    2 nodes
 distrk:  each k-point on   64 cores,    4 groups
 distr:  one band on    8 cores,    8 groups
 vasp.6.5.1 10Mar25 (build Dec 27 2025 08:36:15) complex                         
 POSCAR found type information on POSCAR CdTe
 POSCAR found :  2 types and      65 ions
 Reading from existing POTCAR
 scaLAPACK will be used
 Reading from existing POTCAR
 -----------------------------------------------------------------------------
|                                                                             |
|               ----> ADVICE to this user running VASP <----                  |
|                                                                             |
|     You have a (more or less) 'large supercell' and for larger cells it     |
|     might be more efficient to use real-space projection operators.         |
|     Therefore, try LREAL= Auto in the INCAR file.                           |
|     Mind: For very accurate calculation, you might also keep the            |
|     reciprocal projection scheme (i.e. LREAL=.FALSE.).                      |
|                                                                             |
 -----------------------------------------------------------------------------

 LDA part: xc-table for (Slater+PW92), standard interpolation
 POSCAR, INCAR and KPOINTS ok, starting setup
 FFT: planning ... GRIDC
 FFT: planning ... GRID_SOFT
 FFT: planning ... GRID
 WAVECAR not read
 entering main loop
       N       E                     dE             d eps       ncg     rms           ort
DAV:   1    -0.654469404388E+05   -0.65447E+05   -0.25959E+05  1280   0.146E+03  
DAV:   2    -0.691904656839E+05   -0.37435E+04   -0.36848E+04  1280   0.360E+02  
DAV:   3    -0.694685777893E+05   -0.27811E+03   -0.27659E+03  1280   0.853E+01  
DAV:   4    -0.694793518439E+05   -0.10774E+02   -0.10736E+02  1280   0.143E+01  
DAV:   5    -0.195575129682E+03    0.69284E+05   -0.38352E+02  1280   0.565E+01  
SDA:   6    -0.180575942351E+03    0.14999E+02   -0.38352E+02  1280   0.446E+02   0.000E+00
 gam= 0.000 g(H,U,f)=  0.411E+02 0.357E+01 0.194E-16 ort(H,U,f) = 0.000E+00 0.000E+00 0.000E+00
 gam= 0.000 trial= 0.400  step=  0.4677 mean=  0.4000
CGA:   7    -0.191006943004E+03   -0.10431E+02   -0.10442E+02  1280   0.479E+01  -0.177E+00
 gam= 0.107 g(H,U,f)=  0.438E+01 0.416E+00 0.194E-13 ort(H,U,f) =-0.139E+01 0.121E+01 0.490E-13
 gam= 0.107 trial= 0.407  step=  0.4713 mean=  0.4068
 final diagonalization occupied
 -----------------------------------------------------------------------------
|                                                                             |
|           W    W    AA    RRRRR   N    N  II  N    N   GGGG   !!!           |
|           W    W   A  A   R    R  NN   N  II  NN   N  G    G  !!!           |
|           W    W  A    A  R    R  N N  N  II  N N  N  G       !!!           |
|           W WW W  AAAAAA  RRRRR   N  N N  II  N  N N  G  GGG   !            |
|           WW  WW  A    A  R   R   N   NN  II  N   NN  G    G                |
|           W    W  A    A  R    R  N    N  II  N    N   GGGG   !!!           |
|                                                                             |
|     The electronic self-consistency was not achieved in the given           |
|     number of steps (NELM). The forces and other quantities evaluated       |
|     might not be reliable so examine the results carefully. If you find     |
|     spurious results, we suggest increasing NELM, if you were close to      |
|     convergence or switching to a different ALGO or adjusting the           |
|     density mixing parameters otherwise.                                    |
|                                                                             |
 -----------------------------------------------------------------------------

   1 F= -.19100694E+03 E0= -.19100694E+03  d E =-.681996E-13  mag=     0.0000     0.0000     0.0000
