 vasp.6.5.1 10Mar25 (build Dec 15 2025 08:11:13) gamma-only                      
 executed on        HPECrayEX_GCC date 2025.12.22  01:35:18
 running 2304 mpi-ranks, with    2 threads/rank, on   16 nodes
 distrk:  each k-point on 2304 cores,    1 groups
 distr:  one band on NCORE=   1 cores, 2304 groups


--------------------------------------------------------------------------------------------------------


 INCAR:
   SYSTEM = TiO2
   NWRITE = 1     verbosity write-flag
   ISTART = 0     0-new 1-cont 2-samecut job
   ISPIN = 1     1-no, 2-yes
   PREC = Accurate   *
   NELM = 10       max.
   EDIFF = 1.0e-7    stopping-criterion for electronic upd.
   ENCUT = 750
   NSW = 0   *
   IBRION = -1   *  ionic relax: -1:no move
   ISYM = 0      symmetry:0-OFF, 1-ON,2-ON+memory conserving for CD
   POTIM = 0.5   *  for MD, timestep in femtoseconds, for relaxation, a step-size scaling factor
   IWAVPR = 0     * wavefunction is extrapolated forward to new ion positions (0\=no,>10 runs in memory, <10 in temporary file, 1\=simple, 2\=more advanced, 3\=mix of 1 and 2)
   ISMEAR = 0     *  part. occup.:-5 Blochl,-4 tet,-3,-2,-1-fermi,0-Gauss,>0MP
   SIGMA = 0.10   *  broadening in eV -4 tet -1-fermi 0-gauss
   IALGO = 48    * algorithm: use only 8 (CG) or 48 (RMM-DIIS)
   LREAL = .TRUE. * non-local projectors in real space+automatic optim
   GGA = 91
   LWAVE = .F.     * write WAVECAR
   LCHARG = .F.     * write CHGCAR and CHG
   LVTOT = .F.      * write the local potential LOCPOT
   LELF = .FALSE.   create ELFCAR file
   LPLANE = .TRUE.
   NSIM = 4
   NCORE = 1

 POTCAR:   PAW_GGA Ti_sv 07Sep2000                
 POTCAR:   PAW_GGA O 05Jan2001                    
 POTCAR:   PAW_GGA Ti_sv 07Sep2000                
  local pseudopotential read in
  partial core-charges read in
  atomic valenz-charges read in
  non local Contribution for L=           0  read in
    real space projection operators read in
  non local Contribution for L=           0  read in
    real space projection operators read in
  non local Contribution for L=           1  read in
    real space projection operators read in
  non local Contribution for L=           1  read in
    real space projection operators read in
  non local Contribution for L=           2  read in
    real space projection operators read in
  non local Contribution for L=           2  read in
    real space projection operators read in
    PAW grid and wavefunctions read in

   number of l-projection  operators is LMAX  =           6
   number of lm-projection operators is LMMAX =          18

 POTCAR:   PAW_GGA O 05Jan2001                    
  local pseudopotential read in
  atomic valenz-charges read in
  non local Contribution for L=           0  read in
    real space projection operators read in
  non local Contribution for L=           0  read in
    real space projection operators read in
  non local Contribution for L=           1  read in
    real space projection operators read in
  non local Contribution for L=           1  read in
    real space projection operators read in
    PAW grid and wavefunctions read in

   number of l-projection  operators is LMAX  =           4
   number of lm-projection operators is LMMAX =           8

 PAW_GGA Ti_sv 07Sep2000                :
 energy of atom  1       EATOM=-1589.1200
 kinetic energy error for atom=    0.0010 (will be added to EATOM!!)
 PAW_GGA O 05Jan2001                    :
 energy of atom  2       EATOM= -433.0277
 kinetic energy error for atom=    0.0059 (will be added to EATOM!!)


 POSCAR: TeraGrid TiO2 Benchmark, Doubled in X di
  positions in cartesian coordinates
  velocities in cartesian coordinates
  No initial velocities read in


 exchange-correlation table for 91
   RHO(1)=    0.500       N(1)  =     2000
   RHO(2)=  100.500       N(2)  =     4000



--------------------------------------------------------------------------------------------------------


 ion  position               nearest neighbor table
     1  0.000  0.000  0.268-   377 1.84   365 1.96   849 1.96   528 1.96  1012 1.96
     2  0.500  0.000  0.268-   378 1.84   527 1.96  1011 1.96   850 1.96   366 1.96
     3  0.083  0.000  0.268-   379 1.84   367 1.96   851 1.96   849 1.96   365 1.96
     4  0.583  0.000  0.268-   380 1.84   368 1.96   852 1.96   850 1.96   366 1.96
     5  0.042  0.167  0.256-   361 1.85   363 1.85   365 2.06   369 2.06   373 2.10   375 2.10
     6  0.542  0.167  0.256-   362 1.85   364 1.85   366 2.06   370 2.06   374 2.10   376 2.10
     7  0.125  0.167  0.256-   363 1.85   441 1.85   367 2.06   371 2.06   375 2.10   453 2.10
     8  0.625  0.167  0.256-   364 1.85   442 1.85   368 2.06   372 2.06   376 2.10   454 2.10
     9  0.000  0.167  0.377-   373 1.89   385 1.99   381 1.99   548 1.99   544 1.99   393 2.10
    10  0.500  0.167  0.377-   374 1.89   547 1.99   543 1.99   386 1.99   382 1.99   394 2.10
    11  0.083  0.167  0.377-   375 1.89   387 1.99   383 1.99   385 1.99   381 1.99   395 2.10
    12  0.583  0.167  0.377-   376 1.89   388 1.99   384 1.99   386 1.99   382 1.99   396 2.10
    13  0.042  0.000  0.384-   389 1.92   391 1.92   385 1.98   861 1.98   377 2.02   379 2.02
    14  0.542  0.000  0.384-   390 1.92   392 1.92   386 1.98   862 1.98   378 2.02   380 2.02
    15  0.125  0.000  0.384-   391 1.92   469 1.92   387 1.98   863 1.98   379 2.02   457 2.02
    16  0.625  0.000  0.384-   392 1.92   470 1.92   388 1.98   864 1.98   380 2.02   458 2.02
    17  0.000  0.000  0.500-   397 1.97   881 1.97   560 1.97  1044 1.97   409 2.01   389 2.01
    18  0.500  0.000  0.500-   559 1.97  1043 1.97   882 1.97   398 1.97   410 2.01   390 2.01
    19  0.083  0.000  0.500-   399 1.97   883 1.97   881 1.97   397 1.97   411 2.01   391 2.01
    20  0.583  0.000  0.500-   400 1.97   884 1.97   882 1.97   398 1.97   412 2.01   392 2.01
    21  0.042  0.167  0.500-   405 1.97   407 1.97   393 1.97   395 1.97   397 2.00   401 2.00
    22  0.542  0.167  0.500-   406 1.97   408 1.97   394 1.97   396 1.97   398 2.00   402 2.00
    23  0.125  0.167  0.500-   407 1.97   485 1.97   473 1.97   395 1.97   399 2.00   403 2.00
    24  0.625  0.167  0.500-   408 1.97   396 1.97   486 1.97   474 1.97   400 2.00   404 2.00
    25  0.000  0.167  0.623-   425 1.89   417 1.99   413 1.99   580 1.99   576 1.99   405 2.10
    26  0.500  0.167  0.623-   426 1.89   579 1.99   575 1.99   418 1.99   414 1.99   406 2.10
    27  0.083  0.167  0.623-   427 1.89   419 1.99   415 1.99   417 1.99   413 1.99   407 2.10
    28  0.583  0.167  0.623-   428 1.89   420 1.99   416 1.99   418 1.99   414 1.99   408 2.10
    29  0.042  0.000  0.616-   409 1.92   411 1.92   417 1.98   893 1.98   421 2.02   423 2.02
    30  0.542  0.000  0.616-   410 1.92   412 1.92   418 1.98   894 1.98   422 2.02   424 2.02
    31  0.125  0.000  0.616-   411 1.92   489 1.92   419 1.98   895 1.98   501 2.02   423 2.02
    32  0.625  0.000  0.616-   412 1.92   490 1.92   420 1.98   896 1.98   424 2.02   502 2.02
    33  0.000  0.000  0.732-   421 1.84   429 1.96   913 1.96   592 1.96  1076 1.96
    34  0.500  0.000  0.732-   422 1.84   591 1.96  1075 1.96   914 1.96   430 1.96
    35  0.083  0.000  0.732-   423 1.84   431 1.96   915 1.96   913 1.96   429 1.96
    36  0.583  0.000  0.732-   424 1.84   432 1.96   916 1.96   914 1.96   430 1.96
    37  0.042  0.167  0.744-   437 1.85   439 1.85   429 2.06   433 2.06   425 2.10   427 2.10
    38  0.542  0.167  0.744-   438 1.85   440 1.85   430 2.06   434 2.06   426 2.10   428 2.10
    39  0.125  0.167  0.744-   439 1.85   517 1.85   431 2.06   435 2.06   505 2.10   427 2.10
    40  0.625  0.167  0.744-   440 1.85   518 1.85   432 2.06   436 2.06   428 2.10   506 2.10
    41  0.167  0.000  0.268-   457 1.84   367 1.96   851 1.96   445 1.96   929 1.96
    42  0.667  0.000  0.268-   458 1.84   446 1.96   930 1.96   852 1.96   368 1.96
    43  0.250  0.000  0.268-   459 1.84   447 1.96   445 1.96   929 1.96   931 1.96
    44  0.750  0.000  0.268-   460 1.84   448 1.96   932 1.96   930 1.96   446 1.96
    45  0.208  0.167  0.256-   443 1.85   441 1.85   445 2.06   449 2.06   455 2.10   453 2.10
    46  0.708  0.167  0.256-   442 1.85   444 1.85   446 2.06   450 2.06   454 2.10   456 2.10
    47  0.292  0.167  0.256-   443 1.85   521 1.85   447 2.06   451 2.06   455 2.10   533 2.10
    48  0.792  0.167  0.256-   444 1.85   522 1.85   448 2.06   452 2.06   456 2.10   534 2.10
    49  0.167  0.167  0.377-   453 1.89   387 1.99   383 1.99   465 1.99   461 1.99   473 2.10
    50  0.667  0.167  0.377-   454 1.89   466 1.99   462 1.99   388 1.99   384 1.99   474 2.10
    51  0.250  0.167  0.377-   455 1.89   465 1.99   467 1.99   461 1.99   463 1.99   475 2.10
    52  0.750  0.167  0.377-   456 1.89   468 1.99   464 1.99   466 1.99   462 1.99   476 2.10
    53  0.208  0.000  0.384-   471 1.92   469 1.92   465 1.98   941 1.98   459 2.02   457 2.02
    54  0.708  0.000  0.384-   470 1.92   472 1.92   466 1.98   942 1.98   458 2.02   460 2.02
    55  0.292  0.000  0.384-   471 1.92   549 1.92   467 1.98   943 1.98   459 2.02   537 2.02
    56  0.792  0.000  0.384-   472 1.92   550 1.92   468 1.98   944 1.98   460 2.02   538 2.02
    57  0.167  0.000  0.500-   399 1.97   883 1.97   477 1.97   961 1.97   489 2.01   469 2.01
    58  0.667  0.000  0.500-   478 1.97   962 1.97   884 1.97   400 1.97   490 2.01   470 2.01
    59  0.250  0.000  0.500-   477 1.97   479 1.97   961 1.97   963 1.97   491 2.01   471 2.01
    60  0.750  0.000  0.500-   480 1.97   964 1.97   962 1.97   478 1.97   492 2.01   472 2.01
    61  0.208  0.167  0.500-   487 1.97   485 1.97   475 1.97   473 1.97   477 2.00   481 2.00
    62  0.708  0.167  0.500-   486 1.97   474 1.97   488 1.97   476 1.97   478 2.00   482 2.00
    63  0.292  0.167  0.500-   487 1.97   565 1.97   475 1.97   553 1.97   479 2.00   483 2.00
    64  0.792  0.167  0.500-   488 1.97   476 1.97   566 1.97   554 1.97   480 2.00   484 2.00
    65  0.167  0.167  0.623-   505 1.89   419 1.99   415 1.99   497 1.99   493 1.99   485 2.10
    66  0.667  0.167  0.623-   506 1.89   498 1.99   494 1.99   420 1.99   416 1.99   486 2.10
    67  0.250  0.167  0.623-   507 1.89   499 1.99   497 1.99   495 1.99   493 1.99   487 2.10
    68  0.750  0.167  0.623-   508 1.89   500 1.99   496 1.99   498 1.99   494 1.99   488 2.10
    69  0.208  0.000  0.616-   491 1.92   489 1.92   497 1.98   973 1.98   503 2.02   501 2.02
    70  0.708  0.000  0.616-   490 1.92   492 1.92   498 1.98   974 1.98   502 2.02   504 2.02
    71  0.292  0.000  0.616-   491 1.92   569 1.92   499 1.98   975 1.98   503 2.02   581 2.02
    72  0.792  0.000  0.616-   492 1.92   570 1.92   500 1.98   976 1.98   504 2.02   582 2.02
    73  0.167  0.000  0.732-   501 1.84   431 1.96   915 1.96   509 1.96   993 1.96
    74  0.667  0.000  0.732-   502 1.84   510 1.96   994 1.96   916 1.96   432 1.96
    75  0.250  0.000  0.732-   503 1.84   509 1.96   511 1.96   993 1.96   995 1.96
    76  0.750  0.000  0.732-   504 1.84   512 1.96   996 1.96   994 1.96   510 1.96
    77  0.208  0.167  0.744-   519 1.85   517 1.85   509 2.06   513 2.06   507 2.10   505 2.10
    78  0.708  0.167  0.744-   518 1.85   520 1.85   510 2.06   514 2.06   506 2.10   508 2.10
    79  0.292  0.167  0.744-   519 1.85   597 1.85   511 2.06   515 2.06   507 2.10   585 2.10
    80  0.792  0.167  0.744-   520 1.85   598 1.85   512 2.06   516 2.06   508 2.10   586 2.10
    81  0.333  0.000  0.268-   537 1.84   525 1.96  1009 1.96   931 1.96   447 1.96
    82  0.833  0.000  0.268-   538 1.84   526 1.96  1010 1.96   932 1.96   448 1.96
    83  0.417  0.000  0.268-   539 1.84   525 1.96  1009 1.96   527 1.96  1011 1.96
    84  0.917  0.000  0.268-   540 1.84   528 1.96  1012 1.96  1010 1.96   526 1.96
    85  0.375  0.167  0.256-   521 1.85   523 1.85   525 2.06   529 2.06   533 2.10   535 2.10
    86  0.875  0.167  0.256-   522 1.85   524 1.85   526 2.06   530 2.06   534 2.10   536 2.10
    87  0.458  0.167  0.256-   362 1.85   523 1.85   527 2.06   531 2.06   374 2.10   535 2.10
    88  0.958  0.167  0.256-   524 1.85   361 1.85   528 2.06   532 2.06   536 2.10   373 2.10
    89  0.333  0.167  0.377-   533 1.89   545 1.99   541 1.99   467 1.99   463 1.99   553 2.10
    90  0.833  0.167  0.377-   534 1.89   546 1.99   542 1.99   468 1.99   464 1.99   554 2.10
    91  0.417  0.167  0.377-   535 1.89   545 1.99   541 1.99   547 1.99   543 1.99   555 2.10
    92  0.917  0.167  0.377-   536 1.89   548 1.99   544 1.99   546 1.99   542 1.99   556 2.10
    93  0.375  0.000  0.384-   549 1.92   551 1.92   545 1.98  1021 1.98   537 2.02   539 2.02
    94  0.875  0.000  0.384-   550 1.92   552 1.92   546 1.98  1022 1.98   538 2.02   540 2.02
    95  0.458  0.000  0.384-   390 1.92   551 1.92   547 1.98  1023 1.98   378 2.02   539 2.02
    96  0.958  0.000  0.384-   552 1.92   389 1.92   548 1.98  1024 1.98   540 2.02   377 2.02
    97  0.333  0.000  0.500-   557 1.97  1041 1.97   963 1.97   479 1.97   569 2.01   549 2.01
    98  0.833  0.000  0.500-   558 1.97  1042 1.97   964 1.97   480 1.97   570 2.01   550 2.01
    99  0.417  0.000  0.500-   557 1.97  1041 1.97   559 1.97  1043 1.97   571 2.01   551 2.01
   100  0.917  0.000  0.500-   560 1.97  1044 1.97  1042 1.97   558 1.97   572 2.01   552 2.01
   101  0.375  0.167  0.500-   565 1.97   567 1.97   553 1.97   555 1.97   557 2.00   561 2.00
   102  0.875  0.167  0.500-   566 1.97   554 1.97   568 1.97   556 1.97   558 2.00   562 2.00
   103  0.458  0.167  0.500-   406 1.97   394 1.97   567 1.97   555 1.97   559 2.00   563 2.00
   104  0.958  0.167  0.500-   568 1.97   556 1.97   405 1.97   393 1.97   560 2.00   564 2.00
   105  0.333  0.167  0.623-   585 1.89   577 1.99   573 1.99   499 1.99   495 1.99   565 2.10
   106  0.833  0.167  0.623-   586 1.89   578 1.99   574 1.99   500 1.99   496 1.99   566 2.10
   107  0.417  0.167  0.623-   587 1.89   577 1.99   573 1.99   579 1.99   575 1.99   567 2.10
   108  0.917  0.167  0.623-   588 1.89   580 1.99   576 1.99   578 1.99   574 1.99   568 2.10
   109  0.375  0.000  0.616-   569 1.92   571 1.92   577 1.98  1053 1.98   583 2.02   581 2.02
   110  0.875  0.000  0.616-   570 1.92   572 1.92   578 1.98  1054 1.98   582 2.02   584 2.02
   111  0.458  0.000  0.616-   410 1.92   571 1.92   579 1.98  1055 1.98   422 2.02   583 2.02
   112  0.958  0.000  0.616-   572 1.92   409 1.92   580 1.98  1056 1.98   584 2.02   421 2.02
   113  0.333  0.000  0.732-   581 1.84   589 1.96  1073 1.96   995 1.96   511 1.96
   114  0.833  0.000  0.732-   582 1.84   590 1.96  1074 1.96   996 1.96   512 1.96
   115  0.417  0.000  0.732-   583 1.84   589 1.96  1073 1.96   591 1.96  1075 1.96
   116  0.917  0.000  0.732-   584 1.84   592 1.96  1076 1.96  1074 1.96   590 1.96
   117  0.375  0.167  0.744-   597 1.85   599 1.85   589 2.06   593 2.06   585 2.10   587 2.10
   118  0.875  0.167  0.744-   598 1.85   600 1.85   590 2.06   594 2.06   586 2.10   588 2.10
   119  0.458  0.167  0.744-   438 1.85   599 1.85   591 2.06   595 2.06   426 2.10   587 2.10
   120  0.958  0.167  0.744-   600 1.85   437 1.85   592 2.06   596 2.06   588 2.10   425 2.10
   121  0.000  0.333  0.268-   617 1.84   605 1.96   369 1.96   532 1.96   768 1.96
   122  0.500  0.333  0.268-   618 1.84   531 1.96   767 1.96   370 1.96   606 1.96
   123  0.083  0.333  0.268-   619 1.84   607 1.96   371 1.96   369 1.96   605 1.96
   124  0.583  0.333  0.268-   620 1.84   608 1.96   372 1.96   370 1.96   606 1.96
   125  0.042  0.500  0.256-   601 1.85   603 1.85   605 2.06   609 2.06   613 2.10   615 2.10
   126  0.542  0.500  0.256-   602 1.85   604 1.85   606 2.06   610 2.06   614 2.10   616 2.10
   127  0.125  0.500  0.256-   603 1.85   681 1.85   611 2.06   607 2.06   615 2.10   693 2.10
   128  0.625  0.500  0.256-   604 1.85   682 1.85   612 2.06   608 2.06   616 2.10   694 2.10
   129  0.000  0.500  0.377-   613 1.89   621 1.99   625 1.99   784 1.99   788 1.99   633 2.10
   130  0.500  0.500  0.377-   614 1.89   783 1.99   787 1.99   622 1.99   626 1.99   634 2.10
   131  0.083  0.500  0.377-   615 1.89   623 1.99   627 1.99   625 1.99   621 1.99   635 2.10
   132  0.583  0.500  0.377-   616 1.89   624 1.99   628 1.99   626 1.99   622 1.99   636 2.10
   133  0.042  0.333  0.384-   629 1.92   631 1.92   625 1.98   381 1.98   617 2.02   619 2.02
   134  0.542  0.333  0.384-   630 1.92   632 1.92   626 1.98   382 1.98   618 2.02   620 2.02
   135  0.125  0.333  0.384-   631 1.92   709 1.92   627 1.98   383 1.98   697 2.02   619 2.02
   136  0.625  0.333  0.384-   632 1.92   710 1.92   628 1.98   384 1.98   620 2.02   698 2.02
   137  0.000  0.333  0.500-   401 1.97   637 1.97   564 1.97   800 1.97   649 2.01   629 2.01
   138  0.500  0.333  0.500-   563 1.97   799 1.97   638 1.97   402 1.97   650 2.01   630 2.01
   139  0.083  0.333  0.500-   403 1.97   639 1.97   637 1.97   401 1.97   651 2.01   631 2.01
   140  0.583  0.333  0.500-   404 1.97   640 1.97   638 1.97   402 1.97   652 2.01   632 2.01
   141  0.042  0.500  0.500-   645 1.97   647 1.97   633 1.97   635 1.97   637 2.00   641 2.00
   142  0.542  0.500  0.500-   646 1.97   648 1.97   634 1.97   636 1.97   638 2.00   642 2.00
   143  0.125  0.500  0.500-   647 1.97   725 1.97   713 1.97   635 1.97   643 2.00   639 2.00
   144  0.625  0.500  0.500-   648 1.97   636 1.97   726 1.97   714 1.97   644 2.00   640 2.00
   145  0.000  0.500  0.623-   665 1.89   657 1.99   653 1.99   816 1.99   820 1.99   645 2.10
   146  0.500  0.500  0.623-   666 1.89   815 1.99   819 1.99   658 1.99   654 1.99   646 2.10
   147  0.083  0.500  0.623-   667 1.89   659 1.99   655 1.99   653 1.99   657 1.99   647 2.10
   148  0.583  0.500  0.623-   668 1.89   660 1.99   656 1.99   654 1.99   658 1.99   648 2.10
   149  0.042  0.333  0.616-   649 1.92   651 1.92   657 1.98   413 1.98   661 2.02   663 2.02
   150  0.542  0.333  0.616-   650 1.92   652 1.92   658 1.98   414 1.98   662 2.02   664 2.02
   151  0.125  0.333  0.616-   651 1.92   729 1.92   659 1.98   415 1.98   663 2.02   741 2.02
   152  0.625  0.333  0.616-   652 1.92   730 1.92   660 1.98   416 1.98   664 2.02   742 2.02
   153  0.000  0.333  0.732-   661 1.84   433 1.96   669 1.96   596 1.96   832 1.96
   154  0.500  0.333  0.732-   662 1.84   595 1.96   831 1.96   670 1.96   434 1.96
   155  0.083  0.333  0.732-   663 1.84   435 1.96   671 1.96   669 1.96   433 1.96
   156  0.583  0.333  0.732-   664 1.84   436 1.96   672 1.96   670 1.96   434 1.96
   157  0.042  0.500  0.744-   677 1.85   679 1.85   669 2.06   673 2.06   665 2.10   667 2.10
   158  0.542  0.500  0.744-   678 1.85   680 1.85   670 2.06   674 2.06   666 2.10   668 2.10
   159  0.125  0.500  0.744-   679 1.85   757 1.85   671 2.06   675 2.06   745 2.10   667 2.10
   160  0.625  0.500  0.744-   680 1.85   758 1.85   672 2.06   676 2.06   668 2.10   746 2.10
   161  0.167  0.333  0.268-   697 1.84   607 1.96   371 1.96   685 1.96   449 1.96
   162  0.667  0.333  0.268-   698 1.84   686 1.96   450 1.96   372 1.96   608 1.96
   163  0.250  0.333  0.268-   699 1.84   451 1.96   685 1.96   687 1.96   449 1.96
   164  0.750  0.333  0.268-   700 1.84   688 1.96   452 1.96   450 1.96   686 1.96
   165  0.208  0.500  0.256-   683 1.85   681 1.85   685 2.06   689 2.06   695 2.10   693 2.10
   166  0.708  0.500  0.256-   682 1.85   684 1.85   686 2.06   690 2.06   694 2.10   696 2.10
   167  0.292  0.500  0.256-   683 1.85   761 1.85   691 2.06   687 2.06   695 2.10   773 2.10
   168  0.792  0.500  0.256-   684 1.85   762 1.85   692 2.06   688 2.06   696 2.10   774 2.10
   169  0.167  0.500  0.377-   693 1.89   627 1.99   623 1.99   701 1.99   705 1.99   713 2.10
   170  0.667  0.500  0.377-   694 1.89   702 1.99   706 1.99   628 1.99   624 1.99   714 2.10
   171  0.250  0.500  0.377-   695 1.89   701 1.99   703 1.99   705 1.99   707 1.99   715 2.10
   172  0.750  0.500  0.377-   696 1.89   704 1.99   708 1.99   706 1.99   702 1.99   716 2.10
   173  0.208  0.333  0.384-   711 1.92   709 1.92   705 1.98   461 1.98   699 2.02   697 2.02
   174  0.708  0.333  0.384-   710 1.92   712 1.92   706 1.98   462 1.98   698 2.02   700 2.02
   175  0.292  0.333  0.384-   711 1.92   789 1.92   707 1.98   463 1.98   699 2.02   777 2.02
   176  0.792  0.333  0.384-   712 1.92   790 1.92   708 1.98   464 1.98   700 2.02   778 2.02
   177  0.167  0.333  0.500-   403 1.97   639 1.97   481 1.97   717 1.97   729 2.01   709 2.01
   178  0.667  0.333  0.500-   482 1.97   718 1.97   640 1.97   404 1.97   730 2.01   710 2.01
   179  0.250  0.333  0.500-   481 1.97   483 1.97   717 1.97   719 1.97   731 2.01   711 2.01
   180  0.750  0.333  0.500-   484 1.97   720 1.97   718 1.97   482 1.97   732 2.01   712 2.01
   181  0.208  0.500  0.500-   727 1.97   725 1.97   715 1.97   713 1.97   717 2.00   721 2.00
   182  0.708  0.500  0.500-   726 1.97   714 1.97   728 1.97   716 1.97   718 2.00   722 2.00
   183  0.292  0.500  0.500-   727 1.97   805 1.97   715 1.97   793 1.97   723 2.00   719 2.00
   184  0.792  0.500  0.500-   728 1.97   716 1.97   806 1.97   794 1.97   724 2.00   720 2.00
   185  0.167  0.500  0.623-   745 1.89   659 1.99   655 1.99   737 1.99   733 1.99   725 2.10
   186  0.667  0.500  0.623-   746 1.89   738 1.99   734 1.99   660 1.99   656 1.99   726 2.10
   187  0.250  0.500  0.623-   747 1.89   735 1.99   737 1.99   739 1.99   733 1.99   727 2.10
   188  0.750  0.500  0.623-   748 1.89   740 1.99   736 1.99   734 1.99   738 1.99   728 2.10
   189  0.208  0.333  0.616-   731 1.92   729 1.92   737 1.98   493 1.98   743 2.02   741 2.02
   190  0.708  0.333  0.616-   730 1.92   732 1.92   738 1.98   494 1.98   742 2.02   744 2.02
   191  0.292  0.333  0.616-   731 1.92   809 1.92   739 1.98   495 1.98   743 2.02   821 2.02
   192  0.792  0.333  0.616-   732 1.92   810 1.92   740 1.98   496 1.98   744 2.02   822 2.02
   193  0.167  0.333  0.732-   741 1.84   671 1.96   435 1.96   513 1.96   749 1.96
   194  0.667  0.333  0.732-   742 1.84   514 1.96   750 1.96   436 1.96   672 1.96
   195  0.250  0.333  0.732-   743 1.84   515 1.96   513 1.96   749 1.96   751 1.96
   196  0.750  0.333  0.732-   744 1.84   516 1.96   752 1.96   750 1.96   514 1.96
   197  0.208  0.500  0.744-   759 1.85   757 1.85   749 2.06   753 2.06   747 2.10   745 2.10
   198  0.708  0.500  0.744-   758 1.85   760 1.85   750 2.06   754 2.06   746 2.10   748 2.10
   199  0.292  0.500  0.744-   759 1.85   837 1.85   751 2.06   755 2.06   747 2.10   825 2.10
   200  0.792  0.500  0.744-   760 1.85   838 1.85   752 2.06   756 2.06   748 2.10   826 2.10
   201  0.333  0.333  0.268-   777 1.84   765 1.96   529 1.96   451 1.96   687 1.96
   202  0.833  0.333  0.268-   778 1.84   766 1.96   530 1.96   452 1.96   688 1.96
   203  0.417  0.333  0.268-   779 1.84   765 1.96   529 1.96   767 1.96   531 1.96
   204  0.917  0.333  0.268-   780 1.84   768 1.96   532 1.96   530 1.96   766 1.96
   205  0.375  0.500  0.256-   761 1.85   763 1.85   765 2.06   769 2.06   773 2.10   775 2.10
   206  0.875  0.500  0.256-   762 1.85   764 1.85   766 2.06   770 2.06   774 2.10   776 2.10
   207  0.458  0.500  0.256-   602 1.85   763 1.85   767 2.06   771 2.06   614 2.10   775 2.10
   208  0.958  0.500  0.256-   764 1.85   601 1.85   768 2.06   772 2.06   776 2.10   613 2.10
   209  0.333  0.500  0.377-   773 1.89   781 1.99   785 1.99   707 1.99   703 1.99   793 2.10
   210  0.833  0.500  0.377-   774 1.89   782 1.99   786 1.99   708 1.99   704 1.99   794 2.10
   211  0.417  0.500  0.377-   775 1.89   781 1.99   785 1.99   783 1.99   787 1.99   795 2.10
   212  0.917  0.500  0.377-   776 1.89   784 1.99   788 1.99   786 1.99   782 1.99   796 2.10
   213  0.375  0.333  0.384-   789 1.92   791 1.92   785 1.98   541 1.98   779 2.02   777 2.02
   214  0.875  0.333  0.384-   790 1.92   792 1.92   786 1.98   542 1.98   778 2.02   780 2.02
   215  0.458  0.333  0.384-   630 1.92   791 1.92   787 1.98   543 1.98   618 2.02   779 2.02
   216  0.958  0.333  0.384-   792 1.92   629 1.92   788 1.98   544 1.98   780 2.02   617 2.02
   217  0.333  0.333  0.500-   561 1.97   797 1.97   719 1.97   483 1.97   809 2.01   789 2.01
   218  0.833  0.333  0.500-   562 1.97   798 1.97   720 1.97   484 1.97   810 2.01   790 2.01
   219  0.417  0.333  0.500-   561 1.97   797 1.97   563 1.97   799 1.97   811 2.01   791 2.01
   220  0.917  0.333  0.500-   564 1.97   800 1.97   798 1.97   562 1.97   812 2.01   792 2.01
   221  0.375  0.500  0.500-   805 1.97   807 1.97   793 1.97   795 1.97   797 2.00   801 2.00
   222  0.875  0.500  0.500-   806 1.97   794 1.97   808 1.97   796 1.97   798 2.00   802 2.00
   223  0.458  0.500  0.500-   646 1.97   634 1.97   807 1.97   795 1.97   803 2.00   799 2.00
   224  0.958  0.500  0.500-   808 1.97   796 1.97   645 1.97   633 1.97   804 2.00   800 2.00
   225  0.333  0.500  0.623-   825 1.89   817 1.99   813 1.99   739 1.99   735 1.99   805 2.10
   226  0.833  0.500  0.623-   826 1.89   818 1.99   814 1.99   740 1.99   736 1.99   806 2.10
   227  0.417  0.500  0.623-   827 1.89   817 1.99   813 1.99   819 1.99   815 1.99   807 2.10
   228  0.917  0.500  0.623-   828 1.89   820 1.99   816 1.99   814 1.99   818 1.99   808 2.10
   229  0.375  0.333  0.616-   809 1.92   811 1.92   817 1.98   573 1.98   821 2.02   823 2.02
   230  0.875  0.333  0.616-   810 1.92   812 1.92   818 1.98   574 1.98   822 2.02   824 2.02
   231  0.458  0.333  0.616-   650 1.92   811 1.92   819 1.98   575 1.98   662 2.02   823 2.02
   232  0.958  0.333  0.616-   812 1.92   649 1.92   820 1.98   576 1.98   824 2.02   661 2.02
   233  0.333  0.333  0.732-   821 1.84   593 1.96   829 1.96   515 1.96   751 1.96
   234  0.833  0.333  0.732-   822 1.84   594 1.96   830 1.96   516 1.96   752 1.96
   235  0.417  0.333  0.732-   823 1.84   593 1.96   829 1.96   595 1.96   831 1.96
   236  0.917  0.333  0.732-   824 1.84   596 1.96   832 1.96   830 1.96   594 1.96
   237  0.375  0.500  0.744-   837 1.85   839 1.85   829 2.06   833 2.06   825 2.10   827 2.10
   238  0.875  0.500  0.744-   838 1.85   840 1.85   830 2.06   834 2.06   826 2.10   828 2.10
   239  0.458  0.500  0.744-   678 1.85   839 1.85   835 2.06   831 2.06   666 2.10   827 2.10
   240  0.958  0.500  0.744-   840 1.85   677 1.85   836 2.06   832 2.06   828 2.10   665 2.10
   241  0.000  0.667  0.268-   857 1.84   845 1.96   609 1.96   772 1.96  1008 1.96
   242  0.500  0.667  0.268-   858 1.84   771 1.96  1007 1.96   610 1.96   846 1.96
   243  0.083  0.667  0.268-   859 1.84   847 1.96   611 1.96   609 1.96   845 1.96
   244  0.583  0.667  0.268-   860 1.84   848 1.96   612 1.96   610 1.96   846 1.96
   245  0.042  0.833  0.256-   841 1.85   843 1.85   849 2.06   845 2.06   853 2.10   855 2.10
   246  0.542  0.833  0.256-   842 1.85   844 1.85   850 2.06   846 2.06   854 2.10   856 2.10
   247  0.125  0.833  0.256-   843 1.85   921 1.85   851 2.06   847 2.06   855 2.10   933 2.10
   248  0.625  0.833  0.256-   844 1.85   922 1.85   852 2.06   848 2.06   856 2.10   934 2.10
   249  0.000  0.833  0.377-   853 1.89   861 1.99   865 1.99  1024 1.99  1028 1.99   873 2.10
   250  0.500  0.833  0.377-   854 1.89  1023 1.99  1027 1.99   862 1.99   866 1.99   874 2.10
   251  0.083  0.833  0.377-   855 1.89   863 1.99   867 1.99   861 1.99   865 1.99   875 2.10
   252  0.583  0.833  0.377-   856 1.89   864 1.99   868 1.99   862 1.99   866 1.99   876 2.10
   253  0.042  0.667  0.384-   869 1.92   871 1.92   621 1.98   865 1.98   857 2.02   859 2.02
   254  0.542  0.667  0.384-   870 1.92   872 1.92   622 1.98   866 1.98   858 2.02   860 2.02
   255  0.125  0.667  0.384-   871 1.92   949 1.92   623 1.98   867 1.98   937 2.02   859 2.02
   256  0.625  0.667  0.384-   872 1.92   950 1.92   624 1.98   868 1.98   860 2.02   938 2.02
   257  0.000  0.667  0.500-   641 1.97   877 1.97   804 1.97  1040 1.97   889 2.01   869 2.01
   258  0.500  0.667  0.500-   803 1.97  1039 1.97   878 1.97   642 1.97   890 2.01   870 2.01
   259  0.083  0.667  0.500-   643 1.97   879 1.97   877 1.97   641 1.97   891 2.01   871 2.01
   260  0.583  0.667  0.500-   644 1.97   880 1.97   878 1.97   642 1.97   892 2.01   872 2.01
   261  0.042  0.833  0.500-   885 1.97   887 1.97   873 1.97   875 1.97   881 2.00   877 2.00
   262  0.542  0.833  0.500-   886 1.97   888 1.97   874 1.97   876 1.97   882 2.00   878 2.00
   263  0.125  0.833  0.500-   887 1.97   965 1.97   953 1.97   875 1.97   883 2.00   879 2.00
   264  0.625  0.833  0.500-   888 1.97   876 1.97   966 1.97   954 1.97   884 2.00   880 2.00
   265  0.000  0.833  0.623-   905 1.89   893 1.99   897 1.99  1056 1.99  1060 1.99   885 2.10
   266  0.500  0.833  0.623-   906 1.89  1055 1.99  1059 1.99   894 1.99   898 1.99   886 2.10
   267  0.083  0.833  0.623-   907 1.89   895 1.99   899 1.99   893 1.99   897 1.99   887 2.10
   268  0.583  0.833  0.623-   908 1.89   896 1.99   900 1.99   894 1.99   898 1.99   888 2.10
   269  0.042  0.667  0.616-   889 1.92   891 1.92   653 1.98   897 1.98   901 2.02   903 2.02
   270  0.542  0.667  0.616-   890 1.92   892 1.92   654 1.98   898 1.98   902 2.02   904 2.02
   271  0.125  0.667  0.616-   891 1.92   969 1.92   655 1.98   899 1.98   903 2.02   981 2.02
   272  0.625  0.667  0.616-   892 1.92   970 1.92   656 1.98   900 1.98   904 2.02   982 2.02
   273  0.000  0.667  0.732-   901 1.84   673 1.96   909 1.96   836 1.96  1072 1.96
   274  0.500  0.667  0.732-   902 1.84   835 1.96  1071 1.96   910 1.96   674 1.96
   275  0.083  0.667  0.732-   903 1.84   675 1.96   911 1.96   909 1.96   673 1.96
   276  0.583  0.667  0.732-   904 1.84   676 1.96   912 1.96   910 1.96   674 1.96
   277  0.042  0.833  0.744-   917 1.85   919 1.85   913 2.06   909 2.06   905 2.10   907 2.10
   278  0.542  0.833  0.744-   918 1.85   920 1.85   914 2.06   910 2.06   906 2.10   908 2.10
   279  0.125  0.833  0.744-   919 1.85   997 1.85   915 2.06   911 2.06   985 2.10   907 2.10
   280  0.625  0.833  0.744-   920 1.85   998 1.85   916 2.06   912 2.06   908 2.10   986 2.10
   281  0.167  0.667  0.268-   937 1.84   847 1.96   611 1.96   925 1.96   689 1.96
   282  0.667  0.667  0.268-   938 1.84   926 1.96   690 1.96   612 1.96   848 1.96
   283  0.250  0.667  0.268-   939 1.84   691 1.96   925 1.96   927 1.96   689 1.96
   284  0.750  0.667  0.268-   940 1.84   928 1.96   692 1.96   690 1.96   926 1.96
   285  0.208  0.833  0.256-   923 1.85   921 1.85   929 2.06   925 2.06   935 2.10   933 2.10
   286  0.708  0.833  0.256-   922 1.85   924 1.85   930 2.06   926 2.06   934 2.10   936 2.10
   287  0.292  0.833  0.256-   923 1.85  1001 1.85   931 2.06   927 2.06   935 2.10  1013 2.10
   288  0.792  0.833  0.256-   924 1.85  1002 1.85   932 2.06   928 2.06   936 2.10  1014 2.10
   289  0.167  0.833  0.377-   933 1.89   863 1.99   867 1.99   941 1.99   945 1.99   953 2.10
   290  0.667  0.833  0.377-   934 1.89   942 1.99   946 1.99   864 1.99   868 1.99   954 2.10
   291  0.250  0.833  0.377-   935 1.89   941 1.99   943 1.99   945 1.99   947 1.99   955 2.10
   292  0.750  0.833  0.377-   936 1.89   944 1.99   948 1.99   942 1.99   946 1.99   956 2.10
   293  0.208  0.667  0.384-   951 1.92   949 1.92   701 1.98   945 1.98   939 2.02   937 2.02
   294  0.708  0.667  0.384-   950 1.92   952 1.92   702 1.98   946 1.98   938 2.02   940 2.02
   295  0.292  0.667  0.384-   951 1.92  1029 1.92   703 1.98   947 1.98   939 2.02  1017 2.02
   296  0.792  0.667  0.384-   952 1.92  1030 1.92   704 1.98   948 1.98   940 2.02  1018 2.02
   297  0.167  0.667  0.500-   643 1.97   879 1.97   721 1.97   957 1.97   969 2.01   949 2.01
   298  0.667  0.667  0.500-   722 1.97   958 1.97   880 1.97   644 1.97   970 2.01   950 2.01
   299  0.250  0.667  0.500-   721 1.97   723 1.97   957 1.97   959 1.97   971 2.01   951 2.01
   300  0.750  0.667  0.500-   724 1.97   960 1.97   958 1.97   722 1.97   972 2.01   952 2.01
   301  0.208  0.833  0.500-   967 1.97   965 1.97   955 1.97   953 1.97   961 2.00   957 2.00
   302  0.708  0.833  0.500-   966 1.97   954 1.97   968 1.97   956 1.97   962 2.00   958 2.00
   303  0.292  0.833  0.500-   967 1.97  1045 1.97   955 1.97  1033 1.97   963 2.00   959 2.00
   304  0.792  0.833  0.500-   968 1.97   956 1.97  1046 1.97  1034 1.97   964 2.00   960 2.00
   305  0.167  0.833  0.623-   985 1.89   895 1.99   899 1.99   973 1.99   977 1.99   965 2.10
   306  0.667  0.833  0.623-   986 1.89   974 1.99   978 1.99   896 1.99   900 1.99   966 2.10
   307  0.250  0.833  0.623-   987 1.89   975 1.99   973 1.99   979 1.99   977 1.99   967 2.10
   308  0.750  0.833  0.623-   988 1.89   976 1.99   980 1.99   974 1.99   978 1.99   968 2.10
   309  0.208  0.667  0.616-   971 1.92   969 1.92   733 1.98   977 1.98   983 2.02   981 2.02
   310  0.708  0.667  0.616-   970 1.92   972 1.92   734 1.98   978 1.98   982 2.02   984 2.02
   311  0.292  0.667  0.616-   971 1.92  1049 1.92   735 1.98   979 1.98   983 2.02  1061 2.02
   312  0.792  0.667  0.616-   972 1.92  1050 1.92   736 1.98   980 1.98   984 2.02  1062 2.02
   313  0.167  0.667  0.732-   981 1.84   911 1.96   675 1.96   753 1.96   989 1.96
   314  0.667  0.667  0.732-   982 1.84   754 1.96   990 1.96   676 1.96   912 1.96
   315  0.250  0.667  0.732-   983 1.84   755 1.96   753 1.96   989 1.96   991 1.96
   316  0.750  0.667  0.732-   984 1.84   756 1.96   992 1.96   990 1.96   754 1.96
   317  0.208  0.833  0.744-   999 1.85   997 1.85   993 2.06   989 2.06   987 2.10   985 2.10
   318  0.708  0.833  0.744-   998 1.85  1000 1.85   994 2.06   990 2.06   986 2.10   988 2.10
   319  0.292  0.833  0.744-   999 1.85  1077 1.85   995 2.06   991 2.06   987 2.10  1065 2.10
   320  0.792  0.833  0.744-  1000 1.85  1078 1.85   996 2.06   992 2.06   988 2.10  1066 2.10
   321  0.333  0.667  0.268-  1017 1.84  1005 1.96   769 1.96   691 1.96   927 1.96
   322  0.833  0.667  0.268-  1018 1.84  1006 1.96   770 1.96   692 1.96   928 1.96
   323  0.417  0.667  0.268-  1019 1.84  1005 1.96   769 1.96  1007 1.96   771 1.96
   324  0.917  0.667  0.268-  1020 1.84  1008 1.96   772 1.96   770 1.96  1006 1.96
   325  0.375  0.833  0.256-  1001 1.85  1003 1.85  1009 2.06  1005 2.06  1013 2.10  1015 2.10
   326  0.875  0.833  0.256-  1002 1.85  1004 1.85  1010 2.06  1006 2.06  1014 2.10  1016 2.10
   327  0.458  0.833  0.256-   842 1.85  1003 1.85  1011 2.06  1007 2.06   854 2.10  1015 2.10
   328  0.958  0.833  0.256-  1004 1.85   841 1.85  1012 2.06  1008 2.06  1016 2.10   853 2.10
   329  0.333  0.833  0.377-  1013 1.89  1021 1.99  1025 1.99   943 1.99   947 1.99  1033 2.10
   330  0.833  0.833  0.377-  1014 1.89  1022 1.99  1026 1.99   944 1.99   948 1.99  1034 2.10
   331  0.417  0.833  0.377-  1015 1.89  1021 1.99  1025 1.99  1023 1.99  1027 1.99  1035 2.10
   332  0.917  0.833  0.377-  1016 1.89  1024 1.99  1028 1.99  1022 1.99  1026 1.99  1036 2.10
   333  0.375  0.667  0.384-  1029 1.92  1031 1.92   781 1.98  1025 1.98  1019 2.02  1017 2.02
   334  0.875  0.667  0.384-  1030 1.92  1032 1.92   782 1.98  1026 1.98  1018 2.02  1020 2.02
   335  0.458  0.667  0.384-   870 1.92  1031 1.92   783 1.98  1027 1.98   858 2.02  1019 2.02
   336  0.958  0.667  0.384-  1032 1.92   869 1.92   784 1.98  1028 1.98  1020 2.02   857 2.02
   337  0.333  0.667  0.500-   801 1.97  1037 1.97   959 1.97   723 1.97  1049 2.01  1029 2.01
   338  0.833  0.667  0.500-   802 1.97  1038 1.97   960 1.97   724 1.97  1050 2.01  1030 2.01
   339  0.417  0.667  0.500-   801 1.97  1037 1.97   803 1.97  1039 1.97  1051 2.01  1031 2.01
   340  0.917  0.667  0.500-   804 1.97  1040 1.97  1038 1.97   802 1.97  1052 2.01  1032 2.01
   341  0.375  0.833  0.500-  1045 1.97  1047 1.97  1033 1.97  1035 1.97  1041 2.00  1037 2.00
   342  0.875  0.833  0.500-  1046 1.97  1034 1.97  1048 1.97  1036 1.97  1042 2.00  1038 2.00
   343  0.458  0.833  0.500-   886 1.97   874 1.97  1047 1.97  1035 1.97  1043 2.00  1039 2.00
   344  0.958  0.833  0.500-  1048 1.97  1036 1.97   885 1.97   873 1.97  1044 2.00  1040 2.00
   345  0.333  0.833  0.623-  1065 1.89  1053 1.99  1057 1.99   975 1.99   979 1.99  1045 2.10
   346  0.833  0.833  0.623-  1066 1.89  1054 1.99  1058 1.99   976 1.99   980 1.99  1046 2.10
   347  0.417  0.833  0.623-  1067 1.89  1053 1.99  1057 1.99  1055 1.99  1059 1.99  1047 2.10
   348  0.917  0.833  0.623-  1068 1.89  1056 1.99  1060 1.99  1054 1.99  1058 1.99  1048 2.10
   349  0.375  0.667  0.616-  1049 1.92  1051 1.92   813 1.98  1057 1.98  1061 2.02  1063 2.02
   350  0.875  0.667  0.616-  1050 1.92  1052 1.92   814 1.98  1058 1.98  1062 2.02  1064 2.02
   351  0.458  0.667  0.616-   890 1.92  1051 1.92   815 1.98  1059 1.98   902 2.02  1063 2.02
   352  0.958  0.667  0.616-  1052 1.92   889 1.92   816 1.98  1060 1.98  1064 2.02   901 2.02
   353  0.333  0.667  0.732-  1061 1.84   833 1.96  1069 1.96   755 1.96   991 1.96
   354  0.833  0.667  0.732-  1062 1.84   834 1.96  1070 1.96   756 1.96   992 1.96
   355  0.417  0.667  0.732-  1063 1.84   833 1.96  1069 1.96   835 1.96  1071 1.96
   356  0.917  0.667  0.732-  1064 1.84   836 1.96  1072 1.96  1070 1.96   834 1.96
   357  0.375  0.833  0.744-  1077 1.85  1079 1.85  1073 2.06  1069 2.06  1065 2.10  1067 2.10
   358  0.875  0.833  0.744-  1078 1.85  1080 1.85  1074 2.06  1070 2.06  1066 2.10  1068 2.10
   359  0.458  0.833  0.744-   918 1.85  1079 1.85  1075 2.06  1071 2.06   906 2.10  1067 2.10
   360  0.958  0.833  0.744-  1080 1.85   917 1.85  1076 2.06  1072 2.06  1068 2.10   905 2.10
   361  0.000  0.167  0.216-     5 1.85    88 1.85
   362  0.500  0.167  0.216-    87 1.85     6 1.85
   363  0.083  0.167  0.216-     7 1.85     5 1.85
   364  0.583  0.167  0.216-     8 1.85     6 1.85
   365  0.042  0.062  0.256-     1 1.96     3 1.96     5 2.06
   366  0.542  0.062  0.256-     2 1.96     4 1.96     6 2.06
   367  0.125  0.062  0.256-     3 1.96    41 1.96     7 2.06
   368  0.625  0.062  0.256-     4 1.96    42 1.96     8 2.06
   369  0.042  0.271  0.256-   121 1.96   123 1.96     5 2.06
   370  0.542  0.271  0.256-   122 1.96   124 1.96     6 2.06
   371  0.125  0.271  0.256-   123 1.96   161 1.96     7 2.06
   372  0.625  0.271  0.256-   124 1.96   162 1.96     8 2.06
   373  0.000  0.167  0.309-     9 1.89     5 2.10    88 2.10
   374  0.500  0.167  0.309-    10 1.89    87 2.10     6 2.10
   375  0.083  0.167  0.309-    11 1.89     7 2.10     5 2.10
   376  0.583  0.167  0.309-    12 1.89     8 2.10     6 2.10
   377  0.000  0.000  0.334-     1 1.84    13 2.02    96 2.02
   378  0.500  0.000  0.334-     2 1.84    95 2.02    14 2.02
   379  0.083  0.000  0.334-     3 1.84    15 2.02    13 2.02
   380  0.583  0.000  0.334-     4 1.84    16 2.02    14 2.02
   381  0.042  0.233  0.381-   133 1.98     9 1.99    11 1.99
   382  0.542  0.233  0.381-   134 1.98    10 1.99    12 1.99
   383  0.125  0.233  0.381-   135 1.98    49 1.99    11 1.99
   384  0.625  0.233  0.381-   136 1.98    12 1.99    50 1.99
   385  0.042  0.100  0.381-    13 1.98     9 1.99    11 1.99
   386  0.542  0.100  0.381-    14 1.98    10 1.99    12 1.99
   387  0.125  0.100  0.381-    15 1.98    11 1.99    49 1.99
   388  0.625  0.100  0.381-    16 1.98    12 1.99    50 1.99
   389  0.000  0.000  0.428-    13 1.92    96 1.92    17 2.01
   390  0.500  0.000  0.428-    95 1.92    14 1.92    18 2.01
   391  0.083  0.000  0.428-    15 1.92    13 1.92    19 2.01
   392  0.583  0.000  0.428-    16 1.92    14 1.92    20 2.01
   393  0.000  0.167  0.453-    21 1.97   104 1.97     9 2.10
   394  0.500  0.167  0.453-   103 1.97    22 1.97    10 2.10
   395  0.083  0.167  0.453-    23 1.97    21 1.97    11 2.10
   396  0.583  0.167  0.453-    24 1.97    22 1.97    12 2.10
   397  0.042  0.065  0.500-    17 1.97    19 1.97    21 2.00
   398  0.542  0.065  0.500-    18 1.97    20 1.97    22 2.00
   399  0.125  0.065  0.500-    19 1.97    57 1.97    23 2.00
   400  0.625  0.065  0.500-    20 1.97    58 1.97    24 2.00
   401  0.042  0.268  0.500-   137 1.97   139 1.97    21 2.00
   402  0.542  0.268  0.500-   138 1.97   140 1.97    22 2.00
   403  0.125  0.268  0.500-   139 1.97   177 1.97    23 2.00
   404  0.625  0.268  0.500-   140 1.97   178 1.97    24 2.00
   405  0.000  0.167  0.547-    21 1.97   104 1.97    25 2.10
   406  0.500  0.167  0.547-   103 1.97    22 1.97    26 2.10
   407  0.083  0.167  0.547-    23 1.97    21 1.97    27 2.10
   408  0.583  0.167  0.547-    24 1.97    22 1.97    28 2.10
   409  0.000  0.000  0.572-    29 1.92   112 1.92    17 2.01
   410  0.500  0.000  0.572-   111 1.92    30 1.92    18 2.01
   411  0.083  0.000  0.572-    31 1.92    29 1.92    19 2.01
   412  0.583  0.000  0.572-    32 1.92    30 1.92    20 2.01
   413  0.042  0.233  0.619-   149 1.98    25 1.99    27 1.99
   414  0.542  0.233  0.619-   150 1.98    26 1.99    28 1.99
   415  0.125  0.233  0.619-   151 1.98    65 1.99    27 1.99
   416  0.625  0.233  0.619-   152 1.98    28 1.99    66 1.99
   417  0.042  0.100  0.619-    29 1.98    25 1.99    27 1.99
   418  0.542  0.100  0.619-    30 1.98    26 1.99    28 1.99
   419  0.125  0.100  0.619-    31 1.98    27 1.99    65 1.99
   420  0.625  0.100  0.619-    32 1.98    28 1.99    66 1.99
   421  0.000  0.000  0.666-    33 1.84    29 2.02   112 2.02
   422  0.500  0.000  0.666-    34 1.84   111 2.02    30 2.02
   423  0.083  0.000  0.666-    35 1.84    31 2.02    29 2.02
   424  0.583  0.000  0.666-    36 1.84    32 2.02    30 2.02
   425  0.000  0.167  0.691-    25 1.89    37 2.10   120 2.10
   426  0.500  0.167  0.691-    26 1.89   119 2.10    38 2.10
   427  0.083  0.167  0.691-    27 1.89    39 2.10    37 2.10
   428  0.583  0.167  0.691-    28 1.89    40 2.10    38 2.10
   429  0.042  0.062  0.744-    33 1.96    35 1.96    37 2.06
   430  0.542  0.062  0.744-    34 1.96    36 1.96    38 2.06
   431  0.125  0.062  0.744-    35 1.96    73 1.96    39 2.06
   432  0.625  0.062  0.744-    36 1.96    74 1.96    40 2.06
   433  0.042  0.271  0.744-   153 1.96   155 1.96    37 2.06
   434  0.542  0.271  0.744-   154 1.96   156 1.96    38 2.06
   435  0.125  0.271  0.744-   155 1.96   193 1.96    39 2.06
   436  0.625  0.271  0.744-   156 1.96   194 1.96    40 2.06
   437  0.000  0.167  0.784-    37 1.85   120 1.85
   438  0.500  0.167  0.784-   119 1.85    38 1.85
   439  0.083  0.167  0.784-    39 1.85    37 1.85
   440  0.583  0.167  0.784-    40 1.85    38 1.85
   441  0.167  0.167  0.216-     7 1.85    45 1.85
   442  0.667  0.167  0.216-    46 1.85     8 1.85
   443  0.250  0.167  0.216-    45 1.85    47 1.85
   444  0.750  0.167  0.216-    48 1.85    46 1.85
   445  0.208  0.062  0.256-    43 1.96    41 1.96    45 2.06
   446  0.708  0.062  0.256-    42 1.96    44 1.96    46 2.06
   447  0.292  0.062  0.256-    43 1.96    81 1.96    47 2.06
   448  0.792  0.062  0.256-    44 1.96    82 1.96    48 2.06
   449  0.208  0.271  0.256-   163 1.96   161 1.96    45 2.06
   450  0.708  0.271  0.256-   162 1.96   164 1.96    46 2.06
   451  0.292  0.271  0.256-   163 1.96   201 1.96    47 2.06
   452  0.792  0.271  0.256-   164 1.96   202 1.96    48 2.06
   453  0.167  0.167  0.309-    49 1.89     7 2.10    45 2.10
   454  0.667  0.167  0.309-    50 1.89    46 2.10     8 2.10
   455  0.250  0.167  0.309-    51 1.89    47 2.10    45 2.10
   456  0.750  0.167  0.309-    52 1.89    48 2.10    46 2.10
   457  0.167  0.000  0.334-    41 1.84    15 2.02    53 2.02
   458  0.667  0.000  0.334-    42 1.84    54 2.02    16 2.02
   459  0.250  0.000  0.334-    43 1.84    53 2.02    55 2.02
   460  0.750  0.000  0.334-    44 1.84    56 2.02    54 2.02
   461  0.208  0.233  0.381-   173 1.98    51 1.99    49 1.99
   462  0.708  0.233  0.381-   174 1.98    50 1.99    52 1.99
   463  0.292  0.233  0.381-   175 1.98    51 1.99    89 1.99
   464  0.792  0.233  0.381-   176 1.98    52 1.99    90 1.99
   465  0.208  0.100  0.381-    53 1.98    51 1.99    49 1.99
   466  0.708  0.100  0.381-    54 1.98    50 1.99    52 1.99
   467  0.292  0.100  0.381-    55 1.98    51 1.99    89 1.99
   468  0.792  0.100  0.381-    56 1.98    52 1.99    90 1.99
   469  0.167  0.000  0.428-    15 1.92    53 1.92    57 2.01
   470  0.667  0.000  0.428-    54 1.92    16 1.92    58 2.01
   471  0.250  0.000  0.428-    53 1.92    55 1.92    59 2.01
   472  0.750  0.000  0.428-    56 1.92    54 1.92    60 2.01
   473  0.167  0.167  0.453-    23 1.97    61 1.97    49 2.10
   474  0.667  0.167  0.453-    62 1.97    24 1.97    50 2.10
   475  0.250  0.167  0.453-    61 1.97    63 1.97    51 2.10
   476  0.750  0.167  0.453-    64 1.97    62 1.97    52 2.10
   477  0.208  0.065  0.500-    59 1.97    57 1.97    61 2.00
   478  0.708  0.065  0.500-    58 1.97    60 1.97    62 2.00
   479  0.292  0.065  0.500-    59 1.97    97 1.97    63 2.00
   480  0.792  0.065  0.500-    60 1.97    98 1.97    64 2.00
   481  0.208  0.268  0.500-   179 1.97   177 1.97    61 2.00
   482  0.708  0.268  0.500-   178 1.97   180 1.97    62 2.00
   483  0.292  0.268  0.500-   179 1.97   217 1.97    63 2.00
   484  0.792  0.268  0.500-   180 1.97   218 1.97    64 2.00
   485  0.167  0.167  0.547-    23 1.97    61 1.97    65 2.10
   486  0.667  0.167  0.547-    62 1.97    24 1.97    66 2.10
   487  0.250  0.167  0.547-    61 1.97    63 1.97    67 2.10
   488  0.750  0.167  0.547-    64 1.97    62 1.97    68 2.10
   489  0.167  0.000  0.572-    31 1.92    69 1.92    57 2.01
   490  0.667  0.000  0.572-    70 1.92    32 1.92    58 2.01
   491  0.250  0.000  0.572-    69 1.92    71 1.92    59 2.01
   492  0.750  0.000  0.572-    72 1.92    70 1.92    60 2.01
   493  0.208  0.233  0.619-   189 1.98    67 1.99    65 1.99
   494  0.708  0.233  0.619-   190 1.98    66 1.99    68 1.99
   495  0.292  0.233  0.619-   191 1.98    67 1.99   105 1.99
   496  0.792  0.233  0.619-   192 1.98    68 1.99   106 1.99
   497  0.208  0.100  0.619-    69 1.98    67 1.99    65 1.99
   498  0.708  0.100  0.619-    70 1.98    66 1.99    68 1.99
   499  0.292  0.100  0.619-    71 1.98    67 1.99   105 1.99
   500  0.792  0.100  0.619-    72 1.98    68 1.99   106 1.99
   501  0.167  0.000  0.666-    73 1.84    31 2.02    69 2.02
   502  0.667  0.000  0.666-    74 1.84    70 2.02    32 2.02
   503  0.250  0.000  0.666-    75 1.84    71 2.02    69 2.02
   504  0.750  0.000  0.666-    76 1.84    72 2.02    70 2.02
   505  0.167  0.167  0.691-    65 1.89    39 2.10    77 2.10
   506  0.667  0.167  0.691-    66 1.89    78 2.10    40 2.10
   507  0.250  0.167  0.691-    67 1.89    77 2.10    79 2.10
   508  0.750  0.167  0.691-    68 1.89    80 2.10    78 2.10
   509  0.208  0.062  0.744-    75 1.96    73 1.96    77 2.06
   510  0.708  0.062  0.744-    74 1.96    76 1.96    78 2.06
   511  0.292  0.062  0.744-    75 1.96   113 1.96    79 2.06
   512  0.792  0.062  0.744-    76 1.96   114 1.96    80 2.06
   513  0.208  0.271  0.744-   195 1.96   193 1.96    77 2.06
   514  0.708  0.271  0.744-   194 1.96   196 1.96    78 2.06
   515  0.292  0.271  0.744-   195 1.96   233 1.96    79 2.06
   516  0.792  0.271  0.744-   196 1.96   234 1.96    80 2.06
   517  0.167  0.167  0.784-    39 1.85    77 1.85
   518  0.667  0.167  0.784-    78 1.85    40 1.85
   519  0.250  0.167  0.784-    77 1.85    79 1.85
   520  0.750  0.167  0.784-    80 1.85    78 1.85
   521  0.333  0.167  0.216-    85 1.85    47 1.85
   522  0.833  0.167  0.216-    86 1.85    48 1.85
   523  0.417  0.167  0.216-    85 1.85    87 1.85
   524  0.917  0.167  0.216-    88 1.85    86 1.85
   525  0.375  0.062  0.256-    81 1.96    83 1.96    85 2.06
   526  0.875  0.062  0.256-    82 1.96    84 1.96    86 2.06
   527  0.458  0.062  0.256-     2 1.96    83 1.96    87 2.06
   528  0.958  0.062  0.256-    84 1.96     1 1.96    88 2.06
   529  0.375  0.271  0.256-   201 1.96   203 1.96    85 2.06
   530  0.875  0.271  0.256-   202 1.96   204 1.96    86 2.06
   531  0.458  0.271  0.256-   122 1.96   203 1.96    87 2.06
   532  0.958  0.271  0.256-   204 1.96   121 1.96    88 2.06
   533  0.333  0.167  0.309-    89 1.89    85 2.10    47 2.10
   534  0.833  0.167  0.309-    90 1.89    86 2.10    48 2.10
   535  0.417  0.167  0.309-    91 1.89    85 2.10    87 2.10
   536  0.917  0.167  0.309-    92 1.89    88 2.10    86 2.10
   537  0.333  0.000  0.334-    81 1.84    93 2.02    55 2.02
   538  0.833  0.000  0.334-    82 1.84    94 2.02    56 2.02
   539  0.417  0.000  0.334-    83 1.84    93 2.02    95 2.02
   540  0.917  0.000  0.334-    84 1.84    96 2.02    94 2.02
   541  0.375  0.233  0.381-   213 1.98    91 1.99    89 1.99
   542  0.875  0.233  0.381-   214 1.98    90 1.99    92 1.99
   543  0.458  0.233  0.381-   215 1.98    10 1.99    91 1.99
   544  0.958  0.233  0.381-   216 1.98    92 1.99     9 1.99
   545  0.375  0.100  0.381-    93 1.98    91 1.99    89 1.99
   546  0.875  0.100  0.381-    94 1.98    90 1.99    92 1.99
   547  0.458  0.100  0.381-    95 1.98    10 1.99    91 1.99
   548  0.958  0.100  0.381-    96 1.98    92 1.99     9 1.99
   549  0.333  0.000  0.428-    93 1.92    55 1.92    97 2.01
   550  0.833  0.000  0.428-    94 1.92    56 1.92    98 2.01
   551  0.417  0.000  0.428-    93 1.92    95 1.92    99 2.01
   552  0.917  0.000  0.428-    96 1.92    94 1.92   100 2.01
   553  0.333  0.167  0.453-   101 1.97    63 1.97    89 2.10
   554  0.833  0.167  0.453-   102 1.97    64 1.97    90 2.10
   555  0.417  0.167  0.453-   101 1.97   103 1.97    91 2.10
   556  0.917  0.167  0.453-   104 1.97   102 1.97    92 2.10
   557  0.375  0.065  0.500-    97 1.97    99 1.97   101 2.00
   558  0.875  0.065  0.500-    98 1.97   100 1.97   102 2.00
   559  0.458  0.065  0.500-    18 1.97    99 1.97   103 2.00
   560  0.958  0.065  0.500-   100 1.97    17 1.97   104 2.00
   561  0.375  0.268  0.500-   217 1.97   219 1.97   101 2.00
   562  0.875  0.268  0.500-   218 1.97   220 1.97   102 2.00
   563  0.458  0.268  0.500-   138 1.97   219 1.97   103 2.00
   564  0.958  0.268  0.500-   220 1.97   137 1.97   104 2.00
   565  0.333  0.167  0.547-   101 1.97    63 1.97   105 2.10
   566  0.833  0.167  0.547-   102 1.97    64 1.97   106 2.10
   567  0.417  0.167  0.547-   101 1.97   103 1.97   107 2.10
   568  0.917  0.167  0.547-   104 1.97   102 1.97   108 2.10
   569  0.333  0.000  0.572-   109 1.92    71 1.92    97 2.01
   570  0.833  0.000  0.572-   110 1.92    72 1.92    98 2.01
   571  0.417  0.000  0.572-   109 1.92   111 1.92    99 2.01
   572  0.917  0.000  0.572-   112 1.92   110 1.92   100 2.01
   573  0.375  0.233  0.619-   229 1.98   107 1.99   105 1.99
   574  0.875  0.233  0.619-   230 1.98   106 1.99   108 1.99
   575  0.458  0.233  0.619-   231 1.98    26 1.99   107 1.99
   576  0.958  0.233  0.619-   232 1.98   108 1.99    25 1.99
   577  0.375  0.100  0.619-   109 1.98   107 1.99   105 1.99
   578  0.875  0.100  0.619-   110 1.98   106 1.99   108 1.99
   579  0.458  0.100  0.619-   111 1.98    26 1.99   107 1.99
   580  0.958  0.100  0.619-   112 1.98   108 1.99    25 1.99
   581  0.333  0.000  0.666-   113 1.84   109 2.02    71 2.02
   582  0.833  0.000  0.666-   114 1.84   110 2.02    72 2.02
   583  0.417  0.000  0.666-   115 1.84   109 2.02   111 2.02
   584  0.917  0.000  0.666-   116 1.84   112 2.02   110 2.02
   585  0.333  0.167  0.691-   105 1.89   117 2.10    79 2.10
   586  0.833  0.167  0.691-   106 1.89   118 2.10    80 2.10
   587  0.417  0.167  0.691-   107 1.89   117 2.10   119 2.10
   588  0.917  0.167  0.691-   108 1.89   120 2.10   118 2.10
   589  0.375  0.062  0.744-   113 1.96   115 1.96   117 2.06
   590  0.875  0.062  0.744-   114 1.96   116 1.96   118 2.06
   591  0.458  0.062  0.744-    34 1.96   115 1.96   119 2.06
   592  0.958  0.062  0.744-   116 1.96    33 1.96   120 2.06
   593  0.375  0.271  0.744-   233 1.96   235 1.96   117 2.06
   594  0.875  0.271  0.744-   234 1.96   236 1.96   118 2.06
   595  0.458  0.271  0.744-   154 1.96   235 1.96   119 2.06
   596  0.958  0.271  0.744-   236 1.96   153 1.96   120 2.06
   597  0.333  0.167  0.784-   117 1.85    79 1.85
   598  0.833  0.167  0.784-   118 1.85    80 1.85
   599  0.417  0.167  0.784-   117 1.85   119 1.85
   600  0.917  0.167  0.784-   120 1.85   118 1.85
   601  0.000  0.500  0.216-   125 1.85   208 1.85
   602  0.500  0.500  0.216-   207 1.85   126 1.85
   603  0.083  0.500  0.216-   127 1.85   125 1.85
   604  0.583  0.500  0.216-   128 1.85   126 1.85
   605  0.042  0.396  0.256-   121 1.96   123 1.96   125 2.06
   606  0.542  0.396  0.256-   122 1.96   124 1.96   126 2.06
   607  0.125  0.396  0.256-   123 1.96   161 1.96   127 2.06
   608  0.625  0.396  0.256-   124 1.96   162 1.96   128 2.06
   609  0.042  0.604  0.256-   241 1.96   243 1.96   125 2.06
   610  0.542  0.604  0.256-   242 1.96   244 1.96   126 2.06
   611  0.125  0.604  0.256-   243 1.96   281 1.96   127 2.06
   612  0.625  0.604  0.256-   244 1.96   282 1.96   128 2.06
   613  0.000  0.500  0.309-   129 1.89   125 2.10   208 2.10
   614  0.500  0.500  0.309-   130 1.89   207 2.10   126 2.10
   615  0.083  0.500  0.309-   131 1.89   127 2.10   125 2.10
   616  0.583  0.500  0.309-   132 1.89   128 2.10   126 2.10
   617  0.000  0.333  0.334-   121 1.84   133 2.02   216 2.02
   618  0.500  0.333  0.334-   122 1.84   215 2.02   134 2.02
   619  0.083  0.333  0.334-   123 1.84   135 2.02   133 2.02
   620  0.583  0.333  0.334-   124 1.84   136 2.02   134 2.02
   621  0.042  0.567  0.381-   253 1.98   129 1.99   131 1.99
   622  0.542  0.567  0.381-   254 1.98   130 1.99   132 1.99
   623  0.125  0.567  0.381-   255 1.98   169 1.99   131 1.99
   624  0.625  0.567  0.381-   256 1.98   132 1.99   170 1.99
   625  0.042  0.433  0.381-   133 1.98   129 1.99   131 1.99
   626  0.542  0.433  0.381-   134 1.98   130 1.99   132 1.99
   627  0.125  0.433  0.381-   135 1.98   131 1.99   169 1.99
   628  0.625  0.433  0.381-   136 1.98   132 1.99   170 1.99
   629  0.000  0.333  0.428-   133 1.92   216 1.92   137 2.01
   630  0.500  0.333  0.428-   215 1.92   134 1.92   138 2.01
   631  0.083  0.333  0.428-   135 1.92   133 1.92   139 2.01
   632  0.583  0.333  0.428-   136 1.92   134 1.92   140 2.01
   633  0.000  0.500  0.453-   141 1.97   224 1.97   129 2.10
   634  0.500  0.500  0.453-   223 1.97   142 1.97   130 2.10
   635  0.083  0.500  0.453-   143 1.97   141 1.97   131 2.10
   636  0.583  0.500  0.453-   144 1.97   142 1.97   132 2.10
   637  0.042  0.399  0.500-   137 1.97   139 1.97   141 2.00
   638  0.542  0.399  0.500-   138 1.97   140 1.97   142 2.00
   639  0.125  0.399  0.500-   139 1.97   177 1.97   143 2.00
   640  0.625  0.399  0.500-   140 1.97   178 1.97   144 2.00
   641  0.042  0.601  0.500-   257 1.97   259 1.97   141 2.00
   642  0.542  0.601  0.500-   258 1.97   260 1.97   142 2.00
   643  0.125  0.601  0.500-   259 1.97   297 1.97   143 2.00
   644  0.625  0.601  0.500-   260 1.97   298 1.97   144 2.00
   645  0.000  0.500  0.547-   141 1.97   224 1.97   145 2.10
   646  0.500  0.500  0.547-   223 1.97   142 1.97   146 2.10
   647  0.083  0.500  0.547-   143 1.97   141 1.97   147 2.10
   648  0.583  0.500  0.547-   144 1.97   142 1.97   148 2.10
   649  0.000  0.333  0.572-   149 1.92   232 1.92   137 2.01
   650  0.500  0.333  0.572-   231 1.92   150 1.92   138 2.01
   651  0.083  0.333  0.572-   151 1.92   149 1.92   139 2.01
   652  0.583  0.333  0.572-   152 1.92   150 1.92   140 2.01
   653  0.042  0.567  0.619-   269 1.98   145 1.99   147 1.99
   654  0.542  0.567  0.619-   270 1.98   146 1.99   148 1.99
   655  0.125  0.567  0.619-   271 1.98   185 1.99   147 1.99
   656  0.625  0.567  0.619-   272 1.98   148 1.99   186 1.99
   657  0.042  0.433  0.619-   149 1.98   145 1.99   147 1.99
   658  0.542  0.433  0.619-   150 1.98   146 1.99   148 1.99
   659  0.125  0.433  0.619-   151 1.98   147 1.99   185 1.99
   660  0.625  0.433  0.619-   152 1.98   148 1.99   186 1.99
   661  0.000  0.333  0.666-   153 1.84   149 2.02   232 2.02
   662  0.500  0.333  0.666-   154 1.84   231 2.02   150 2.02
   663  0.083  0.333  0.666-   155 1.84   151 2.02   149 2.02
   664  0.583  0.333  0.666-   156 1.84   152 2.02   150 2.02
   665  0.000  0.500  0.691-   145 1.89   157 2.10   240 2.10
   666  0.500  0.500  0.691-   146 1.89   239 2.10   158 2.10
   667  0.083  0.500  0.691-   147 1.89   159 2.10   157 2.10
   668  0.583  0.500  0.691-   148 1.89   160 2.10   158 2.10
   669  0.042  0.396  0.744-   153 1.96   155 1.96   157 2.06
   670  0.542  0.396  0.744-   154 1.96   156 1.96   158 2.06
   671  0.125  0.396  0.744-   155 1.96   193 1.96   159 2.06
   672  0.625  0.396  0.744-   156 1.96   194 1.96   160 2.06
   673  0.042  0.604  0.744-   273 1.96   275 1.96   157 2.06
   674  0.542  0.604  0.744-   274 1.96   276 1.96   158 2.06
   675  0.125  0.604  0.744-   275 1.96   313 1.96   159 2.06
   676  0.625  0.604  0.744-   276 1.96   314 1.96   160 2.06
   677  0.000  0.500  0.784-   157 1.85   240 1.85
   678  0.500  0.500  0.784-   239 1.85   158 1.85
   679  0.083  0.500  0.784-   159 1.85   157 1.85
   680  0.583  0.500  0.784-   160 1.85   158 1.85
   681  0.167  0.500  0.216-   127 1.85   165 1.85
   682  0.667  0.500  0.216-   166 1.85   128 1.85
   683  0.250  0.500  0.216-   165 1.85   167 1.85
   684  0.750  0.500  0.216-   168 1.85   166 1.85
   685  0.208  0.396  0.256-   163 1.96   161 1.96   165 2.06
   686  0.708  0.396  0.256-   162 1.96   164 1.96   166 2.06
   687  0.292  0.396  0.256-   163 1.96   201 1.96   167 2.06
   688  0.792  0.396  0.256-   164 1.96   202 1.96   168 2.06
   689  0.208  0.604  0.256-   283 1.96   281 1.96   165 2.06
   690  0.708  0.604  0.256-   282 1.96   284 1.96   166 2.06
   691  0.292  0.604  0.256-   283 1.96   321 1.96   167 2.06
   692  0.792  0.604  0.256-   284 1.96   322 1.96   168 2.06
   693  0.167  0.500  0.309-   169 1.89   127 2.10   165 2.10
   694  0.667  0.500  0.309-   170 1.89   166 2.10   128 2.10
   695  0.250  0.500  0.309-   171 1.89   167 2.10   165 2.10
   696  0.750  0.500  0.309-   172 1.89   168 2.10   166 2.10
   697  0.167  0.333  0.334-   161 1.84   135 2.02   173 2.02
   698  0.667  0.333  0.334-   162 1.84   174 2.02   136 2.02
   699  0.250  0.333  0.334-   163 1.84   173 2.02   175 2.02
   700  0.750  0.333  0.334-   164 1.84   176 2.02   174 2.02
   701  0.208  0.567  0.381-   293 1.98   171 1.99   169 1.99
   702  0.708  0.567  0.381-   294 1.98   170 1.99   172 1.99
   703  0.292  0.567  0.381-   295 1.98   171 1.99   209 1.99
   704  0.792  0.567  0.381-   296 1.98   172 1.99   210 1.99
   705  0.208  0.433  0.381-   173 1.98   171 1.99   169 1.99
   706  0.708  0.433  0.381-   174 1.98   170 1.99   172 1.99
   707  0.292  0.433  0.381-   175 1.98   171 1.99   209 1.99
   708  0.792  0.433  0.381-   176 1.98   172 1.99   210 1.99
   709  0.167  0.333  0.428-   135 1.92   173 1.92   177 2.01
   710  0.667  0.333  0.428-   174 1.92   136 1.92   178 2.01
   711  0.250  0.333  0.428-   173 1.92   175 1.92   179 2.01
   712  0.750  0.333  0.428-   176 1.92   174 1.92   180 2.01
   713  0.167  0.500  0.453-   143 1.97   181 1.97   169 2.10
   714  0.667  0.500  0.453-   182 1.97   144 1.97   170 2.10
   715  0.250  0.500  0.453-   181 1.97   183 1.97   171 2.10
   716  0.750  0.500  0.453-   184 1.97   182 1.97   172 2.10
   717  0.208  0.399  0.500-   179 1.97   177 1.97   181 2.00
   718  0.708  0.399  0.500-   178 1.97   180 1.97   182 2.00
   719  0.292  0.399  0.500-   179 1.97   217 1.97   183 2.00
   720  0.792  0.399  0.500-   180 1.97   218 1.97   184 2.00
   721  0.208  0.601  0.500-   299 1.97   297 1.97   181 2.00
   722  0.708  0.601  0.500-   298 1.97   300 1.97   182 2.00
   723  0.292  0.601  0.500-   299 1.97   337 1.97   183 2.00
   724  0.792  0.601  0.500-   300 1.97   338 1.97   184 2.00
   725  0.167  0.500  0.547-   143 1.97   181 1.97   185 2.10
   726  0.667  0.500  0.547-   182 1.97   144 1.97   186 2.10
   727  0.250  0.500  0.547-   181 1.97   183 1.97   187 2.10
   728  0.750  0.500  0.547-   184 1.97   182 1.97   188 2.10
   729  0.167  0.333  0.572-   151 1.92   189 1.92   177 2.01
   730  0.667  0.333  0.572-   190 1.92   152 1.92   178 2.01
   731  0.250  0.333  0.572-   189 1.92   191 1.92   179 2.01
   732  0.750  0.333  0.572-   192 1.92   190 1.92   180 2.01
   733  0.208  0.567  0.619-   309 1.98   187 1.99   185 1.99
   734  0.708  0.567  0.619-   310 1.98   186 1.99   188 1.99
   735  0.292  0.567  0.619-   311 1.98   187 1.99   225 1.99
   736  0.792  0.567  0.619-   312 1.98   188 1.99   226 1.99
   737  0.208  0.433  0.619-   189 1.98   187 1.99   185 1.99
   738  0.708  0.433  0.619-   190 1.98   186 1.99   188 1.99
   739  0.292  0.433  0.619-   191 1.98   187 1.99   225 1.99
   740  0.792  0.433  0.619-   192 1.98   188 1.99   226 1.99
   741  0.167  0.333  0.666-   193 1.84   151 2.02   189 2.02
   742  0.667  0.333  0.666-   194 1.84   190 2.02   152 2.02
   743  0.250  0.333  0.666-   195 1.84   191 2.02   189 2.02
   744  0.750  0.333  0.666-   196 1.84   192 2.02   190 2.02
   745  0.167  0.500  0.691-   185 1.89   159 2.10   197 2.10
   746  0.667  0.500  0.691-   186 1.89   198 2.10   160 2.10
   747  0.250  0.500  0.691-   187 1.89   197 2.10   199 2.10
   748  0.750  0.500  0.691-   188 1.89   200 2.10   198 2.10
   749  0.208  0.396  0.744-   195 1.96   193 1.96   197 2.06
   750  0.708  0.396  0.744-   194 1.96   196 1.96   198 2.06
   751  0.292  0.396  0.744-   195 1.96   233 1.96   199 2.06
   752  0.792  0.396  0.744-   196 1.96   234 1.96   200 2.06
   753  0.208  0.604  0.744-   315 1.96   313 1.96   197 2.06
   754  0.708  0.604  0.744-   314 1.96   316 1.96   198 2.06
   755  0.292  0.604  0.744-   315 1.96   353 1.96   199 2.06
   756  0.792  0.604  0.744-   316 1.96   354 1.96   200 2.06
   757  0.167  0.500  0.784-   159 1.85   197 1.85
   758  0.667  0.500  0.784-   198 1.85   160 1.85
   759  0.250  0.500  0.784-   197 1.85   199 1.85
   760  0.750  0.500  0.784-   200 1.85   198 1.85
   761  0.333  0.500  0.216-   205 1.85   167 1.85
   762  0.833  0.500  0.216-   206 1.85   168 1.85
   763  0.417  0.500  0.216-   205 1.85   207 1.85
   764  0.917  0.500  0.216-   208 1.85   206 1.85
   765  0.375  0.396  0.256-   201 1.96   203 1.96   205 2.06
   766  0.875  0.396  0.256-   202 1.96   204 1.96   206 2.06
   767  0.458  0.396  0.256-   122 1.96   203 1.96   207 2.06
   768  0.958  0.396  0.256-   204 1.96   121 1.96   208 2.06
   769  0.375  0.604  0.256-   321 1.96   323 1.96   205 2.06
   770  0.875  0.604  0.256-   322 1.96   324 1.96   206 2.06
   771  0.458  0.604  0.256-   242 1.96   323 1.96   207 2.06
   772  0.958  0.604  0.256-   324 1.96   241 1.96   208 2.06
   773  0.333  0.500  0.309-   209 1.89   205 2.10   167 2.10
   774  0.833  0.500  0.309-   210 1.89   206 2.10   168 2.10
   775  0.417  0.500  0.309-   211 1.89   205 2.10   207 2.10
   776  0.917  0.500  0.309-   212 1.89   208 2.10   206 2.10
   777  0.333  0.333  0.334-   201 1.84   213 2.02   175 2.02
   778  0.833  0.333  0.334-   202 1.84   214 2.02   176 2.02
   779  0.417  0.333  0.334-   203 1.84   213 2.02   215 2.02
   780  0.917  0.333  0.334-   204 1.84   216 2.02   214 2.02
   781  0.375  0.567  0.381-   333 1.98   211 1.99   209 1.99
   782  0.875  0.567  0.381-   334 1.98   210 1.99   212 1.99
   783  0.458  0.567  0.381-   335 1.98   130 1.99   211 1.99
   784  0.958  0.567  0.381-   336 1.98   212 1.99   129 1.99
   785  0.375  0.433  0.381-   213 1.98   211 1.99   209 1.99
   786  0.875  0.433  0.381-   214 1.98   210 1.99   212 1.99
   787  0.458  0.433  0.381-   215 1.98   130 1.99   211 1.99
   788  0.958  0.433  0.381-   216 1.98   212 1.99   129 1.99
   789  0.333  0.333  0.428-   213 1.92   175 1.92   217 2.01
   790  0.833  0.333  0.428-   214 1.92   176 1.92   218 2.01
   791  0.417  0.333  0.428-   213 1.92   215 1.92   219 2.01
   792  0.917  0.333  0.428-   216 1.92   214 1.92   220 2.01
   793  0.333  0.500  0.453-   221 1.97   183 1.97   209 2.10
   794  0.833  0.500  0.453-   222 1.97   184 1.97   210 2.10
   795  0.417  0.500  0.453-   221 1.97   223 1.97   211 2.10
   796  0.917  0.500  0.453-   224 1.97   222 1.97   212 2.10
   797  0.375  0.399  0.500-   217 1.97   219 1.97   221 2.00
   798  0.875  0.399  0.500-   218 1.97   220 1.97   222 2.00
   799  0.458  0.399  0.500-   138 1.97   219 1.97   223 2.00
   800  0.958  0.399  0.500-   220 1.97   137 1.97   224 2.00
   801  0.375  0.601  0.500-   337 1.97   339 1.97   221 2.00
   802  0.875  0.601  0.500-   338 1.97   340 1.97   222 2.00
   803  0.458  0.601  0.500-   258 1.97   339 1.97   223 2.00
   804  0.958  0.601  0.500-   340 1.97   257 1.97   224 2.00
   805  0.333  0.500  0.547-   221 1.97   183 1.97   225 2.10
   806  0.833  0.500  0.547-   222 1.97   184 1.97   226 2.10
   807  0.417  0.500  0.547-   221 1.97   223 1.97   227 2.10
   808  0.917  0.500  0.547-   224 1.97   222 1.97   228 2.10
   809  0.333  0.333  0.572-   229 1.92   191 1.92   217 2.01
   810  0.833  0.333  0.572-   230 1.92   192 1.92   218 2.01
   811  0.417  0.333  0.572-   229 1.92   231 1.92   219 2.01
   812  0.917  0.333  0.572-   232 1.92   230 1.92   220 2.01
   813  0.375  0.567  0.619-   349 1.98   227 1.99   225 1.99
   814  0.875  0.567  0.619-   350 1.98   226 1.99   228 1.99
   815  0.458  0.567  0.619-   351 1.98   146 1.99   227 1.99
   816  0.958  0.567  0.619-   352 1.98   228 1.99   145 1.99
   817  0.375  0.433  0.619-   229 1.98   227 1.99   225 1.99
   818  0.875  0.433  0.619-   230 1.98   226 1.99   228 1.99
   819  0.458  0.433  0.619-   231 1.98   146 1.99   227 1.99
   820  0.958  0.433  0.619-   232 1.98   228 1.99   145 1.99
   821  0.333  0.333  0.666-   233 1.84   229 2.02   191 2.02
   822  0.833  0.333  0.666-   234 1.84   230 2.02   192 2.02
   823  0.417  0.333  0.666-   235 1.84   229 2.02   231 2.02
   824  0.917  0.333  0.666-   236 1.84   232 2.02   230 2.02
   825  0.333  0.500  0.691-   225 1.89   237 2.10   199 2.10
   826  0.833  0.500  0.691-   226 1.89   238 2.10   200 2.10
   827  0.417  0.500  0.691-   227 1.89   237 2.10   239 2.10
   828  0.917  0.500  0.691-   228 1.89   240 2.10   238 2.10
   829  0.375  0.396  0.744-   233 1.96   235 1.96   237 2.06
   830  0.875  0.396  0.744-   234 1.96   236 1.96   238 2.06
   831  0.458  0.396  0.744-   154 1.96   235 1.96   239 2.06
   832  0.958  0.396  0.744-   236 1.96   153 1.96   240 2.06
   833  0.375  0.604  0.744-   353 1.96   355 1.96   237 2.06
   834  0.875  0.604  0.744-   354 1.96   356 1.96   238 2.06
   835  0.458  0.604  0.744-   274 1.96   355 1.96   239 2.06
   836  0.958  0.604  0.744-   356 1.96   273 1.96   240 2.06
   837  0.333  0.500  0.784-   237 1.85   199 1.85
   838  0.833  0.500  0.784-   238 1.85   200 1.85
   839  0.417  0.500  0.784-   237 1.85   239 1.85
   840  0.917  0.500  0.784-   240 1.85   238 1.85
   841  0.000  0.833  0.216-   245 1.85   328 1.85
   842  0.500  0.833  0.216-   327 1.85   246 1.85
   843  0.083  0.833  0.216-   247 1.85   245 1.85
   844  0.583  0.833  0.216-   248 1.85   246 1.85
   845  0.042  0.729  0.256-   241 1.96   243 1.96   245 2.06
   846  0.542  0.729  0.256-   242 1.96   244 1.96   246 2.06
   847  0.125  0.729  0.256-   243 1.96   281 1.96   247 2.06
   848  0.625  0.729  0.256-   244 1.96   282 1.96   248 2.06
   849  0.042  0.938  0.256-     1 1.96     3 1.96   245 2.06
   850  0.542  0.938  0.256-     2 1.96     4 1.96   246 2.06
   851  0.125  0.938  0.256-     3 1.96    41 1.96   247 2.06
   852  0.625  0.938  0.256-     4 1.96    42 1.96   248 2.06
   853  0.000  0.833  0.309-   249 1.89   245 2.10   328 2.10
   854  0.500  0.833  0.309-   250 1.89   327 2.10   246 2.10
   855  0.083  0.833  0.309-   251 1.89   247 2.10   245 2.10
   856  0.583  0.833  0.309-   252 1.89   248 2.10   246 2.10
   857  0.000  0.667  0.334-   241 1.84   253 2.02   336 2.02
   858  0.500  0.667  0.334-   242 1.84   335 2.02   254 2.02
   859  0.083  0.667  0.334-   243 1.84   255 2.02   253 2.02
   860  0.583  0.667  0.334-   244 1.84   256 2.02   254 2.02
   861  0.042  0.900  0.381-    13 1.98   249 1.99   251 1.99
   862  0.542  0.900  0.381-    14 1.98   250 1.99   252 1.99
   863  0.125  0.900  0.381-    15 1.98   251 1.99   289 1.99
   864  0.625  0.900  0.381-    16 1.98   252 1.99   290 1.99
   865  0.042  0.767  0.381-   253 1.98   249 1.99   251 1.99
   866  0.542  0.767  0.381-   254 1.98   250 1.99   252 1.99
   867  0.125  0.767  0.381-   255 1.98   251 1.99   289 1.99
   868  0.625  0.767  0.381-   256 1.98   252 1.99   290 1.99
   869  0.000  0.667  0.428-   253 1.92   336 1.92   257 2.01
   870  0.500  0.667  0.428-   335 1.92   254 1.92   258 2.01
   871  0.083  0.667  0.428-   255 1.92   253 1.92   259 2.01
   872  0.583  0.667  0.428-   256 1.92   254 1.92   260 2.01
   873  0.000  0.833  0.453-   261 1.97   344 1.97   249 2.10
   874  0.500  0.833  0.453-   343 1.97   262 1.97   250 2.10
   875  0.083  0.833  0.453-   263 1.97   261 1.97   251 2.10
   876  0.583  0.833  0.453-   264 1.97   262 1.97   252 2.10
   877  0.042  0.732  0.500-   257 1.97   259 1.97   261 2.00
   878  0.542  0.732  0.500-   258 1.97   260 1.97   262 2.00
   879  0.125  0.732  0.500-   259 1.97   297 1.97   263 2.00
   880  0.625  0.732  0.500-   260 1.97   298 1.97   264 2.00
   881  0.042  0.935  0.500-    17 1.97    19 1.97   261 2.00
   882  0.542  0.935  0.500-    18 1.97    20 1.97   262 2.00
   883  0.125  0.935  0.500-    19 1.97    57 1.97   263 2.00
   884  0.625  0.935  0.500-    20 1.97    58 1.97   264 2.00
   885  0.000  0.833  0.547-   261 1.97   344 1.97   265 2.10
   886  0.500  0.833  0.547-   343 1.97   262 1.97   266 2.10
   887  0.083  0.833  0.547-   263 1.97   261 1.97   267 2.10
   888  0.583  0.833  0.547-   264 1.97   262 1.97   268 2.10
   889  0.000  0.667  0.572-   269 1.92   352 1.92   257 2.01
   890  0.500  0.667  0.572-   351 1.92   270 1.92   258 2.01
   891  0.083  0.667  0.572-   271 1.92   269 1.92   259 2.01
   892  0.583  0.667  0.572-   272 1.92   270 1.92   260 2.01
   893  0.042  0.900  0.619-    29 1.98   265 1.99   267 1.99
   894  0.542  0.900  0.619-    30 1.98   266 1.99   268 1.99
   895  0.125  0.900  0.619-    31 1.98   267 1.99   305 1.99
   896  0.625  0.900  0.619-    32 1.98   268 1.99   306 1.99
   897  0.042  0.767  0.619-   269 1.98   265 1.99   267 1.99
   898  0.542  0.767  0.619-   270 1.98   266 1.99   268 1.99
   899  0.125  0.767  0.619-   271 1.98   267 1.99   305 1.99
   900  0.625  0.767  0.619-   272 1.98   268 1.99   306 1.99
   901  0.000  0.667  0.666-   273 1.84   269 2.02   352 2.02
   902  0.500  0.667  0.666-   274 1.84   351 2.02   270 2.02
   903  0.083  0.667  0.666-   275 1.84   271 2.02   269 2.02
   904  0.583  0.667  0.666-   276 1.84   272 2.02   270 2.02
   905  0.000  0.833  0.691-   265 1.89   277 2.10   360 2.10
   906  0.500  0.833  0.691-   266 1.89   359 2.10   278 2.10
   907  0.083  0.833  0.691-   267 1.89   279 2.10   277 2.10
   908  0.583  0.833  0.691-   268 1.89   280 2.10   278 2.10
   909  0.042  0.729  0.744-   273 1.96   275 1.96   277 2.06
   910  0.542  0.729  0.744-   274 1.96   276 1.96   278 2.06
   911  0.125  0.729  0.744-   275 1.96   313 1.96   279 2.06
   912  0.625  0.729  0.744-   276 1.96   314 1.96   280 2.06
   913  0.042  0.938  0.744-    33 1.96    35 1.96   277 2.06
   914  0.542  0.938  0.744-    34 1.96    36 1.96   278 2.06
   915  0.125  0.938  0.744-    35 1.96    73 1.96   279 2.06
   916  0.625  0.938  0.744-    36 1.96    74 1.96   280 2.06
   917  0.000  0.833  0.784-   277 1.85   360 1.85
   918  0.500  0.833  0.784-   359 1.85   278 1.85
   919  0.083  0.833  0.784-   279 1.85   277 1.85
   920  0.583  0.833  0.784-   280 1.85   278 1.85
   921  0.167  0.833  0.216-   247 1.85   285 1.85
   922  0.667  0.833  0.216-   286 1.85   248 1.85
   923  0.250  0.833  0.216-   285 1.85   287 1.85
   924  0.750  0.833  0.216-   288 1.85   286 1.85
   925  0.208  0.729  0.256-   283 1.96   281 1.96   285 2.06
   926  0.708  0.729  0.256-   282 1.96   284 1.96   286 2.06
   927  0.292  0.729  0.256-   283 1.96   321 1.96   287 2.06
   928  0.792  0.729  0.256-   284 1.96   322 1.96   288 2.06
   929  0.208  0.938  0.256-    43 1.96    41 1.96   285 2.06
   930  0.708  0.938  0.256-    42 1.96    44 1.96   286 2.06
   931  0.292  0.938  0.256-    43 1.96    81 1.96   287 2.06
   932  0.792  0.938  0.256-    44 1.96    82 1.96   288 2.06
   933  0.167  0.833  0.309-   289 1.89   247 2.10   285 2.10
   934  0.667  0.833  0.309-   290 1.89   286 2.10   248 2.10
   935  0.250  0.833  0.309-   291 1.89   287 2.10   285 2.10
   936  0.750  0.833  0.309-   292 1.89   288 2.10   286 2.10
   937  0.167  0.667  0.334-   281 1.84   255 2.02   293 2.02
   938  0.667  0.667  0.334-   282 1.84   294 2.02   256 2.02
   939  0.250  0.667  0.334-   283 1.84   293 2.02   295 2.02
   940  0.750  0.667  0.334-   284 1.84   296 2.02   294 2.02
   941  0.208  0.900  0.381-    53 1.98   291 1.99   289 1.99
   942  0.708  0.900  0.381-    54 1.98   290 1.99   292 1.99
   943  0.292  0.900  0.381-    55 1.98   291 1.99   329 1.99
   944  0.792  0.900  0.381-    56 1.98   292 1.99   330 1.99
   945  0.208  0.767  0.381-   293 1.98   291 1.99   289 1.99
   946  0.708  0.767  0.381-   294 1.98   290 1.99   292 1.99
   947  0.292  0.767  0.381-   295 1.98   291 1.99   329 1.99
   948  0.792  0.767  0.381-   296 1.98   292 1.99   330 1.99
   949  0.167  0.667  0.428-   255 1.92   293 1.92   297 2.01
   950  0.667  0.667  0.428-   294 1.92   256 1.92   298 2.01
   951  0.250  0.667  0.428-   293 1.92   295 1.92   299 2.01
   952  0.750  0.667  0.428-   296 1.92   294 1.92   300 2.01
   953  0.167  0.833  0.453-   263 1.97   301 1.97   289 2.10
   954  0.667  0.833  0.453-   302 1.97   264 1.97   290 2.10
   955  0.250  0.833  0.453-   301 1.97   303 1.97   291 2.10
   956  0.750  0.833  0.453-   304 1.97   302 1.97   292 2.10
   957  0.208  0.732  0.500-   299 1.97   297 1.97   301 2.00
   958  0.708  0.732  0.500-   298 1.97   300 1.97   302 2.00
   959  0.292  0.732  0.500-   299 1.97   337 1.97   303 2.00
   960  0.792  0.732  0.500-   300 1.97   338 1.97   304 2.00
   961  0.208  0.935  0.500-    59 1.97    57 1.97   301 2.00
   962  0.708  0.935  0.500-    58 1.97    60 1.97   302 2.00
   963  0.292  0.935  0.500-    59 1.97    97 1.97   303 2.00
   964  0.792  0.935  0.500-    60 1.97    98 1.97   304 2.00
   965  0.167  0.833  0.547-   263 1.97   301 1.97   305 2.10
   966  0.667  0.833  0.547-   302 1.97   264 1.97   306 2.10
   967  0.250  0.833  0.547-   301 1.97   303 1.97   307 2.10
   968  0.750  0.833  0.547-   304 1.97   302 1.97   308 2.10
   969  0.167  0.667  0.572-   271 1.92   309 1.92   297 2.01
   970  0.667  0.667  0.572-   310 1.92   272 1.92   298 2.01
   971  0.250  0.667  0.572-   309 1.92   311 1.92   299 2.01
   972  0.750  0.667  0.572-   312 1.92   310 1.92   300 2.01
   973  0.208  0.900  0.619-    69 1.98   307 1.99   305 1.99
   974  0.708  0.900  0.619-    70 1.98   306 1.99   308 1.99
   975  0.292  0.900  0.619-    71 1.98   307 1.99   345 1.99
   976  0.792  0.900  0.619-    72 1.98   308 1.99   346 1.99
   977  0.208  0.767  0.619-   309 1.98   307 1.99   305 1.99
   978  0.708  0.767  0.619-   310 1.98   306 1.99   308 1.99
   979  0.292  0.767  0.619-   311 1.98   307 1.99   345 1.99
   980  0.792  0.767  0.619-   312 1.98   308 1.99   346 1.99
   981  0.167  0.667  0.666-   313 1.84   271 2.02   309 2.02
   982  0.667  0.667  0.666-   314 1.84   310 2.02   272 2.02
   983  0.250  0.667  0.666-   315 1.84   311 2.02   309 2.02
   984  0.750  0.667  0.666-   316 1.84   312 2.02   310 2.02
   985  0.167  0.833  0.691-   305 1.89   279 2.10   317 2.10
   986  0.667  0.833  0.691-   306 1.89   318 2.10   280 2.10
   987  0.250  0.833  0.691-   307 1.89   317 2.10   319 2.10
   988  0.750  0.833  0.691-   308 1.89   320 2.10   318 2.10
   989  0.208  0.729  0.744-   315 1.96   313 1.96   317 2.06
   990  0.708  0.729  0.744-   314 1.96   316 1.96   318 2.06
   991  0.292  0.729  0.744-   315 1.96   353 1.96   319 2.06
   992  0.792  0.729  0.744-   316 1.96   354 1.96   320 2.06
   993  0.208  0.938  0.744-    75 1.96    73 1.96   317 2.06
   994  0.708  0.938  0.744-    74 1.96    76 1.96   318 2.06
   995  0.292  0.938  0.744-    75 1.96   113 1.96   319 2.06
   996  0.792  0.938  0.744-    76 1.96   114 1.96   320 2.06
   997  0.167  0.833  0.784-   279 1.85   317 1.85
   998  0.667  0.833  0.784-   318 1.85   280 1.85
   999  0.250  0.833  0.784-   317 1.85   319 1.85
  1000  0.750  0.833  0.784-   320 1.85   318 1.85
  1001  0.333  0.833  0.216-   325 1.85   287 1.85
  1002  0.833  0.833  0.216-   326 1.85   288 1.85
  1003  0.417  0.833  0.216-   325 1.85   327 1.85
  1004  0.917  0.833  0.216-   328 1.85   326 1.85
  1005  0.375  0.729  0.256-   321 1.96   323 1.96   325 2.06
  1006  0.875  0.729  0.256-   322 1.96   324 1.96   326 2.06
  1007  0.458  0.729  0.256-   242 1.96   323 1.96   327 2.06
  1008  0.958  0.729  0.256-   324 1.96   241 1.96   328 2.06
  1009  0.375  0.938  0.256-    81 1.96    83 1.96   325 2.06
  1010  0.875  0.938  0.256-    82 1.96    84 1.96   326 2.06
  1011  0.458  0.938  0.256-     2 1.96    83 1.96   327 2.06
  1012  0.958  0.938  0.256-    84 1.96     1 1.96   328 2.06
  1013  0.333  0.833  0.309-   329 1.89   325 2.10   287 2.10
  1014  0.833  0.833  0.309-   330 1.89   326 2.10   288 2.10
  1015  0.417  0.833  0.309-   331 1.89   325 2.10   327 2.10
  1016  0.917  0.833  0.309-   332 1.89   328 2.10   326 2.10
  1017  0.333  0.667  0.334-   321 1.84   333 2.02   295 2.02
  1018  0.833  0.667  0.334-   322 1.84   334 2.02   296 2.02
  1019  0.417  0.667  0.334-   323 1.84   333 2.02   335 2.02
  1020  0.917  0.667  0.334-   324 1.84   336 2.02   334 2.02
  1021  0.375  0.900  0.381-    93 1.98   329 1.99   331 1.99
  1022  0.875  0.900  0.381-    94 1.98   330 1.99   332 1.99
  1023  0.458  0.900  0.381-    95 1.98   250 1.99   331 1.99
  1024  0.958  0.900  0.381-    96 1.98   332 1.99   249 1.99
  1025  0.375  0.767  0.381-   333 1.98   331 1.99   329 1.99
  1026  0.875  0.767  0.381-   334 1.98   330 1.99   332 1.99
  1027  0.458  0.767  0.381-   335 1.98   250 1.99   331 1.99
  1028  0.958  0.767  0.381-   336 1.98   332 1.99   249 1.99
  1029  0.333  0.667  0.428-   333 1.92   295 1.92   337 2.01
  1030  0.833  0.667  0.428-   334 1.92   296 1.92   338 2.01
  1031  0.417  0.667  0.428-   333 1.92   335 1.92   339 2.01
  1032  0.917  0.667  0.428-   336 1.92   334 1.92   340 2.01
  1033  0.333  0.833  0.453-   341 1.97   303 1.97   329 2.10
  1034  0.833  0.833  0.453-   342 1.97   304 1.97   330 2.10
  1035  0.417  0.833  0.453-   341 1.97   343 1.97   331 2.10
  1036  0.917  0.833  0.453-   344 1.97   342 1.97   332 2.10
  1037  0.375  0.732  0.500-   337 1.97   339 1.97   341 2.00
  1038  0.875  0.732  0.500-   338 1.97   340 1.97   342 2.00
  1039  0.458  0.732  0.500-   258 1.97   339 1.97   343 2.00
  1040  0.958  0.732  0.500-   340 1.97   257 1.97   344 2.00
  1041  0.375  0.935  0.500-    97 1.97    99 1.97   341 2.00
  1042  0.875  0.935  0.500-    98 1.97   100 1.97   342 2.00
  1043  0.458  0.935  0.500-    18 1.97    99 1.97   343 2.00
  1044  0.958  0.935  0.500-   100 1.97    17 1.97   344 2.00
  1045  0.333  0.833  0.547-   341 1.97   303 1.97   345 2.10
  1046  0.833  0.833  0.547-   342 1.97   304 1.97   346 2.10
  1047  0.417  0.833  0.547-   341 1.97   343 1.97   347 2.10
  1048  0.917  0.833  0.547-   344 1.97   342 1.97   348 2.10
  1049  0.333  0.667  0.572-   349 1.92   311 1.92   337 2.01
  1050  0.833  0.667  0.572-   350 1.92   312 1.92   338 2.01
  1051  0.417  0.667  0.572-   349 1.92   351 1.92   339 2.01
  1052  0.917  0.667  0.572-   352 1.92   350 1.92   340 2.01
  1053  0.375  0.900  0.619-   109 1.98   345 1.99   347 1.99
  1054  0.875  0.900  0.619-   110 1.98   346 1.99   348 1.99
  1055  0.458  0.900  0.619-   111 1.98   266 1.99   347 1.99
  1056  0.958  0.900  0.619-   112 1.98   348 1.99   265 1.99
  1057  0.375  0.767  0.619-   349 1.98   347 1.99   345 1.99
  1058  0.875  0.767  0.619-   350 1.98   346 1.99   348 1.99
  1059  0.458  0.767  0.619-   351 1.98   266 1.99   347 1.99
  1060  0.958  0.767  0.619-   352 1.98   348 1.99   265 1.99
  1061  0.333  0.667  0.666-   353 1.84   349 2.02   311 2.02
  1062  0.833  0.667  0.666-   354 1.84   350 2.02   312 2.02
  1063  0.417  0.667  0.666-   355 1.84   349 2.02   351 2.02
  1064  0.917  0.667  0.666-   356 1.84   352 2.02   350 2.02
  1065  0.333  0.833  0.691-   345 1.89   357 2.10   319 2.10
  1066  0.833  0.833  0.691-   346 1.89   358 2.10   320 2.10
  1067  0.417  0.833  0.691-   347 1.89   357 2.10   359 2.10
  1068  0.917  0.833  0.691-   348 1.89   360 2.10   358 2.10
  1069  0.375  0.729  0.744-   353 1.96   355 1.96   357 2.06
  1070  0.875  0.729  0.744-   354 1.96   356 1.96   358 2.06
  1071  0.458  0.729  0.744-   274 1.96   355 1.96   359 2.06
  1072  0.958  0.729  0.744-   356 1.96   273 1.96   360 2.06
  1073  0.375  0.938  0.744-   113 1.96   115 1.96   357 2.06
  1074  0.875  0.938  0.744-   114 1.96   116 1.96   358 2.06
  1075  0.458  0.938  0.744-    34 1.96   115 1.96   359 2.06
  1076  0.958  0.938  0.744-   116 1.96    33 1.96   360 2.06
  1077  0.333  0.833  0.784-   357 1.85   319 1.85
  1078  0.833  0.833  0.784-   358 1.85   320 1.85
  1079  0.417  0.833  0.784-   357 1.85   359 1.85
  1080  0.917  0.833  0.784-   360 1.85   358 1.85


IMPORTANT INFORMATION: All symmetrisations will be switched off!
NOSYMM: (Re-)initialisation of all symmetry stuff for point group C_1.


----------------------------------------------------------------------------------------

                                     Primitive cell                                     

  volume of cell :   19527.7888

  direct lattice vectors                    reciprocal lattice vectors
    35.655696000  0.000000000  0.000000000     0.028046010  0.000000000  0.000000000
     0.000000000 19.745271000  0.000000000     0.000000000  0.050645038  0.000000000
     0.000000000  0.000000000 27.737100000     0.000000000  0.000000000  0.036052796

  length of vectors
    35.655696000 19.745271000 27.737100000     0.028046010  0.050645038  0.036052796

  position of ions in fractional coordinates (direct lattice)
     0.000000000  0.000000000  0.268034307
     0.499998654  0.000000000  0.268034307
     0.083333333  0.000000000  0.268034307
     0.583334567  0.000000000  0.268034307
     0.041666667  0.166666667  0.255754224
     0.541666611  0.166666667  0.255754224
     0.125000000  0.166666667  0.255754224
     0.624999720  0.166666667  0.255754224
     0.000000000  0.166666667  0.377426933
     0.499998654  0.166666667  0.377426933
     0.083333333  0.166666667  0.377426933
     0.583334567  0.166666667  0.377426933
     0.041666667  0.000000000  0.383704025
     0.541666611  0.000000000  0.383704025
     0.125000000  0.000000000  0.383704025
     0.624999720  0.000000000  0.383704025
     0.000000000  0.000000000  0.499999391
     0.499998654  0.000000000  0.499999391
     0.083333333  0.000000000  0.499999391
     0.583334567  0.000000000  0.499999391
     0.041666667  0.166666667  0.499999391
     0.541666611  0.166666667  0.499999391
     0.125000000  0.166666667  0.499999391
     0.624999720  0.166666667  0.499999391
     0.000000000  0.166666667  0.622571848
     0.499998654  0.166666667  0.622571848
     0.083333333  0.166666667  0.622571848
     0.583334567  0.166666667  0.622571848
     0.041666667  0.000000000  0.616294757
     0.541666611  0.000000000  0.616294757
     0.125000000  0.000000000  0.616294757
     0.624999720  0.000000000  0.616294757
     0.000000000  0.000000000  0.731964475
     0.499998654  0.000000000  0.731964475
     0.083333333  0.000000000  0.731964475
     0.583334567  0.000000000  0.731964475
     0.041666667  0.166666667  0.744244558
     0.541666611  0.166666667  0.744244558
     0.125000000  0.166666667  0.744244558
     0.624999720  0.166666667  0.744244558
     0.166666667  0.000000000  0.268034307
     0.666667676  0.000000000  0.268034307
     0.250000000  0.000000000  0.268034307
     0.750000785  0.000000000  0.268034307
     0.208333333  0.166666667  0.255754224
     0.708332829  0.166666667  0.255754224
     0.291666667  0.166666667  0.255754224
     0.791665937  0.166666667  0.255754224
     0.166666667  0.166666667  0.377426933
     0.666667676  0.166666667  0.377426933
     0.250000000  0.166666667  0.377426933
     0.750000785  0.166666667  0.377426933
     0.208333333  0.000000000  0.383704025
     0.708332829  0.000000000  0.383704025
     0.291666667  0.000000000  0.383704025
     0.791665937  0.000000000  0.383704025
     0.166666667  0.000000000  0.499999391
     0.666667676  0.000000000  0.499999391
     0.250000000  0.000000000  0.499999391
     0.750000785  0.000000000  0.499999391
     0.208333333  0.166666667  0.499999391
     0.708332829  0.166666667  0.499999391
     0.291666667  0.166666667  0.499999391
     0.791665937  0.166666667  0.499999391
     0.166666667  0.166666667  0.622571848
     0.666667676  0.166666667  0.622571848
     0.250000000  0.166666667  0.622571848
     0.750000785  0.166666667  0.622571848
     0.208333333  0.000000000  0.616294757
     0.708332829  0.000000000  0.616294757
     0.291666667  0.000000000  0.616294757
     0.791665937  0.000000000  0.616294757
     0.166666667  0.000000000  0.731964475
     0.666667676  0.000000000  0.731964475
     0.250000000  0.000000000  0.731964475
     0.750000785  0.000000000  0.731964475
     0.208333333  0.166666667  0.744244558
     0.708332829  0.166666667  0.744244558
     0.291666667  0.166666667  0.744244558
     0.791665937  0.166666667  0.744244558
     0.333333333  0.000000000  0.268034307
     0.833333894  0.000000000  0.268034307
     0.416666667  0.000000000  0.268034307
     0.916667003  0.000000000  0.268034307
     0.375000000  0.166666667  0.255754224
     0.874999046  0.166666667  0.255754224
     0.458333333  0.166666667  0.255754224
     0.958332155  0.166666667  0.255754224
     0.333333333  0.166666667  0.377426933
     0.833333894  0.166666667  0.377426933
     0.416666667  0.166666667  0.377426933
     0.916667003  0.166666667  0.377426933
     0.375000000  0.000000000  0.383704025
     0.874999046  0.000000000  0.383704025
     0.458333333  0.000000000  0.383704025
     0.958332155  0.000000000  0.383704025
     0.333333333  0.000000000  0.499999391
     0.833333894  0.000000000  0.499999391
     0.416666667  0.000000000  0.499999391
     0.916667003  0.000000000  0.499999391
     0.375000000  0.166666667  0.499999391
     0.874999046  0.166666667  0.499999391
     0.458333333  0.166666667  0.499999391
     0.958332155  0.166666667  0.499999391
     0.333333333  0.166666667  0.622571848
     0.833333894  0.166666667  0.622571848
     0.416666667  0.166666667  0.622571848
     0.916667003  0.166666667  0.622571848
     0.375000000  0.000000000  0.616294757
     0.874999046  0.000000000  0.616294757
     0.458333333  0.000000000  0.616294757
     0.958332155  0.000000000  0.616294757
     0.333333333  0.000000000  0.731964475
     0.833333894  0.000000000  0.731964475
     0.416666667  0.000000000  0.731964475
     0.916667003  0.000000000  0.731964475
     0.375000000  0.166666667  0.744244558
     0.874999046  0.166666667  0.744244558
     0.458333333  0.166666667  0.744244558
     0.958332155  0.166666667  0.744244558
     0.000000000  0.333333333  0.268034307
     0.499998654  0.333333333  0.268034307
     0.083333333  0.333333333  0.268034307
     0.583334567  0.333333333  0.268034307
     0.041666667  0.500000000  0.255754224
     0.541666611  0.500000000  0.255754224
     0.125000000  0.500000000  0.255754224
     0.624999720  0.500000000  0.255754224
     0.000000000  0.500000000  0.377426933
     0.499998654  0.500000000  0.377426933
     0.083333333  0.500000000  0.377426933
     0.583334567  0.500000000  0.377426933
     0.041666667  0.333333333  0.383704025
     0.541666611  0.333333333  0.383704025
     0.125000000  0.333333333  0.383704025
     0.624999720  0.333333333  0.383704025
     0.000000000  0.333333333  0.499999391
     0.499998654  0.333333333  0.499999391
     0.083333333  0.333333333  0.499999391
     0.583334567  0.333333333  0.499999391
     0.041666667  0.500000000  0.499999391
     0.541666611  0.500000000  0.499999391
     0.125000000  0.500000000  0.499999391
     0.624999720  0.500000000  0.499999391
     0.000000000  0.500000000  0.622571848
     0.499998654  0.500000000  0.622571848
     0.083333333  0.500000000  0.622571848
     0.583334567  0.500000000  0.622571848
     0.041666667  0.333333333  0.616294757
     0.541666611  0.333333333  0.616294757
     0.125000000  0.333333333  0.616294757
     0.624999720  0.333333333  0.616294757
     0.000000000  0.333333333  0.731964475
     0.499998654  0.333333333  0.731964475
     0.083333333  0.333333333  0.731964475
     0.583334567  0.333333333  0.731964475
     0.041666667  0.500000000  0.744244558
     0.541666611  0.500000000  0.744244558
     0.125000000  0.500000000  0.744244558
     0.624999720  0.500000000  0.744244558
     0.166666667  0.333333333  0.268034307
     0.666667676  0.333333333  0.268034307
     0.250000000  0.333333333  0.268034307
     0.750000785  0.333333333  0.268034307
     0.208333333  0.500000000  0.255754224
     0.708332829  0.500000000  0.255754224
     0.291666667  0.500000000  0.255754224
     0.791665937  0.500000000  0.255754224
     0.166666667  0.500000000  0.377426933
     0.666667676  0.500000000  0.377426933
     0.250000000  0.500000000  0.377426933
     0.750000785  0.500000000  0.377426933
     0.208333333  0.333333333  0.383704025
     0.708332829  0.333333333  0.383704025
     0.291666667  0.333333333  0.383704025
     0.791665937  0.333333333  0.383704025
     0.166666667  0.333333333  0.499999391
     0.666667676  0.333333333  0.499999391
     0.250000000  0.333333333  0.499999391
     0.750000785  0.333333333  0.499999391
     0.208333333  0.500000000  0.499999391
     0.708332829  0.500000000  0.499999391
     0.291666667  0.500000000  0.499999391
     0.791665937  0.500000000  0.499999391
     0.166666667  0.500000000  0.622571848
     0.666667676  0.500000000  0.622571848
     0.250000000  0.500000000  0.622571848
     0.750000785  0.500000000  0.622571848
     0.208333333  0.333333333  0.616294757
     0.708332829  0.333333333  0.616294757
     0.291666667  0.333333333  0.616294757
     0.791665937  0.333333333  0.616294757
     0.166666667  0.333333333  0.731964475
     0.666667676  0.333333333  0.731964475
     0.250000000  0.333333333  0.731964475
     0.750000785  0.333333333  0.731964475
     0.208333333  0.500000000  0.744244558
     0.708332829  0.500000000  0.744244558
     0.291666667  0.500000000  0.744244558
     0.791665937  0.500000000  0.744244558
     0.333333333  0.333333333  0.268034307
     0.833333894  0.333333333  0.268034307
     0.416666667  0.333333333  0.268034307
     0.916667003  0.333333333  0.268034307
     0.375000000  0.500000000  0.255754224
     0.874999046  0.500000000  0.255754224
     0.458333333  0.500000000  0.255754224
     0.958332155  0.500000000  0.255754224
     0.333333333  0.500000000  0.377426933
     0.833333894  0.500000000  0.377426933
     0.416666667  0.500000000  0.377426933
     0.916667003  0.500000000  0.377426933
     0.375000000  0.333333333  0.383704025
     0.874999046  0.333333333  0.383704025
     0.458333333  0.333333333  0.383704025
     0.958332155  0.333333333  0.383704025
     0.333333333  0.333333333  0.499999391
     0.833333894  0.333333333  0.499999391
     0.416666667  0.333333333  0.499999391
     0.916667003  0.333333333  0.499999391
     0.375000000  0.500000000  0.499999391
     0.874999046  0.500000000  0.499999391
     0.458333333  0.500000000  0.499999391
     0.958332155  0.500000000  0.499999391
     0.333333333  0.500000000  0.622571848
     0.833333894  0.500000000  0.622571848
     0.416666667  0.500000000  0.622571848
     0.916667003  0.500000000  0.622571848
     0.375000000  0.333333333  0.616294757
     0.874999046  0.333333333  0.616294757
     0.458333333  0.333333333  0.616294757
     0.958332155  0.333333333  0.616294757
     0.333333333  0.333333333  0.731964475
     0.833333894  0.333333333  0.731964475
     0.416666667  0.333333333  0.731964475
     0.916667003  0.333333333  0.731964475
     0.375000000  0.500000000  0.744244558
     0.874999046  0.500000000  0.744244558
     0.458333333  0.500000000  0.744244558
     0.958332155  0.500000000  0.744244558
     0.000000000  0.666666667  0.268034307
     0.499998654  0.666666667  0.268034307
     0.083333333  0.666666667  0.268034307
     0.583334567  0.666666667  0.268034307
     0.041666667  0.833333333  0.255754224
     0.541666611  0.833333333  0.255754224
     0.125000000  0.833333333  0.255754224
     0.624999720  0.833333333  0.255754224
     0.000000000  0.833333333  0.377426933
     0.499998654  0.833333333  0.377426933
     0.083333333  0.833333333  0.377426933
     0.583334567  0.833333333  0.377426933
     0.041666667  0.666666667  0.383704025
     0.541666611  0.666666667  0.383704025
     0.125000000  0.666666667  0.383704025
     0.624999720  0.666666667  0.383704025
     0.000000000  0.666666667  0.499999391
     0.499998654  0.666666667  0.499999391
     0.083333333  0.666666667  0.499999391
     0.583334567  0.666666667  0.499999391
     0.041666667  0.833333333  0.499999391
     0.541666611  0.833333333  0.499999391
     0.125000000  0.833333333  0.499999391
     0.624999720  0.833333333  0.499999391
     0.000000000  0.833333333  0.622571848
     0.499998654  0.833333333  0.622571848
     0.083333333  0.833333333  0.622571848
     0.583334567  0.833333333  0.622571848
     0.041666667  0.666666667  0.616294757
     0.541666611  0.666666667  0.616294757
     0.125000000  0.666666667  0.616294757
     0.624999720  0.666666667  0.616294757
     0.000000000  0.666666667  0.731964475
     0.499998654  0.666666667  0.731964475
     0.083333333  0.666666667  0.731964475
     0.583334567  0.666666667  0.731964475
     0.041666667  0.833333333  0.744244558
     0.541666611  0.833333333  0.744244558
     0.125000000  0.833333333  0.744244558
     0.624999720  0.833333333  0.744244558
     0.166666667  0.666666667  0.268034307
     0.666667676  0.666666667  0.268034307
     0.250000000  0.666666667  0.268034307
     0.750000785  0.666666667  0.268034307
     0.208333333  0.833333333  0.255754224
     0.708332829  0.833333333  0.255754224
     0.291666667  0.833333333  0.255754224
     0.791665937  0.833333333  0.255754224
     0.166666667  0.833333333  0.377426933
     0.666667676  0.833333333  0.377426933
     0.250000000  0.833333333  0.377426933
     0.750000785  0.833333333  0.377426933
     0.208333333  0.666666667  0.383704025
     0.708332829  0.666666667  0.383704025
     0.291666667  0.666666667  0.383704025
     0.791665937  0.666666667  0.383704025
     0.166666667  0.666666667  0.499999391
     0.666667676  0.666666667  0.499999391
     0.250000000  0.666666667  0.499999391
     0.750000785  0.666666667  0.499999391
     0.208333333  0.833333333  0.499999391
     0.708332829  0.833333333  0.499999391
     0.291666667  0.833333333  0.499999391
     0.791665937  0.833333333  0.499999391
     0.166666667  0.833333333  0.622571848
     0.666667676  0.833333333  0.622571848
     0.250000000  0.833333333  0.622571848
     0.750000785  0.833333333  0.622571848
     0.208333333  0.666666667  0.616294757
     0.708332829  0.666666667  0.616294757
     0.291666667  0.666666667  0.616294757
     0.791665937  0.666666667  0.616294757
     0.166666667  0.666666667  0.731964475
     0.666667676  0.666666667  0.731964475
     0.250000000  0.666666667  0.731964475
     0.750000785  0.666666667  0.731964475
     0.208333333  0.833333333  0.744244558
     0.708332829  0.833333333  0.744244558
     0.291666667  0.833333333  0.744244558
     0.791665937  0.833333333  0.744244558
     0.333333333  0.666666667  0.268034307
     0.833333894  0.666666667  0.268034307
     0.416666667  0.666666667  0.268034307
     0.916667003  0.666666667  0.268034307
     0.375000000  0.833333333  0.255754224
     0.874999046  0.833333333  0.255754224
     0.458333333  0.833333333  0.255754224
     0.958332155  0.833333333  0.255754224
     0.333333333  0.833333333  0.377426933
     0.833333894  0.833333333  0.377426933
     0.416666667  0.833333333  0.377426933
     0.916667003  0.833333333  0.377426933
     0.375000000  0.666666667  0.383704025
     0.874999046  0.666666667  0.383704025
     0.458333333  0.666666667  0.383704025
     0.958332155  0.666666667  0.383704025
     0.333333333  0.666666667  0.499999391
     0.833333894  0.666666667  0.499999391
     0.416666667  0.666666667  0.499999391
     0.916667003  0.666666667  0.499999391
     0.375000000  0.833333333  0.499999391
     0.874999046  0.833333333  0.499999391
     0.458333333  0.833333333  0.499999391
     0.958332155  0.833333333  0.499999391
     0.333333333  0.833333333  0.622571848
     0.833333894  0.833333333  0.622571848
     0.416666667  0.833333333  0.622571848
     0.916667003  0.833333333  0.622571848
     0.375000000  0.666666667  0.616294757
     0.874999046  0.666666667  0.616294757
     0.458333333  0.666666667  0.616294757
     0.958332155  0.666666667  0.616294757
     0.333333333  0.666666667  0.731964475
     0.833333894  0.666666667  0.731964475
     0.416666667  0.666666667  0.731964475
     0.916667003  0.666666667  0.731964475
     0.375000000  0.833333333  0.744244558
     0.874999046  0.833333333  0.744244558
     0.458333333  0.833333333  0.744244558
     0.958332155  0.833333333  0.744244558
     0.000000000  0.166666667  0.216094601
     0.499998654  0.166666667  0.216094601
     0.083333333  0.166666667  0.216094601
     0.583334567  0.166666667  0.216094601
     0.041666667  0.062458111  0.256340397
     0.541666611  0.062458111  0.256340397
     0.125000000  0.062458111  0.256340397
     0.624999720  0.062458111  0.256340397
     0.041666667  0.270875222  0.256340397
     0.541666611  0.270875222  0.256340397
     0.125000000  0.270875222  0.256340397
     0.624999720  0.270875222  0.256340397
     0.000000000  0.166666667  0.309183199
     0.499998654  0.166666667  0.309183199
     0.083333333  0.166666667  0.309183199
     0.583334567  0.166666667  0.309183199
     0.000000000  0.000000000  0.334447401
     0.499998654  0.000000000  0.334447401
     0.083333333  0.000000000  0.334447401
     0.583334567  0.000000000  0.334447401
     0.041666667  0.233373700  0.380895943
     0.541666611  0.233373700  0.380895943
     0.125000000  0.233373700  0.380895943
     0.624999720  0.233373700  0.380895943
     0.041666667  0.099959633  0.380895943
     0.541666611  0.099959633  0.380895943
     0.125000000  0.099959633  0.380895943
     0.624999720  0.099959633  0.380895943
     0.000000000  0.000000000  0.427533879
     0.499998654  0.000000000  0.427533879
     0.083333333  0.000000000  0.427533879
     0.583334567  0.000000000  0.427533879
     0.000000000  0.166666667  0.453310542
     0.499998654  0.166666667  0.453310542
     0.083333333  0.166666667  0.453310542
     0.583334567  0.166666667  0.453310542
     0.041666667  0.065168825  0.499999391
     0.541666611  0.065168825  0.499999391
     0.125000000  0.065168825  0.499999391
     0.624999720  0.065168825  0.499999391
     0.041666667  0.268164508  0.499999391
     0.541666611  0.268164508  0.499999391
     0.125000000  0.268164508  0.499999391
     0.624999720  0.268164508  0.499999391
     0.000000000  0.166666667  0.546688240
     0.499998654  0.166666667  0.546688240
     0.083333333  0.166666667  0.546688240
     0.583334567  0.166666667  0.546688240
     0.000000000  0.000000000  0.572464903
     0.499998654  0.000000000  0.572464903
     0.083333333  0.000000000  0.572464903
     0.583334567  0.000000000  0.572464903
     0.041666667  0.233373700  0.619102838
     0.541666611  0.233373700  0.619102838
     0.125000000  0.233373700  0.619102838
     0.624999720  0.233373700  0.619102838
     0.041666667  0.099959633  0.619102838
     0.541666611  0.099959633  0.619102838
     0.125000000  0.099959633  0.619102838
     0.624999720  0.099959633  0.619102838
     0.000000000  0.000000000  0.665551381
     0.499998654  0.000000000  0.665551381
     0.083333333  0.000000000  0.665551381
     0.583334567  0.000000000  0.665551381
     0.000000000  0.166666667  0.690815583
     0.499998654  0.166666667  0.690815583
     0.083333333  0.166666667  0.690815583
     0.583334567  0.166666667  0.690815583
     0.041666667  0.062458111  0.743658385
     0.541666611  0.062458111  0.743658385
     0.125000000  0.062458111  0.743658385
     0.624999720  0.062458111  0.743658385
     0.041666667  0.270875222  0.743658385
     0.541666611  0.270875222  0.743658385
     0.125000000  0.270875222  0.743658385
     0.624999720  0.270875222  0.743658385
     0.000000000  0.166666667  0.783904181
     0.499998654  0.166666667  0.783904181
     0.083333333  0.166666667  0.783904181
     0.583334567  0.166666667  0.783904181
     0.166666667  0.166666667  0.216094601
     0.666667676  0.166666667  0.216094601
     0.250000000  0.166666667  0.216094601
     0.750000785  0.166666667  0.216094601
     0.208333333  0.062458111  0.256340397
     0.708332829  0.062458111  0.256340397
     0.291666667  0.062458111  0.256340397
     0.791665937  0.062458111  0.256340397
     0.208333333  0.270875222  0.256340397
     0.708332829  0.270875222  0.256340397
     0.291666667  0.270875222  0.256340397
     0.791665937  0.270875222  0.256340397
     0.166666667  0.166666667  0.309183199
     0.666667676  0.166666667  0.309183199
     0.250000000  0.166666667  0.309183199
     0.750000785  0.166666667  0.309183199
     0.166666667  0.000000000  0.334447401
     0.666667676  0.000000000  0.334447401
     0.250000000  0.000000000  0.334447401
     0.750000785  0.000000000  0.334447401
     0.208333333  0.233373700  0.380895943
     0.708332829  0.233373700  0.380895943
     0.291666667  0.233373700  0.380895943
     0.791665937  0.233373700  0.380895943
     0.208333333  0.099959633  0.380895943
     0.708332829  0.099959633  0.380895943
     0.291666667  0.099959633  0.380895943
     0.791665937  0.099959633  0.380895943
     0.166666667  0.000000000  0.427533879
     0.666667676  0.000000000  0.427533879
     0.250000000  0.000000000  0.427533879
     0.750000785  0.000000000  0.427533879
     0.166666667  0.166666667  0.453310542
     0.666667676  0.166666667  0.453310542
     0.250000000  0.166666667  0.453310542
     0.750000785  0.166666667  0.453310542
     0.208333333  0.065168825  0.499999391
     0.708332829  0.065168825  0.499999391
     0.291666667  0.065168825  0.499999391
     0.791665937  0.065168825  0.499999391
     0.208333333  0.268164508  0.499999391
     0.708332829  0.268164508  0.499999391
     0.291666667  0.268164508  0.499999391
     0.791665937  0.268164508  0.499999391
     0.166666667  0.166666667  0.546688240
     0.666667676  0.166666667  0.546688240
     0.250000000  0.166666667  0.546688240
     0.750000785  0.166666667  0.546688240
     0.166666667  0.000000000  0.572464903
     0.666667676  0.000000000  0.572464903
     0.250000000  0.000000000  0.572464903
     0.750000785  0.000000000  0.572464903
     0.208333333  0.233373700  0.619102838
     0.708332829  0.233373700  0.619102838
     0.291666667  0.233373700  0.619102838
     0.791665937  0.233373700  0.619102838
     0.208333333  0.099959633  0.619102838
     0.708332829  0.099959633  0.619102838
     0.291666667  0.099959633  0.619102838
     0.791665937  0.099959633  0.619102838
     0.166666667  0.000000000  0.665551381
     0.666667676  0.000000000  0.665551381
     0.250000000  0.000000000  0.665551381
     0.750000785  0.000000000  0.665551381
     0.166666667  0.166666667  0.690815583
     0.666667676  0.166666667  0.690815583
     0.250000000  0.166666667  0.690815583
     0.750000785  0.166666667  0.690815583
     0.208333333  0.062458111  0.743658385
     0.708332829  0.062458111  0.743658385
     0.291666667  0.062458111  0.743658385
     0.791665937  0.062458111  0.743658385
     0.208333333  0.270875222  0.743658385
     0.708332829  0.270875222  0.743658385
     0.291666667  0.270875222  0.743658385
     0.791665937  0.270875222  0.743658385
     0.166666667  0.166666667  0.783904181
     0.666667676  0.166666667  0.783904181
     0.250000000  0.166666667  0.783904181
     0.750000785  0.166666667  0.783904181
     0.333333333  0.166666667  0.216094601
     0.833333894  0.166666667  0.216094601
     0.416666667  0.166666667  0.216094601
     0.916667003  0.166666667  0.216094601
     0.375000000  0.062458111  0.256340397
     0.874999046  0.062458111  0.256340397
     0.458333333  0.062458111  0.256340397
     0.958332155  0.062458111  0.256340397
     0.375000000  0.270875222  0.256340397
     0.874999046  0.270875222  0.256340397
     0.458333333  0.270875222  0.256340397
     0.958332155  0.270875222  0.256340397
     0.333333333  0.166666667  0.309183199
     0.833333894  0.166666667  0.309183199
     0.416666667  0.166666667  0.309183199
     0.916667003  0.166666667  0.309183199
     0.333333333  0.000000000  0.334447401
     0.833333894  0.000000000  0.334447401
     0.416666667  0.000000000  0.334447401
     0.916667003  0.000000000  0.334447401
     0.375000000  0.233373700  0.380895943
     0.874999046  0.233373700  0.380895943
     0.458333333  0.233373700  0.380895943
     0.958332155  0.233373700  0.380895943
     0.375000000  0.099959633  0.380895943
     0.874999046  0.099959633  0.380895943
     0.458333333  0.099959633  0.380895943
     0.958332155  0.099959633  0.380895943
     0.333333333  0.000000000  0.427533879
     0.833333894  0.000000000  0.427533879
     0.416666667  0.000000000  0.427533879
     0.916667003  0.000000000  0.427533879
     0.333333333  0.166666667  0.453310542
     0.833333894  0.166666667  0.453310542
     0.416666667  0.166666667  0.453310542
     0.916667003  0.166666667  0.453310542
     0.375000000  0.065168825  0.499999391
     0.874999046  0.065168825  0.499999391
     0.458333333  0.065168825  0.499999391
     0.958332155  0.065168825  0.499999391
     0.375000000  0.268164508  0.499999391
     0.874999046  0.268164508  0.499999391
     0.458333333  0.268164508  0.499999391
     0.958332155  0.268164508  0.499999391
     0.333333333  0.166666667  0.546688240
     0.833333894  0.166666667  0.546688240
     0.416666667  0.166666667  0.546688240
     0.916667003  0.166666667  0.546688240
     0.333333333  0.000000000  0.572464903
     0.833333894  0.000000000  0.572464903
     0.416666667  0.000000000  0.572464903
     0.916667003  0.000000000  0.572464903
     0.375000000  0.233373700  0.619102838
     0.874999046  0.233373700  0.619102838
     0.458333333  0.233373700  0.619102838
     0.958332155  0.233373700  0.619102838
     0.375000000  0.099959633  0.619102838
     0.874999046  0.099959633  0.619102838
     0.458333333  0.099959633  0.619102838
     0.958332155  0.099959633  0.619102838
     0.333333333  0.000000000  0.665551381
     0.833333894  0.000000000  0.665551381
     0.416666667  0.000000000  0.665551381
     0.916667003  0.000000000  0.665551381
     0.333333333  0.166666667  0.690815583
     0.833333894  0.166666667  0.690815583
     0.416666667  0.166666667  0.690815583
     0.916667003  0.166666667  0.690815583
     0.375000000  0.062458111  0.743658385
     0.874999046  0.062458111  0.743658385
     0.458333333  0.062458111  0.743658385
     0.958332155  0.062458111  0.743658385
     0.375000000  0.270875222  0.743658385
     0.874999046  0.270875222  0.743658385
     0.458333333  0.270875222  0.743658385
     0.958332155  0.270875222  0.743658385
     0.333333333  0.166666667  0.783904181
     0.833333894  0.166666667  0.783904181
     0.416666667  0.166666667  0.783904181
     0.916667003  0.166666667  0.783904181
     0.000000000  0.500000000  0.216094601
     0.499998654  0.500000000  0.216094601
     0.083333333  0.500000000  0.216094601
     0.583334567  0.500000000  0.216094601
     0.041666667  0.395791444  0.256340397
     0.541666611  0.395791444  0.256340397
     0.125000000  0.395791444  0.256340397
     0.624999720  0.395791444  0.256340397
     0.041666667  0.604208556  0.256340397
     0.541666611  0.604208556  0.256340397
     0.125000000  0.604208556  0.256340397
     0.624999720  0.604208556  0.256340397
     0.000000000  0.500000000  0.309183199
     0.499998654  0.500000000  0.309183199
     0.083333333  0.500000000  0.309183199
     0.583334567  0.500000000  0.309183199
     0.000000000  0.333333333  0.334447401
     0.499998654  0.333333333  0.334447401
     0.083333333  0.333333333  0.334447401
     0.583334567  0.333333333  0.334447401
     0.041666667  0.566707033  0.380895943
     0.541666611  0.566707033  0.380895943
     0.125000000  0.566707033  0.380895943
     0.624999720  0.566707033  0.380895943
     0.041666667  0.433292967  0.380895943
     0.541666611  0.433292967  0.380895943
     0.125000000  0.433292967  0.380895943
     0.624999720  0.433292967  0.380895943
     0.000000000  0.333333333  0.427533879
     0.499998654  0.333333333  0.427533879
     0.083333333  0.333333333  0.427533879
     0.583334567  0.333333333  0.427533879
     0.000000000  0.500000000  0.453310542
     0.499998654  0.500000000  0.453310542
     0.083333333  0.500000000  0.453310542
     0.583334567  0.500000000  0.453310542
     0.041666667  0.398502159  0.499999391
     0.541666611  0.398502159  0.499999391
     0.125000000  0.398502159  0.499999391
     0.624999720  0.398502159  0.499999391
     0.041666667  0.601497841  0.499999391
     0.541666611  0.601497841  0.499999391
     0.125000000  0.601497841  0.499999391
     0.624999720  0.601497841  0.499999391
     0.000000000  0.500000000  0.546688240
     0.499998654  0.500000000  0.546688240
     0.083333333  0.500000000  0.546688240
     0.583334567  0.500000000  0.546688240
     0.000000000  0.333333333  0.572464903
     0.499998654  0.333333333  0.572464903
     0.083333333  0.333333333  0.572464903
     0.583334567  0.333333333  0.572464903
     0.041666667  0.566707033  0.619102838
     0.541666611  0.566707033  0.619102838
     0.125000000  0.566707033  0.619102838
     0.624999720  0.566707033  0.619102838
     0.041666667  0.433292967  0.619102838
     0.541666611  0.433292967  0.619102838
     0.125000000  0.433292967  0.619102838
     0.624999720  0.433292967  0.619102838
     0.000000000  0.333333333  0.665551381
     0.499998654  0.333333333  0.665551381
     0.083333333  0.333333333  0.665551381
     0.583334567  0.333333333  0.665551381
     0.000000000  0.500000000  0.690815583
     0.499998654  0.500000000  0.690815583
     0.083333333  0.500000000  0.690815583
     0.583334567  0.500000000  0.690815583
     0.041666667  0.395791444  0.743658385
     0.541666611  0.395791444  0.743658385
     0.125000000  0.395791444  0.743658385
     0.624999720  0.395791444  0.743658385
     0.041666667  0.604208556  0.743658385
     0.541666611  0.604208556  0.743658385
     0.125000000  0.604208556  0.743658385
     0.624999720  0.604208556  0.743658385
     0.000000000  0.500000000  0.783904181
     0.499998654  0.500000000  0.783904181
     0.083333333  0.500000000  0.783904181
     0.583334567  0.500000000  0.783904181
     0.166666667  0.500000000  0.216094601
     0.666667676  0.500000000  0.216094601
     0.250000000  0.500000000  0.216094601
     0.750000785  0.500000000  0.216094601
     0.208333333  0.395791444  0.256340397
     0.708332829  0.395791444  0.256340397
     0.291666667  0.395791444  0.256340397
     0.791665937  0.395791444  0.256340397
     0.208333333  0.604208556  0.256340397
     0.708332829  0.604208556  0.256340397
     0.291666667  0.604208556  0.256340397
     0.791665937  0.604208556  0.256340397
     0.166666667  0.500000000  0.309183199
     0.666667676  0.500000000  0.309183199
     0.250000000  0.500000000  0.309183199
     0.750000785  0.500000000  0.309183199
     0.166666667  0.333333333  0.334447401
     0.666667676  0.333333333  0.334447401
     0.250000000  0.333333333  0.334447401
     0.750000785  0.333333333  0.334447401
     0.208333333  0.566707033  0.380895943
     0.708332829  0.566707033  0.380895943
     0.291666667  0.566707033  0.380895943
     0.791665937  0.566707033  0.380895943
     0.208333333  0.433292967  0.380895943
     0.708332829  0.433292967  0.380895943
     0.291666667  0.433292967  0.380895943
     0.791665937  0.433292967  0.380895943
     0.166666667  0.333333333  0.427533879
     0.666667676  0.333333333  0.427533879
     0.250000000  0.333333333  0.427533879
     0.750000785  0.333333333  0.427533879
     0.166666667  0.500000000  0.453310542
     0.666667676  0.500000000  0.453310542
     0.250000000  0.500000000  0.453310542
     0.750000785  0.500000000  0.453310542
     0.208333333  0.398502159  0.499999391
     0.708332829  0.398502159  0.499999391
     0.291666667  0.398502159  0.499999391
     0.791665937  0.398502159  0.499999391
     0.208333333  0.601497841  0.499999391
     0.708332829  0.601497841  0.499999391
     0.291666667  0.601497841  0.499999391
     0.791665937  0.601497841  0.499999391
     0.166666667  0.500000000  0.546688240
     0.666667676  0.500000000  0.546688240
     0.250000000  0.500000000  0.546688240
     0.750000785  0.500000000  0.546688240
     0.166666667  0.333333333  0.572464903
     0.666667676  0.333333333  0.572464903
     0.250000000  0.333333333  0.572464903
     0.750000785  0.333333333  0.572464903
     0.208333333  0.566707033  0.619102838
     0.708332829  0.566707033  0.619102838
     0.291666667  0.566707033  0.619102838
     0.791665937  0.566707033  0.619102838
     0.208333333  0.433292967  0.619102838
     0.708332829  0.433292967  0.619102838
     0.291666667  0.433292967  0.619102838
     0.791665937  0.433292967  0.619102838
     0.166666667  0.333333333  0.665551381
     0.666667676  0.333333333  0.665551381
     0.250000000  0.333333333  0.665551381
     0.750000785  0.333333333  0.665551381
     0.166666667  0.500000000  0.690815583
     0.666667676  0.500000000  0.690815583
     0.250000000  0.500000000  0.690815583
     0.750000785  0.500000000  0.690815583
     0.208333333  0.395791444  0.743658385
     0.708332829  0.395791444  0.743658385
     0.291666667  0.395791444  0.743658385
     0.791665937  0.395791444  0.743658385
     0.208333333  0.604208556  0.743658385
     0.708332829  0.604208556  0.743658385
     0.291666667  0.604208556  0.743658385
     0.791665937  0.604208556  0.743658385
     0.166666667  0.500000000  0.783904181
     0.666667676  0.500000000  0.783904181
     0.250000000  0.500000000  0.783904181
     0.750000785  0.500000000  0.783904181
     0.333333333  0.500000000  0.216094601
     0.833333894  0.500000000  0.216094601
     0.416666667  0.500000000  0.216094601
     0.916667003  0.500000000  0.216094601
     0.375000000  0.395791444  0.256340397
     0.874999046  0.395791444  0.256340397
     0.458333333  0.395791444  0.256340397
     0.958332155  0.395791444  0.256340397
     0.375000000  0.604208556  0.256340397
     0.874999046  0.604208556  0.256340397
     0.458333333  0.604208556  0.256340397
     0.958332155  0.604208556  0.256340397
     0.333333333  0.500000000  0.309183199
     0.833333894  0.500000000  0.309183199
     0.416666667  0.500000000  0.309183199
     0.916667003  0.500000000  0.309183199
     0.333333333  0.333333333  0.334447401
     0.833333894  0.333333333  0.334447401
     0.416666667  0.333333333  0.334447401
     0.916667003  0.333333333  0.334447401
     0.375000000  0.566707033  0.380895943
     0.874999046  0.566707033  0.380895943
     0.458333333  0.566707033  0.380895943
     0.958332155  0.566707033  0.380895943
     0.375000000  0.433292967  0.380895943
     0.874999046  0.433292967  0.380895943
     0.458333333  0.433292967  0.380895943
     0.958332155  0.433292967  0.380895943
     0.333333333  0.333333333  0.427533879
     0.833333894  0.333333333  0.427533879
     0.416666667  0.333333333  0.427533879
     0.916667003  0.333333333  0.427533879
     0.333333333  0.500000000  0.453310542
     0.833333894  0.500000000  0.453310542
     0.416666667  0.500000000  0.453310542
     0.916667003  0.500000000  0.453310542
     0.375000000  0.398502159  0.499999391
     0.874999046  0.398502159  0.499999391
     0.458333333  0.398502159  0.499999391
     0.958332155  0.398502159  0.499999391
     0.375000000  0.601497841  0.499999391
     0.874999046  0.601497841  0.499999391
     0.458333333  0.601497841  0.499999391
     0.958332155  0.601497841  0.499999391
     0.333333333  0.500000000  0.546688240
     0.833333894  0.500000000  0.546688240
     0.416666667  0.500000000  0.546688240
     0.916667003  0.500000000  0.546688240
     0.333333333  0.333333333  0.572464903
     0.833333894  0.333333333  0.572464903
     0.416666667  0.333333333  0.572464903
     0.916667003  0.333333333  0.572464903
     0.375000000  0.566707033  0.619102838
     0.874999046  0.566707033  0.619102838
     0.458333333  0.566707033  0.619102838
     0.958332155  0.566707033  0.619102838
     0.375000000  0.433292967  0.619102838
     0.874999046  0.433292967  0.619102838
     0.458333333  0.433292967  0.619102838
     0.958332155  0.433292967  0.619102838
     0.333333333  0.333333333  0.665551381
     0.833333894  0.333333333  0.665551381
     0.416666667  0.333333333  0.665551381
     0.916667003  0.333333333  0.665551381
     0.333333333  0.500000000  0.690815583
     0.833333894  0.500000000  0.690815583
     0.416666667  0.500000000  0.690815583
     0.916667003  0.500000000  0.690815583
     0.375000000  0.395791444  0.743658385
     0.874999046  0.395791444  0.743658385
     0.458333333  0.395791444  0.743658385
     0.958332155  0.395791444  0.743658385
     0.375000000  0.604208556  0.743658385
     0.874999046  0.604208556  0.743658385
     0.458333333  0.604208556  0.743658385
     0.958332155  0.604208556  0.743658385
     0.333333333  0.500000000  0.783904181
     0.833333894  0.500000000  0.783904181
     0.416666667  0.500000000  0.783904181
     0.916667003  0.500000000  0.783904181
     0.000000000  0.833333333  0.216094601
     0.499998654  0.833333333  0.216094601
     0.083333333  0.833333333  0.216094601
     0.583334567  0.833333333  0.216094601
     0.041666667  0.729124778  0.256340397
     0.541666611  0.729124778  0.256340397
     0.125000000  0.729124778  0.256340397
     0.624999720  0.729124778  0.256340397
     0.041666667  0.937541889  0.256340397
     0.541666611  0.937541889  0.256340397
     0.125000000  0.937541889  0.256340397
     0.624999720  0.937541889  0.256340397
     0.000000000  0.833333333  0.309183199
     0.499998654  0.833333333  0.309183199
     0.083333333  0.833333333  0.309183199
     0.583334567  0.833333333  0.309183199
     0.000000000  0.666666667  0.334447401
     0.499998654  0.666666667  0.334447401
     0.083333333  0.666666667  0.334447401
     0.583334567  0.666666667  0.334447401
     0.041666667  0.900040367  0.380895943
     0.541666611  0.900040367  0.380895943
     0.125000000  0.900040367  0.380895943
     0.624999720  0.900040367  0.380895943
     0.041666667  0.766626300  0.380895943
     0.541666611  0.766626300  0.380895943
     0.125000000  0.766626300  0.380895943
     0.624999720  0.766626300  0.380895943
     0.000000000  0.666666667  0.427533879
     0.499998654  0.666666667  0.427533879
     0.083333333  0.666666667  0.427533879
     0.583334567  0.666666667  0.427533879
     0.000000000  0.833333333  0.453310542
     0.499998654  0.833333333  0.453310542
     0.083333333  0.833333333  0.453310542
     0.583334567  0.833333333  0.453310542
     0.041666667  0.731835492  0.499999391
     0.541666611  0.731835492  0.499999391
     0.125000000  0.731835492  0.499999391
     0.624999720  0.731835492  0.499999391
     0.041666667  0.934831175  0.499999391
     0.541666611  0.934831175  0.499999391
     0.125000000  0.934831175  0.499999391
     0.624999720  0.934831175  0.499999391
     0.000000000  0.833333333  0.546688240
     0.499998654  0.833333333  0.546688240
     0.083333333  0.833333333  0.546688240
     0.583334567  0.833333333  0.546688240
     0.000000000  0.666666667  0.572464903
     0.499998654  0.666666667  0.572464903
     0.083333333  0.666666667  0.572464903
     0.583334567  0.666666667  0.572464903
     0.041666667  0.900040367  0.619102838
     0.541666611  0.900040367  0.619102838
     0.125000000  0.900040367  0.619102838
     0.624999720  0.900040367  0.619102838
     0.041666667  0.766626300  0.619102838
     0.541666611  0.766626300  0.619102838
     0.125000000  0.766626300  0.619102838
     0.624999720  0.766626300  0.619102838
     0.000000000  0.666666667  0.665551381
     0.499998654  0.666666667  0.665551381
     0.083333333  0.666666667  0.665551381
     0.583334567  0.666666667  0.665551381
     0.000000000  0.833333333  0.690815583
     0.499998654  0.833333333  0.690815583
     0.083333333  0.833333333  0.690815583
     0.583334567  0.833333333  0.690815583
     0.041666667  0.729124778  0.743658385
     0.541666611  0.729124778  0.743658385
     0.125000000  0.729124778  0.743658385
     0.624999720  0.729124778  0.743658385
     0.041666667  0.937541889  0.743658385
     0.541666611  0.937541889  0.743658385
     0.125000000  0.937541889  0.743658385
     0.624999720  0.937541889  0.743658385
     0.000000000  0.833333333  0.783904181
     0.499998654  0.833333333  0.783904181
     0.083333333  0.833333333  0.783904181
     0.583334567  0.833333333  0.783904181
     0.166666667  0.833333333  0.216094601
     0.666667676  0.833333333  0.216094601
     0.250000000  0.833333333  0.216094601
     0.750000785  0.833333333  0.216094601
     0.208333333  0.729124778  0.256340397
     0.708332829  0.729124778  0.256340397
     0.291666667  0.729124778  0.256340397
     0.791665937  0.729124778  0.256340397
     0.208333333  0.937541889  0.256340397
     0.708332829  0.937541889  0.256340397
     0.291666667  0.937541889  0.256340397
     0.791665937  0.937541889  0.256340397
     0.166666667  0.833333333  0.309183199
     0.666667676  0.833333333  0.309183199
     0.250000000  0.833333333  0.309183199
     0.750000785  0.833333333  0.309183199
     0.166666667  0.666666667  0.334447401
     0.666667676  0.666666667  0.334447401
     0.250000000  0.666666667  0.334447401
     0.750000785  0.666666667  0.334447401
     0.208333333  0.900040367  0.380895943
     0.708332829  0.900040367  0.380895943
     0.291666667  0.900040367  0.380895943
     0.791665937  0.900040367  0.380895943
     0.208333333  0.766626300  0.380895943
     0.708332829  0.766626300  0.380895943
     0.291666667  0.766626300  0.380895943
     0.791665937  0.766626300  0.380895943
     0.166666667  0.666666667  0.427533879
     0.666667676  0.666666667  0.427533879
     0.250000000  0.666666667  0.427533879
     0.750000785  0.666666667  0.427533879
     0.166666667  0.833333333  0.453310542
     0.666667676  0.833333333  0.453310542
     0.250000000  0.833333333  0.453310542
     0.750000785  0.833333333  0.453310542
     0.208333333  0.731835492  0.499999391
     0.708332829  0.731835492  0.499999391
     0.291666667  0.731835492  0.499999391
     0.791665937  0.731835492  0.499999391
     0.208333333  0.934831175  0.499999391
     0.708332829  0.934831175  0.499999391
     0.291666667  0.934831175  0.499999391
     0.791665937  0.934831175  0.499999391
     0.166666667  0.833333333  0.546688240
     0.666667676  0.833333333  0.546688240
     0.250000000  0.833333333  0.546688240
     0.750000785  0.833333333  0.546688240
     0.166666667  0.666666667  0.572464903
     0.666667676  0.666666667  0.572464903
     0.250000000  0.666666667  0.572464903
     0.750000785  0.666666667  0.572464903
     0.208333333  0.900040367  0.619102838
     0.708332829  0.900040367  0.619102838
     0.291666667  0.900040367  0.619102838
     0.791665937  0.900040367  0.619102838
     0.208333333  0.766626300  0.619102838
     0.708332829  0.766626300  0.619102838
     0.291666667  0.766626300  0.619102838
     0.791665937  0.766626300  0.619102838
     0.166666667  0.666666667  0.665551381
     0.666667676  0.666666667  0.665551381
     0.250000000  0.666666667  0.665551381
     0.750000785  0.666666667  0.665551381
     0.166666667  0.833333333  0.690815583
     0.666667676  0.833333333  0.690815583
     0.250000000  0.833333333  0.690815583
     0.750000785  0.833333333  0.690815583
     0.208333333  0.729124778  0.743658385
     0.708332829  0.729124778  0.743658385
     0.291666667  0.729124778  0.743658385
     0.791665937  0.729124778  0.743658385
     0.208333333  0.937541889  0.743658385
     0.708332829  0.937541889  0.743658385
     0.291666667  0.937541889  0.743658385
     0.791665937  0.937541889  0.743658385
     0.166666667  0.833333333  0.783904181
     0.666667676  0.833333333  0.783904181
     0.250000000  0.833333333  0.783904181
     0.750000785  0.833333333  0.783904181
     0.333333333  0.833333333  0.216094601
     0.833333894  0.833333333  0.216094601
     0.416666667  0.833333333  0.216094601
     0.916667003  0.833333333  0.216094601
     0.375000000  0.729124778  0.256340397
     0.874999046  0.729124778  0.256340397
     0.458333333  0.729124778  0.256340397
     0.958332155  0.729124778  0.256340397
     0.375000000  0.937541889  0.256340397
     0.874999046  0.937541889  0.256340397
     0.458333333  0.937541889  0.256340397
     0.958332155  0.937541889  0.256340397
     0.333333333  0.833333333  0.309183199
     0.833333894  0.833333333  0.309183199
     0.416666667  0.833333333  0.309183199
     0.916667003  0.833333333  0.309183199
     0.333333333  0.666666667  0.334447401
     0.833333894  0.666666667  0.334447401
     0.416666667  0.666666667  0.334447401
     0.916667003  0.666666667  0.334447401
     0.375000000  0.900040367  0.380895943
     0.874999046  0.900040367  0.380895943
     0.458333333  0.900040367  0.380895943
     0.958332155  0.900040367  0.380895943
     0.375000000  0.766626300  0.380895943
     0.874999046  0.766626300  0.380895943
     0.458333333  0.766626300  0.380895943
     0.958332155  0.766626300  0.380895943
     0.333333333  0.666666667  0.427533879
     0.833333894  0.666666667  0.427533879
     0.416666667  0.666666667  0.427533879
     0.916667003  0.666666667  0.427533879
     0.333333333  0.833333333  0.453310542
     0.833333894  0.833333333  0.453310542
     0.416666667  0.833333333  0.453310542
     0.916667003  0.833333333  0.453310542
     0.375000000  0.731835492  0.499999391
     0.874999046  0.731835492  0.499999391
     0.458333333  0.731835492  0.499999391
     0.958332155  0.731835492  0.499999391
     0.375000000  0.934831175  0.499999391
     0.874999046  0.934831175  0.499999391
     0.458333333  0.934831175  0.499999391
     0.958332155  0.934831175  0.499999391
     0.333333333  0.833333333  0.546688240
     0.833333894  0.833333333  0.546688240
     0.416666667  0.833333333  0.546688240
     0.916667003  0.833333333  0.546688240
     0.333333333  0.666666667  0.572464903
     0.833333894  0.666666667  0.572464903
     0.416666667  0.666666667  0.572464903
     0.916667003  0.666666667  0.572464903
     0.375000000  0.900040367  0.619102838
     0.874999046  0.900040367  0.619102838
     0.458333333  0.900040367  0.619102838
     0.958332155  0.900040367  0.619102838
     0.375000000  0.766626300  0.619102838
     0.874999046  0.766626300  0.619102838
     0.458333333  0.766626300  0.619102838
     0.958332155  0.766626300  0.619102838
     0.333333333  0.666666667  0.665551381
     0.833333894  0.666666667  0.665551381
     0.416666667  0.666666667  0.665551381
     0.916667003  0.666666667  0.665551381
     0.333333333  0.833333333  0.690815583
     0.833333894  0.833333333  0.690815583
     0.416666667  0.833333333  0.690815583
     0.916667003  0.833333333  0.690815583
     0.375000000  0.729124778  0.743658385
     0.874999046  0.729124778  0.743658385
     0.458333333  0.729124778  0.743658385
     0.958332155  0.729124778  0.743658385
     0.375000000  0.937541889  0.743658385
     0.874999046  0.937541889  0.743658385
     0.458333333  0.937541889  0.743658385
     0.958332155  0.937541889  0.743658385
     0.333333333  0.833333333  0.783904181
     0.833333894  0.833333333  0.783904181
     0.416666667  0.833333333  0.783904181
     0.916667003  0.833333333  0.783904181

  ion indices of the primitive-cell ions
   primitive index   ion index
                 1           1
                 2           2
                 3           3
                 4           4
                 5           5
                 6           6
                 7           7
                 8           8
                 9           9
                10          10
                11          11
                12          12
                13          13
                14          14
                15          15
                16          16
                17          17
                18          18
                19          19
                20          20
                21          21
                22          22
                23          23
                24          24
                25          25
                26          26
                27          27
                28          28
                29          29
                30          30
                31          31
                32          32
                33          33
                34          34
                35          35
                36          36
                37          37
                38          38
                39          39
                40          40
                41          41
                42          42
                43          43
                44          44
                45          45
                46          46
                47          47
                48          48
                49          49
                50          50
                51          51
                52          52
                53          53
                54          54
                55          55
                56          56
                57          57
                58          58
                59          59
                60          60
                61          61
                62          62
                63          63
                64          64
                65          65
                66          66
                67          67
                68          68
                69          69
                70          70
                71          71
                72          72
                73          73
                74          74
                75          75
                76          76
                77          77
                78          78
                79          79
                80          80
                81          81
                82          82
                83          83
                84          84
                85          85
                86          86
                87          87
                88          88
                89          89
                90          90
                91          91
                92          92
                93          93
                94          94
                95          95
                96          96
                97          97
                98          98
                99          99
               100         100
               101         101
               102         102
               103         103
               104         104
               105         105
               106         106
               107         107
               108         108
               109         109
               110         110
               111         111
               112         112
               113         113
               114         114
               115         115
               116         116
               117         117
               118         118
               119         119
               120         120
               121         121
               122         122
               123         123
               124         124
               125         125
               126         126
               127         127
               128         128
               129         129
               130         130
               131         131
               132         132
               133         133
               134         134
               135         135
               136         136
               137         137
               138         138
               139         139
               140         140
               141         141
               142         142
               143         143
               144         144
               145         145
               146         146
               147         147
               148         148
               149         149
               150         150
               151         151
               152         152
               153         153
               154         154
               155         155
               156         156
               157         157
               158         158
               159         159
               160         160
               161         161
               162         162
               163         163
               164         164
               165         165
               166         166
               167         167
               168         168
               169         169
               170         170
               171         171
               172         172
               173         173
               174         174
               175         175
               176         176
               177         177
               178         178
               179         179
               180         180
               181         181
               182         182
               183         183
               184         184
               185         185
               186         186
               187         187
               188         188
               189         189
               190         190
               191         191
               192         192
               193         193
               194         194
               195         195
               196         196
               197         197
               198         198
               199         199
               200         200
               201         201
               202         202
               203         203
               204         204
               205         205
               206         206
               207         207
               208         208
               209         209
               210         210
               211         211
               212         212
               213         213
               214         214
               215         215
               216         216
               217         217
               218         218
               219         219
               220         220
               221         221
               222         222
               223         223
               224         224
               225         225
               226         226
               227         227
               228         228
               229         229
               230         230
               231         231
               232         232
               233         233
               234         234
               235         235
               236         236
               237         237
               238         238
               239         239
               240         240
               241         241
               242         242
               243         243
               244         244
               245         245
               246         246
               247         247
               248         248
               249         249
               250         250
               251         251
               252         252
               253         253
               254         254
               255         255
               256         256
               257         257
               258         258
               259         259
               260         260
               261         261
               262         262
               263         263
               264         264
               265         265
               266         266
               267         267
               268         268
               269         269
               270         270
               271         271
               272         272
               273         273
               274         274
               275         275
               276         276
               277         277
               278         278
               279         279
               280         280
               281         281
               282         282
               283         283
               284         284
               285         285
               286         286
               287         287
               288         288
               289         289
               290         290
               291         291
               292         292
               293         293
               294         294
               295         295
               296         296
               297         297
               298         298
               299         299
               300         300
               301         301
               302         302
               303         303
               304         304
               305         305
               306         306
               307         307
               308         308
               309         309
               310         310
               311         311
               312         312
               313         313
               314         314
               315         315
               316         316
               317         317
               318         318
               319         319
               320         320
               321         321
               322         322
               323         323
               324         324
               325         325
               326         326
               327         327
               328         328
               329         329
               330         330
               331         331
               332         332
               333         333
               334         334
               335         335
               336         336
               337         337
               338         338
               339         339
               340         340
               341         341
               342         342
               343         343
               344         344
               345         345
               346         346
               347         347
               348         348
               349         349
               350         350
               351         351
               352         352
               353         353
               354         354
               355         355
               356         356
               357         357
               358         358
               359         359
               360         360
               361         361
               362         362
               363         363
               364         364
               365         365
               366         366
               367         367
               368         368
               369         369
               370         370
               371         371
               372         372
               373         373
               374         374
               375         375
               376         376
               377         377
               378         378
               379         379
               380         380
               381         381
               382         382
               383         383
               384         384
               385         385
               386         386
               387         387
               388         388
               389         389
               390         390
               391         391
               392         392
               393         393
               394         394
               395         395
               396         396
               397         397
               398         398
               399         399
               400         400
               401         401
               402         402
               403         403
               404         404
               405         405
               406         406
               407         407
               408         408
               409         409
               410         410
               411         411
               412         412
               413         413
               414         414
               415         415
               416         416
               417         417
               418         418
               419         419
               420         420
               421         421
               422         422
               423         423
               424         424
               425         425
               426         426
               427         427
               428         428
               429         429
               430         430
               431         431
               432         432
               433         433
               434         434
               435         435
               436         436
               437         437
               438         438
               439         439
               440         440
               441         441
               442         442
               443         443
               444         444
               445         445
               446         446
               447         447
               448         448
               449         449
               450         450
               451         451
               452         452
               453         453
               454         454
               455         455
               456         456
               457         457
               458         458
               459         459
               460         460
               461         461
               462         462
               463         463
               464         464
               465         465
               466         466
               467         467
               468         468
               469         469
               470         470
               471         471
               472         472
               473         473
               474         474
               475         475
               476         476
               477         477
               478         478
               479         479
               480         480
               481         481
               482         482
               483         483
               484         484
               485         485
               486         486
               487         487
               488         488
               489         489
               490         490
               491         491
               492         492
               493         493
               494         494
               495         495
               496         496
               497         497
               498         498
               499         499
               500         500
               501         501
               502         502
               503         503
               504         504
               505         505
               506         506
               507         507
               508         508
               509         509
               510         510
               511         511
               512         512
               513         513
               514         514
               515         515
               516         516
               517         517
               518         518
               519         519
               520         520
               521         521
               522         522
               523         523
               524         524
               525         525
               526         526
               527         527
               528         528
               529         529
               530         530
               531         531
               532         532
               533         533
               534         534
               535         535
               536         536
               537         537
               538         538
               539         539
               540         540
               541         541
               542         542
               543         543
               544         544
               545         545
               546         546
               547         547
               548         548
               549         549
               550         550
               551         551
               552         552
               553         553
               554         554
               555         555
               556         556
               557         557
               558         558
               559         559
               560         560
               561         561
               562         562
               563         563
               564         564
               565         565
               566         566
               567         567
               568         568
               569         569
               570         570
               571         571
               572         572
               573         573
               574         574
               575         575
               576         576
               577         577
               578         578
               579         579
               580         580
               581         581
               582         582
               583         583
               584         584
               585         585
               586         586
               587         587
               588         588
               589         589
               590         590
               591         591
               592         592
               593         593
               594         594
               595         595
               596         596
               597         597
               598         598
               599         599
               600         600
               601         601
               602         602
               603         603
               604         604
               605         605
               606         606
               607         607
               608         608
               609         609
               610         610
               611         611
               612         612
               613         613
               614         614
               615         615
               616         616
               617         617
               618         618
               619         619
               620         620
               621         621
               622         622
               623         623
               624         624
               625         625
               626         626
               627         627
               628         628
               629         629
               630         630
               631         631
               632         632
               633         633
               634         634
               635         635
               636         636
               637         637
               638         638
               639         639
               640         640
               641         641
               642         642
               643         643
               644         644
               645         645
               646         646
               647         647
               648         648
               649         649
               650         650
               651         651
               652         652
               653         653
               654         654
               655         655
               656         656
               657         657
               658         658
               659         659
               660         660
               661         661
               662         662
               663         663
               664         664
               665         665
               666         666
               667         667
               668         668
               669         669
               670         670
               671         671
               672         672
               673         673
               674         674
               675         675
               676         676
               677         677
               678         678
               679         679
               680         680
               681         681
               682         682
               683         683
               684         684
               685         685
               686         686
               687         687
               688         688
               689         689
               690         690
               691         691
               692         692
               693         693
               694         694
               695         695
               696         696
               697         697
               698         698
               699         699
               700         700
               701         701
               702         702
               703         703
               704         704
               705         705
               706         706
               707         707
               708         708
               709         709
               710         710
               711         711
               712         712
               713         713
               714         714
               715         715
               716         716
               717         717
               718         718
               719         719
               720         720
               721         721
               722         722
               723         723
               724         724
               725         725
               726         726
               727         727
               728         728
               729         729
               730         730
               731         731
               732         732
               733         733
               734         734
               735         735
               736         736
               737         737
               738         738
               739         739
               740         740
               741         741
               742         742
               743         743
               744         744
               745         745
               746         746
               747         747
               748         748
               749         749
               750         750
               751         751
               752         752
               753         753
               754         754
               755         755
               756         756
               757         757
               758         758
               759         759
               760         760
               761         761
               762         762
               763         763
               764         764
               765         765
               766         766
               767         767
               768         768
               769         769
               770         770
               771         771
               772         772
               773         773
               774         774
               775         775
               776         776
               777         777
               778         778
               779         779
               780         780
               781         781
               782         782
               783         783
               784         784
               785         785
               786         786
               787         787
               788         788
               789         789
               790         790
               791         791
               792         792
               793         793
               794         794
               795         795
               796         796
               797         797
               798         798
               799         799
               800         800
               801         801
               802         802
               803         803
               804         804
               805         805
               806         806
               807         807
               808         808
               809         809
               810         810
               811         811
               812         812
               813         813
               814         814
               815         815
               816         816
               817         817
               818         818
               819         819
               820         820
               821         821
               822         822
               823         823
               824         824
               825         825
               826         826
               827         827
               828         828
               829         829
               830         830
               831         831
               832         832
               833         833
               834         834
               835         835
               836         836
               837         837
               838         838
               839         839
               840         840
               841         841
               842         842
               843         843
               844         844
               845         845
               846         846
               847         847
               848         848
               849         849
               850         850
               851         851
               852         852
               853         853
               854         854
               855         855
               856         856
               857         857
               858         858
               859         859
               860         860
               861         861
               862         862
               863         863
               864         864
               865         865
               866         866
               867         867
               868         868
               869         869
               870         870
               871         871
               872         872
               873         873
               874         874
               875         875
               876         876
               877         877
               878         878
               879         879
               880         880
               881         881
               882         882
               883         883
               884         884
               885         885
               886         886
               887         887
               888         888
               889         889
               890         890
               891         891
               892         892
               893         893
               894         894
               895         895
               896         896
               897         897
               898         898
               899         899
               900         900
               901         901
               902         902
               903         903
               904         904
               905         905
               906         906
               907         907
               908         908
               909         909
               910         910
               911         911
               912         912
               913         913
               914         914
               915         915
               916         916
               917         917
               918         918
               919         919
               920         920
               921         921
               922         922
               923         923
               924         924
               925         925
               926         926
               927         927
               928         928
               929         929
               930         930
               931         931
               932         932
               933         933
               934         934
               935         935
               936         936
               937         937
               938         938
               939         939
               940         940
               941         941
               942         942
               943         943
               944         944
               945         945
               946         946
               947         947
               948         948
               949         949
               950         950
               951         951
               952         952
               953         953
               954         954
               955         955
               956         956
               957         957
               958         958
               959         959
               960         960
               961         961
               962         962
               963         963
               964         964
               965         965
               966         966
               967         967
               968         968
               969         969
               970         970
               971         971
               972         972
               973         973
               974         974
               975         975
               976         976
               977         977
               978         978
               979         979
               980         980
               981         981
               982         982
               983         983
               984         984
               985         985
               986         986
               987         987
               988         988
               989         989
               990         990
               991         991
               992         992
               993         993
               994         994
               995         995
               996         996
               997         997
               998         998
               999         999
              1000        1000
              1001        1001
              1002        1002
              1003        1003
              1004        1004
              1005        1005
              1006        1006
              1007        1007
              1008        1008
              1009        1009
              1010        1010
              1011        1011
              1012        1012
              1013        1013
              1014        1014
              1015        1015
              1016        1016
              1017        1017
              1018        1018
              1019        1019
              1020        1020
              1021        1021
              1022        1022
              1023        1023
              1024        1024
              1025        1025
              1026        1026
              1027        1027
              1028        1028
              1029        1029
              1030        1030
              1031        1031
              1032        1032
              1033        1033
              1034        1034
              1035        1035
              1036        1036
              1037        1037
              1038        1038
              1039        1039
              1040        1040
              1041        1041
              1042        1042
              1043        1043
              1044        1044
              1045        1045
              1046        1046
              1047        1047
              1048        1048
              1049        1049
              1050        1050
              1051        1051
              1052        1052
              1053        1053
              1054        1054
              1055        1055
              1056        1056
              1057        1057
              1058        1058
              1059        1059
              1060        1060
              1061        1061
              1062        1062
              1063        1063
              1064        1064
              1065        1065
              1066        1066
              1067        1067
              1068        1068
              1069        1069
              1070        1070
              1071        1071
              1072        1072
              1073        1073
              1074        1074
              1075        1075
              1076        1076
              1077        1077
              1078        1078
              1079        1079
              1080        1080

----------------------------------------------------------------------------------------



 KPOINTS: TiO2 slab Gamma                         

Automatic generation of k-mesh.
 Grid dimensions read from file:
 generate k-points for:    1    1    1

 Generating k-lattice:

  Cartesian coordinates                     Fractional coordinates (reciprocal lattice)
     0.028046010  0.000000000  0.000000000     1.000000000  0.000000000  0.000000000
     0.000000000  0.050645038  0.000000000     0.000000000  1.000000000  0.000000000
     0.000000000  0.000000000  0.036052796     0.000000000  0.000000000  1.000000000

  Length of vectors
     0.028046010  0.050645038  0.036052796

  Shift w.r.t. Gamma in fractional coordinates (k-lattice)
     0.000000000  0.000000000  0.000000000

 
 Subroutine IBZKPT returns following result:
 ===========================================
 
 Found      1 irreducible k-points:
 
 Following reciprocal coordinates:
            Coordinates               Weight
  0.000000  0.000000  0.000000      1.000000
 
 Following cartesian coordinates:
            Coordinates               Weight
  0.000000  0.000000  0.000000      1.000000
 


--------------------------------------------------------------------------------------------------------




 Dimension of arrays:
   k-points           NKPTS =      1   k-points in BZ     NKDIM =      1   number of bands    NBANDS=   6912
   number of dos      NEDOS =    301   number of ions     NIONS =   1080
   non local maximal  LDIM  =      6   non local SUM 2l+1 LMDIM =     18
   total plane-waves  NPLWV = ******
   max r-space proj   IRMAX =   9908   max aug-charges    IRDMAX=  28826
   dimension x,y,z NGX =   320 NGY =  180 NGZ =  250
   dimension x,y,z NGXF=   640 NGYF=  360 NGZF=  500
   support grid    NGXF=   640 NGYF=  360 NGZF=  500
   ions per type =             360 720
   NGX,Y,Z   is equivalent  to a cutoff of  14.92, 15.16, 14.98 a.u.
   NGXF,Y,Z  is equivalent  to a cutoff of  29.84, 30.31, 29.97 a.u.

 SYSTEM =  TiO2                                    
 POSCAR =  TeraGrid TiO2 Benchmark, Doubled in X di

 Startparameter for this run:
   NWRITE =      1    write-flag & timer
   PREC   = accura    normal or accurate (medium, high low for compatibility)
   ISTART =      0    job   : 0-new  1-cont  2-samecut
   ICHARG =      2    charge: 1-file 2-atom 10-const
   ISPIN  =      1    spin polarized calculation?
   LNONCOLLINEAR =      F non collinear calculations
   LSORBIT =      F    spin-orbit coupling
   INIWAV =      1    electr: 0-lowe 1-rand  2-diag
   LASPH  =      F    aspherical Exc in radial PAW
 Electronic Relaxation 1
   ENCUT  =  750.0 eV  55.12 Ry    7.42 a.u.  79.62 44.09 61.94*2*pi/ulx,y,z
   ENINI  =  750.0     initial cutoff
   ENAUG  =  605.4 eV  augmentation charge cutoff
   NELM   =     10;   NELMIN=  2; NELMDL=-12     # of ELM steps 
   EDIFF  = 0.1E-06   stopping-criterion for ELM
   LREAL  =      T    real-space projection
   NLSPLINE    = F    spline interpolate recip. space projectors
   LCOMPAT=      F    compatible to vasp.4.4
   GGA_COMPAT  = T    GGA compatible to vasp.4.4-vasp.4.6
   LMAXPAW     = -100 max onsite density
   LMAXMIX     =    2 max onsite mixed and CHGCAR
   VOSKOWN=      0    Vosko Wilk Nusair interpolation
   ROPT   =    0.00000   0.00000
 Ionic relaxation
   EDIFFG = 0.1E-05   stopping-criterion for IOM
   NSW    =      0    number of steps for IOM
   NBLOCK =      1;   KBLOCK =      1    inner block; outer block 
   IBRION =     -1    ionic relax: 0-MD 1-quasi-New 2-CG
   NFREE  =      0    steps in history (QN), initial steepest desc. (CG)
   ISIF   =      2    stress and relaxation
   IWAVPR =     10    prediction:  0-non 1-charg 2-wave 3-comb
   ISYM   =      0    0-nonsym 1-usesym 2-fastsym
   LCORR  =      T    Harris-Foulkes like correction to forces

   POTIM  = 0.5000    time-step for ionic-motion
   TEIN   =    0.0    initial temperature
   TEBEG  =    0.0;   TEEND  =   0.0 temperature during run
   SMASS  =  -3.00    Nose mass-parameter (am)
   estimated Nose-frequenzy (Omega)   =  0.10E-29 period in steps = 0.13E+47 mass=  -0.291E-25a.u.
   SCALEE = 1.0000    scale energy and forces
   NPACO  =    256;   APACO  = 10.0  distance and # of slots for P.C.
   PSTRESS=    0.0 pullay stress

  Mass of Ions in am
   POMASS =  47.88 16.00
  Ionic Valenz
   ZVAL   =  12.00  6.00
  Atomic Wigner-Seitz radii
   RWIGS  =  -1.00 -1.00
  virtual crystal weights 
   VCA    =   1.00  1.00
   NELECT =    8640.0000    total number of electrons
   NUPDOWN=      -1.0000    fix difference up-down

 DOS related values:
   EMIN   =  10.00;   EMAX   =-10.00  energy-range for DOS
   EFERMI =   0.00;   METHOD = LEGACY      
   ISMEAR =     0;   SIGMA  =   0.10  broadening in eV -4-tet -1-fermi 0-gaus
   EFERMI_NEDOS =   21; number of points for ismear=-14 and -15

 Electronic relaxation 2 (details)
   IALGO  =     48    algorithm
   LDIAG  =      T    sub-space diagonalisation (order eigenvalues)
   LSUBROT=      F    optimize rotation matrix (better conditioning)
   LROBUST=      F    robust break criterion during scf (extrapolated energy error)
   ISEARCH=      0    line search for conjugate gradient (0, 1=use gradient)
   TURBO    =      0    0=normal 1=particle mesh
   IRESTART =      0    0=no restart 2=restart with 2 vectors
   NREBOOT  =      0    no. of reboots
   NMIN     =      0    reboot dimension
   EREF     =   0.00    reference energy to select bands
   IMIX   =      4    mixing-type and parameters
     AMIX     =   0.40;   BMIX     =  1.00
     AMIX_MAG =   1.60;   BMIX_MAG =  1.00
     AMIN     =   0.10
     WC   =   100.;   INIMIX=   1;  MIXPRE=   1;  MAXMIX= -45

 Intra band minimization:
   WEIMIN = 0.0000     energy-eigenvalue tresh-hold
   EBREAK =  0.36E-11  absolut break condition
   DEPER  =   0.30     relativ break condition  

   TIME   =   0.40     timestep for ELM

  volume/ion in A,a.u.               =      18.08       122.02
  Fermi-wavevector in a.u.,A,eV,Ry     =   1.247465  2.357367 21.172966  1.556169
  Thomas-Fermi vector in A             =   2.381596

 Write flags
   LWAVE        =      F    write WAVECAR
   LDOWNSAMPLE  =      F    k-point downsampling of WAVECAR
   LCHARG       =      F    write CHGCAR
   LVTOT        =      F    write LOCPOT, total local potential
   LVHAR        =      F    write LOCPOT, Hartree potential only
   WRT_POTENTIAL= false  ! write potential to hdf5 file
   LELF         =      F    write electronic localiz. function (ELF)
   LORBIT       =      0    0 simple, 1 ext, 2 COOP (PROOUT), +10 PAW based schemes


 Python interface
   PLUGINS active      =      F    recompile with -DPLUGINS to activate

 Dipole corrections
   LMONO      =      F    monopole corrections only (constant potential shift)
   LDIPOL     =      F    correct potential (dipole corrections)
   IDIPOL     =      0    1-x, 2-y, 3-z, 4-all directions 
   EPSILON    =  1.0000000 bulk dielectric constant
   LVACPOTAV  =      F  vacuum potentials using an averaging scheme for the charge density
   VACPOTFLAT =  0.1000000 required flatness to determine vacuum potential

Coulomb truncation method
  LTRUNCATE          =      F  Coulomb kernel truncation to be used


 Exchange correlation treatment:
   GGA     = 91    functional components
   XC_C    = 1    coefficients multiplying the functional components
   LIBXC   =     F    Libxc                    
   VOSKOWN =     0    Vosko Wilk Nusair interpolation
   LHFCALC =     F    Hartree Fock is set to
   LHFONE  =     F    Hartree Fock one center treatment
   AEXX    =    0.0000 exact exchange contribution

 Parameters of functionals:
   91:
     No parameter

 Van der Waals corrections
   IVDW    =     0    specifies the selected vdW correction

 Linear response parameters
   LEPSILON=     F    determine dielectric tensor
   LRPA    =     F    only Hartree local field effects (RPA)
   LNABLA  =     F    use nabla operator in PAW spheres
   LVEL    =     F    velocity operator in full k-point grid
   CSHIFT  =0.1000    complex shift for real part using Kramers Kronig
   OMEGAMAX=  -1.0    maximum frequency
   DEG_THRESHOLD= 0.2000000E-02 threshold for treating states as degnerate
   RTIME   =   -0.100 relaxation time in fs
  (WPLASMAI=    0.000 imaginary part of plasma frequency in eV, 0.658/RTIME)
   DFIELD  = 0.0000000 0.0000000 0.0000000 field for delta impulse in time

  Optional k-point grid parameters
   LKPOINTS_OPT  =     F    use optional k-point grid
   KPOINTS_OPT_MODE=     1    mode for optional k-point grid

 Orbital magnetization related:
   ORBITALMAG=     F  switch on orbital magnetization
   LCHIMAG   =     F  perturbation theory with respect to B field
   DQ        =  0.001000  dq finite difference perturbation B field
   LLRAUG    =     F  two centre corrections for induced B field
   LBONE     =     F  B-component reconstruction in AE one-centre
   LVGVCALC  =     T  calculate vGv susceptibility
   LVGVAPPL  =     F  apply vGv susceptibility instead of pGv for G=0

 Random number generation:
   RANDOM_GENERATOR = DEFAULT
   PCG_SEED         = not used


--------------------------------------------------------------------------------------------------------


 Static calculation
 charge density and potential will be updated during run
 non-spin polarized calculation
 RMM-DIIS sequential band-by-band
 perform sub-space diagonalisation
    before iterative eigenvector-optimisation
 modified Broyden-mixing scheme, WC =      100.0
 initial mixing is a Kerker type mixing with AMIX =  0.4000 and BMIX =      1.0000
 Hartree-type preconditioning will be used
 using additional bands         2592
 real space projection scheme for non local part
 use partial core corrections
 calculate Harris-corrections to forces   (improved forces if not selfconsistent)
 use gradient corrections 
 use of overlap-Matrix (Vanderbilt PP)
 Gauss-broadening in eV      SIGMA  =   0.10


--------------------------------------------------------------------------------------------------------


  energy-cutoff  :      750.00
  volume of cell :    19527.79
      direct lattice vectors                 reciprocal lattice vectors
    35.655696000  0.000000000  0.000000000     0.028046010  0.000000000  0.000000000
     0.000000000 19.745271000  0.000000000     0.000000000  0.050645038  0.000000000
     0.000000000  0.000000000 27.737100000     0.000000000  0.000000000  0.036052796

  length of vectors
    35.655696000 19.745271000 27.737100000     0.028046010  0.050645038  0.036052796



 k-points in units of 2pi/SCALE and weight: TiO2 slab Gamma                         
   0.00000000  0.00000000  0.00000000       1.000

 k-points in reciprocal lattice and weights: TiO2 slab Gamma                         
   0.00000000  0.00000000  0.00000000       1.000

 position of ions in fractional coordinates (direct lattice) 
   0.00000000  0.00000000  0.26803431
   0.49999865  0.00000000  0.26803431
   0.08333333  0.00000000  0.26803431
   0.58333457  0.00000000  0.26803431
   0.04166667  0.16666667  0.25575422
   0.54166661  0.16666667  0.25575422
   0.12500000  0.16666667  0.25575422
   0.62499972  0.16666667  0.25575422
   0.00000000  0.16666667  0.37742693
   0.49999865  0.16666667  0.37742693
   0.08333333  0.16666667  0.37742693
   0.58333457  0.16666667  0.37742693
   0.04166667  0.00000000  0.38370403
   0.54166661  0.00000000  0.38370403
   0.12500000  0.00000000  0.38370403
   0.62499972  0.00000000  0.38370403
   0.00000000  0.00000000  0.49999939
   0.49999865  0.00000000  0.49999939
   0.08333333  0.00000000  0.49999939
   0.58333457  0.00000000  0.49999939
   0.04166667  0.16666667  0.49999939
   0.54166661  0.16666667  0.49999939
   0.12500000  0.16666667  0.49999939
   0.62499972  0.16666667  0.49999939
   0.00000000  0.16666667  0.62257185
   0.49999865  0.16666667  0.62257185
   0.08333333  0.16666667  0.62257185
   0.58333457  0.16666667  0.62257185
   0.04166667  0.00000000  0.61629476
   0.54166661  0.00000000  0.61629476
   0.12500000  0.00000000  0.61629476
   0.62499972  0.00000000  0.61629476
   0.00000000  0.00000000  0.73196447
   0.49999865  0.00000000  0.73196447
   0.08333333  0.00000000  0.73196447
   0.58333457  0.00000000  0.73196447
   0.04166667  0.16666667  0.74424456
   0.54166661  0.16666667  0.74424456
   0.12500000  0.16666667  0.74424456
   0.62499972  0.16666667  0.74424456
   0.16666667  0.00000000  0.26803431
   0.66666768  0.00000000  0.26803431
   0.25000000  0.00000000  0.26803431
   0.75000079  0.00000000  0.26803431
   0.20833333  0.16666667  0.25575422
   0.70833283  0.16666667  0.25575422
   0.29166667  0.16666667  0.25575422
   0.79166594  0.16666667  0.25575422
   0.16666667  0.16666667  0.37742693
   0.66666768  0.16666667  0.37742693
   0.25000000  0.16666667  0.37742693
   0.75000079  0.16666667  0.37742693
   0.20833333  0.00000000  0.38370403
   0.70833283  0.00000000  0.38370403
   0.29166667  0.00000000  0.38370403
   0.79166594  0.00000000  0.38370403
   0.16666667  0.00000000  0.49999939
   0.66666768  0.00000000  0.49999939
   0.25000000  0.00000000  0.49999939
   0.75000079  0.00000000  0.49999939
   0.20833333  0.16666667  0.49999939
   0.70833283  0.16666667  0.49999939
   0.29166667  0.16666667  0.49999939
   0.79166594  0.16666667  0.49999939
   0.16666667  0.16666667  0.62257185
   0.66666768  0.16666667  0.62257185
   0.25000000  0.16666667  0.62257185
   0.75000079  0.16666667  0.62257185
   0.20833333  0.00000000  0.61629476
   0.70833283  0.00000000  0.61629476
   0.29166667  0.00000000  0.61629476
   0.79166594  0.00000000  0.61629476
   0.16666667  0.00000000  0.73196447
   0.66666768  0.00000000  0.73196447
   0.25000000  0.00000000  0.73196447
   0.75000079  0.00000000  0.73196447
   0.20833333  0.16666667  0.74424456
   0.70833283  0.16666667  0.74424456
   0.29166667  0.16666667  0.74424456
   0.79166594  0.16666667  0.74424456
   0.33333333  0.00000000  0.26803431
   0.83333389  0.00000000  0.26803431
   0.41666667  0.00000000  0.26803431
   0.91666700  0.00000000  0.26803431
   0.37500000  0.16666667  0.25575422
   0.87499905  0.16666667  0.25575422
   0.45833333  0.16666667  0.25575422
   0.95833216  0.16666667  0.25575422
   0.33333333  0.16666667  0.37742693
   0.83333389  0.16666667  0.37742693
   0.41666667  0.16666667  0.37742693
   0.91666700  0.16666667  0.37742693
   0.37500000  0.00000000  0.38370403
   0.87499905  0.00000000  0.38370403
   0.45833333  0.00000000  0.38370403
   0.95833216  0.00000000  0.38370403
   0.33333333  0.00000000  0.49999939
   0.83333389  0.00000000  0.49999939
   0.41666667  0.00000000  0.49999939
   0.91666700  0.00000000  0.49999939
   0.37500000  0.16666667  0.49999939
   0.87499905  0.16666667  0.49999939
   0.45833333  0.16666667  0.49999939
   0.95833216  0.16666667  0.49999939
   0.33333333  0.16666667  0.62257185
   0.83333389  0.16666667  0.62257185
   0.41666667  0.16666667  0.62257185
   0.91666700  0.16666667  0.62257185
   0.37500000  0.00000000  0.61629476
   0.87499905  0.00000000  0.61629476
   0.45833333  0.00000000  0.61629476
   0.95833216  0.00000000  0.61629476
   0.33333333  0.00000000  0.73196447
   0.83333389  0.00000000  0.73196447
   0.41666667  0.00000000  0.73196447
   0.91666700  0.00000000  0.73196447
   0.37500000  0.16666667  0.74424456
   0.87499905  0.16666667  0.74424456
   0.45833333  0.16666667  0.74424456
   0.95833216  0.16666667  0.74424456
   0.00000000  0.33333333  0.26803431
   0.49999865  0.33333333  0.26803431
   0.08333333  0.33333333  0.26803431
   0.58333457  0.33333333  0.26803431
   0.04166667  0.50000000  0.25575422
   0.54166661  0.50000000  0.25575422
   0.12500000  0.50000000  0.25575422
   0.62499972  0.50000000  0.25575422
   0.00000000  0.50000000  0.37742693
   0.49999865  0.50000000  0.37742693
   0.08333333  0.50000000  0.37742693
   0.58333457  0.50000000  0.37742693
   0.04166667  0.33333333  0.38370403
   0.54166661  0.33333333  0.38370403
   0.12500000  0.33333333  0.38370403
   0.62499972  0.33333333  0.38370403
   0.00000000  0.33333333  0.49999939
   0.49999865  0.33333333  0.49999939
   0.08333333  0.33333333  0.49999939
   0.58333457  0.33333333  0.49999939
   0.04166667  0.50000000  0.49999939
   0.54166661  0.50000000  0.49999939
   0.12500000  0.50000000  0.49999939
   0.62499972  0.50000000  0.49999939
   0.00000000  0.50000000  0.62257185
   0.49999865  0.50000000  0.62257185
   0.08333333  0.50000000  0.62257185
   0.58333457  0.50000000  0.62257185
   0.04166667  0.33333333  0.61629476
   0.54166661  0.33333333  0.61629476
   0.12500000  0.33333333  0.61629476
   0.62499972  0.33333333  0.61629476
   0.00000000  0.33333333  0.73196447
   0.49999865  0.33333333  0.73196447
   0.08333333  0.33333333  0.73196447
   0.58333457  0.33333333  0.73196447
   0.04166667  0.50000000  0.74424456
   0.54166661  0.50000000  0.74424456
   0.12500000  0.50000000  0.74424456
   0.62499972  0.50000000  0.74424456
   0.16666667  0.33333333  0.26803431
   0.66666768  0.33333333  0.26803431
   0.25000000  0.33333333  0.26803431
   0.75000079  0.33333333  0.26803431
   0.20833333  0.50000000  0.25575422
   0.70833283  0.50000000  0.25575422
   0.29166667  0.50000000  0.25575422
   0.79166594  0.50000000  0.25575422
   0.16666667  0.50000000  0.37742693
   0.66666768  0.50000000  0.37742693
   0.25000000  0.50000000  0.37742693
   0.75000079  0.50000000  0.37742693
   0.20833333  0.33333333  0.38370403
   0.70833283  0.33333333  0.38370403
   0.29166667  0.33333333  0.38370403
   0.79166594  0.33333333  0.38370403
   0.16666667  0.33333333  0.49999939
   0.66666768  0.33333333  0.49999939
   0.25000000  0.33333333  0.49999939
   0.75000079  0.33333333  0.49999939
   0.20833333  0.50000000  0.49999939
   0.70833283  0.50000000  0.49999939
   0.29166667  0.50000000  0.49999939
   0.79166594  0.50000000  0.49999939
   0.16666667  0.50000000  0.62257185
   0.66666768  0.50000000  0.62257185
   0.25000000  0.50000000  0.62257185
   0.75000079  0.50000000  0.62257185
   0.20833333  0.33333333  0.61629476
   0.70833283  0.33333333  0.61629476
   0.29166667  0.33333333  0.61629476
   0.79166594  0.33333333  0.61629476
   0.16666667  0.33333333  0.73196447
   0.66666768  0.33333333  0.73196447
   0.25000000  0.33333333  0.73196447
   0.75000079  0.33333333  0.73196447
   0.20833333  0.50000000  0.74424456
   0.70833283  0.50000000  0.74424456
   0.29166667  0.50000000  0.74424456
   0.79166594  0.50000000  0.74424456
   0.33333333  0.33333333  0.26803431
   0.83333389  0.33333333  0.26803431
   0.41666667  0.33333333  0.26803431
   0.91666700  0.33333333  0.26803431
   0.37500000  0.50000000  0.25575422
   0.87499905  0.50000000  0.25575422
   0.45833333  0.50000000  0.25575422
   0.95833216  0.50000000  0.25575422
   0.33333333  0.50000000  0.37742693
   0.83333389  0.50000000  0.37742693
   0.41666667  0.50000000  0.37742693
   0.91666700  0.50000000  0.37742693
   0.37500000  0.33333333  0.38370403
   0.87499905  0.33333333  0.38370403
   0.45833333  0.33333333  0.38370403
   0.95833216  0.33333333  0.38370403
   0.33333333  0.33333333  0.49999939
   0.83333389  0.33333333  0.49999939
   0.41666667  0.33333333  0.49999939
   0.91666700  0.33333333  0.49999939
   0.37500000  0.50000000  0.49999939
   0.87499905  0.50000000  0.49999939
   0.45833333  0.50000000  0.49999939
   0.95833216  0.50000000  0.49999939
   0.33333333  0.50000000  0.62257185
   0.83333389  0.50000000  0.62257185
   0.41666667  0.50000000  0.62257185
   0.91666700  0.50000000  0.62257185
   0.37500000  0.33333333  0.61629476
   0.87499905  0.33333333  0.61629476
   0.45833333  0.33333333  0.61629476
   0.95833216  0.33333333  0.61629476
   0.33333333  0.33333333  0.73196447
   0.83333389  0.33333333  0.73196447
   0.41666667  0.33333333  0.73196447
   0.91666700  0.33333333  0.73196447
   0.37500000  0.50000000  0.74424456
   0.87499905  0.50000000  0.74424456
   0.45833333  0.50000000  0.74424456
   0.95833216  0.50000000  0.74424456
   0.00000000  0.66666667  0.26803431
   0.49999865  0.66666667  0.26803431
   0.08333333  0.66666667  0.26803431
   0.58333457  0.66666667  0.26803431
   0.04166667  0.83333333  0.25575422
   0.54166661  0.83333333  0.25575422
   0.12500000  0.83333333  0.25575422
   0.62499972  0.83333333  0.25575422
   0.00000000  0.83333333  0.37742693
   0.49999865  0.83333333  0.37742693
   0.08333333  0.83333333  0.37742693
   0.58333457  0.83333333  0.37742693
   0.04166667  0.66666667  0.38370403
   0.54166661  0.66666667  0.38370403
   0.12500000  0.66666667  0.38370403
   0.62499972  0.66666667  0.38370403
   0.00000000  0.66666667  0.49999939
   0.49999865  0.66666667  0.49999939
   0.08333333  0.66666667  0.49999939
   0.58333457  0.66666667  0.49999939
   0.04166667  0.83333333  0.49999939
   0.54166661  0.83333333  0.49999939
   0.12500000  0.83333333  0.49999939
   0.62499972  0.83333333  0.49999939
   0.00000000  0.83333333  0.62257185
   0.49999865  0.83333333  0.62257185
   0.08333333  0.83333333  0.62257185
   0.58333457  0.83333333  0.62257185
   0.04166667  0.66666667  0.61629476
   0.54166661  0.66666667  0.61629476
   0.12500000  0.66666667  0.61629476
   0.62499972  0.66666667  0.61629476
   0.00000000  0.66666667  0.73196447
   0.49999865  0.66666667  0.73196447
   0.08333333  0.66666667  0.73196447
   0.58333457  0.66666667  0.73196447
   0.04166667  0.83333333  0.74424456
   0.54166661  0.83333333  0.74424456
   0.12500000  0.83333333  0.74424456
   0.62499972  0.83333333  0.74424456
   0.16666667  0.66666667  0.26803431
   0.66666768  0.66666667  0.26803431
   0.25000000  0.66666667  0.26803431
   0.75000079  0.66666667  0.26803431
   0.20833333  0.83333333  0.25575422
   0.70833283  0.83333333  0.25575422
   0.29166667  0.83333333  0.25575422
   0.79166594  0.83333333  0.25575422
   0.16666667  0.83333333  0.37742693
   0.66666768  0.83333333  0.37742693
   0.25000000  0.83333333  0.37742693
   0.75000079  0.83333333  0.37742693
   0.20833333  0.66666667  0.38370403
   0.70833283  0.66666667  0.38370403
   0.29166667  0.66666667  0.38370403
   0.79166594  0.66666667  0.38370403
   0.16666667  0.66666667  0.49999939
   0.66666768  0.66666667  0.49999939
   0.25000000  0.66666667  0.49999939
   0.75000079  0.66666667  0.49999939
   0.20833333  0.83333333  0.49999939
   0.70833283  0.83333333  0.49999939
   0.29166667  0.83333333  0.49999939
   0.79166594  0.83333333  0.49999939
   0.16666667  0.83333333  0.62257185
   0.66666768  0.83333333  0.62257185
   0.25000000  0.83333333  0.62257185
   0.75000079  0.83333333  0.62257185
   0.20833333  0.66666667  0.61629476
   0.70833283  0.66666667  0.61629476
   0.29166667  0.66666667  0.61629476
   0.79166594  0.66666667  0.61629476
   0.16666667  0.66666667  0.73196447
   0.66666768  0.66666667  0.73196447
   0.25000000  0.66666667  0.73196447
   0.75000079  0.66666667  0.73196447
   0.20833333  0.83333333  0.74424456
   0.70833283  0.83333333  0.74424456
   0.29166667  0.83333333  0.74424456
   0.79166594  0.83333333  0.74424456
   0.33333333  0.66666667  0.26803431
   0.83333389  0.66666667  0.26803431
   0.41666667  0.66666667  0.26803431
   0.91666700  0.66666667  0.26803431
   0.37500000  0.83333333  0.25575422
   0.87499905  0.83333333  0.25575422
   0.45833333  0.83333333  0.25575422
   0.95833216  0.83333333  0.25575422
   0.33333333  0.83333333  0.37742693
   0.83333389  0.83333333  0.37742693
   0.41666667  0.83333333  0.37742693
   0.91666700  0.83333333  0.37742693
   0.37500000  0.66666667  0.38370403
   0.87499905  0.66666667  0.38370403
   0.45833333  0.66666667  0.38370403
   0.95833216  0.66666667  0.38370403
   0.33333333  0.66666667  0.49999939
   0.83333389  0.66666667  0.49999939
   0.41666667  0.66666667  0.49999939
   0.91666700  0.66666667  0.49999939
   0.37500000  0.83333333  0.49999939
   0.87499905  0.83333333  0.49999939
   0.45833333  0.83333333  0.49999939
   0.95833216  0.83333333  0.49999939
   0.33333333  0.83333333  0.62257185
   0.83333389  0.83333333  0.62257185
   0.41666667  0.83333333  0.62257185
   0.91666700  0.83333333  0.62257185
   0.37500000  0.66666667  0.61629476
   0.87499905  0.66666667  0.61629476
   0.45833333  0.66666667  0.61629476
   0.95833216  0.66666667  0.61629476
   0.33333333  0.66666667  0.73196447
   0.83333389  0.66666667  0.73196447
   0.41666667  0.66666667  0.73196447
   0.91666700  0.66666667  0.73196447
   0.37500000  0.83333333  0.74424456
   0.87499905  0.83333333  0.74424456
   0.45833333  0.83333333  0.74424456
   0.95833216  0.83333333  0.74424456
   0.00000000  0.16666667  0.21609460
   0.49999865  0.16666667  0.21609460
   0.08333333  0.16666667  0.21609460
   0.58333457  0.16666667  0.21609460
   0.04166667  0.06245811  0.25634040
   0.54166661  0.06245811  0.25634040
   0.12500000  0.06245811  0.25634040
   0.62499972  0.06245811  0.25634040
   0.04166667  0.27087522  0.25634040
   0.54166661  0.27087522  0.25634040
   0.12500000  0.27087522  0.25634040
   0.62499972  0.27087522  0.25634040
   0.00000000  0.16666667  0.30918320
   0.49999865  0.16666667  0.30918320
   0.08333333  0.16666667  0.30918320
   0.58333457  0.16666667  0.30918320
   0.00000000  0.00000000  0.33444740
   0.49999865  0.00000000  0.33444740
   0.08333333  0.00000000  0.33444740
   0.58333457  0.00000000  0.33444740
   0.04166667  0.23337370  0.38089594
   0.54166661  0.23337370  0.38089594
   0.12500000  0.23337370  0.38089594
   0.62499972  0.23337370  0.38089594
   0.04166667  0.09995963  0.38089594
   0.54166661  0.09995963  0.38089594
   0.12500000  0.09995963  0.38089594
   0.62499972  0.09995963  0.38089594
   0.00000000  0.00000000  0.42753388
   0.49999865  0.00000000  0.42753388
   0.08333333  0.00000000  0.42753388
   0.58333457  0.00000000  0.42753388
   0.00000000  0.16666667  0.45331054
   0.49999865  0.16666667  0.45331054
   0.08333333  0.16666667  0.45331054
   0.58333457  0.16666667  0.45331054
   0.04166667  0.06516883  0.49999939
   0.54166661  0.06516883  0.49999939
   0.12500000  0.06516883  0.49999939
   0.62499972  0.06516883  0.49999939
   0.04166667  0.26816451  0.49999939
   0.54166661  0.26816451  0.49999939
   0.12500000  0.26816451  0.49999939
   0.62499972  0.26816451  0.49999939
   0.00000000  0.16666667  0.54668824
   0.49999865  0.16666667  0.54668824
   0.08333333  0.16666667  0.54668824
   0.58333457  0.16666667  0.54668824
   0.00000000  0.00000000  0.57246490
   0.49999865  0.00000000  0.57246490
   0.08333333  0.00000000  0.57246490
   0.58333457  0.00000000  0.57246490
   0.04166667  0.23337370  0.61910284
   0.54166661  0.23337370  0.61910284
   0.12500000  0.23337370  0.61910284
   0.62499972  0.23337370  0.61910284
   0.04166667  0.09995963  0.61910284
   0.54166661  0.09995963  0.61910284
   0.12500000  0.09995963  0.61910284
   0.62499972  0.09995963  0.61910284
   0.00000000  0.00000000  0.66555138
   0.49999865  0.00000000  0.66555138
   0.08333333  0.00000000  0.66555138
   0.58333457  0.00000000  0.66555138
   0.00000000  0.16666667  0.69081558
   0.49999865  0.16666667  0.69081558
   0.08333333  0.16666667  0.69081558
   0.58333457  0.16666667  0.69081558
   0.04166667  0.06245811  0.74365838
   0.54166661  0.06245811  0.74365838
   0.12500000  0.06245811  0.74365838
   0.62499972  0.06245811  0.74365838
   0.04166667  0.27087522  0.74365838
   0.54166661  0.27087522  0.74365838
   0.12500000  0.27087522  0.74365838
   0.62499972  0.27087522  0.74365838
   0.00000000  0.16666667  0.78390418
   0.49999865  0.16666667  0.78390418
   0.08333333  0.16666667  0.78390418
   0.58333457  0.16666667  0.78390418
   0.16666667  0.16666667  0.21609460
   0.66666768  0.16666667  0.21609460
   0.25000000  0.16666667  0.21609460
   0.75000079  0.16666667  0.21609460
   0.20833333  0.06245811  0.25634040
   0.70833283  0.06245811  0.25634040
   0.29166667  0.06245811  0.25634040
   0.79166594  0.06245811  0.25634040
   0.20833333  0.27087522  0.25634040
   0.70833283  0.27087522  0.25634040
   0.29166667  0.27087522  0.25634040
   0.79166594  0.27087522  0.25634040
   0.16666667  0.16666667  0.30918320
   0.66666768  0.16666667  0.30918320
   0.25000000  0.16666667  0.30918320
   0.75000079  0.16666667  0.30918320
   0.16666667  0.00000000  0.33444740
   0.66666768  0.00000000  0.33444740
   0.25000000  0.00000000  0.33444740
   0.75000079  0.00000000  0.33444740
   0.20833333  0.23337370  0.38089594
   0.70833283  0.23337370  0.38089594
   0.29166667  0.23337370  0.38089594
   0.79166594  0.23337370  0.38089594
   0.20833333  0.09995963  0.38089594
   0.70833283  0.09995963  0.38089594
   0.29166667  0.09995963  0.38089594
   0.79166594  0.09995963  0.38089594
   0.16666667  0.00000000  0.42753388
   0.66666768  0.00000000  0.42753388
   0.25000000  0.00000000  0.42753388
   0.75000079  0.00000000  0.42753388
   0.16666667  0.16666667  0.45331054
   0.66666768  0.16666667  0.45331054
   0.25000000  0.16666667  0.45331054
   0.75000079  0.16666667  0.45331054
   0.20833333  0.06516883  0.49999939
   0.70833283  0.06516883  0.49999939
   0.29166667  0.06516883  0.49999939
   0.79166594  0.06516883  0.49999939
   0.20833333  0.26816451  0.49999939
   0.70833283  0.26816451  0.49999939
   0.29166667  0.26816451  0.49999939
   0.79166594  0.26816451  0.49999939
   0.16666667  0.16666667  0.54668824
   0.66666768  0.16666667  0.54668824
   0.25000000  0.16666667  0.54668824
   0.75000079  0.16666667  0.54668824
   0.16666667  0.00000000  0.57246490
   0.66666768  0.00000000  0.57246490
   0.25000000  0.00000000  0.57246490
   0.75000079  0.00000000  0.57246490
   0.20833333  0.23337370  0.61910284
   0.70833283  0.23337370  0.61910284
   0.29166667  0.23337370  0.61910284
   0.79166594  0.23337370  0.61910284
   0.20833333  0.09995963  0.61910284
   0.70833283  0.09995963  0.61910284
   0.29166667  0.09995963  0.61910284
   0.79166594  0.09995963  0.61910284
   0.16666667  0.00000000  0.66555138
   0.66666768  0.00000000  0.66555138
   0.25000000  0.00000000  0.66555138
   0.75000079  0.00000000  0.66555138
   0.16666667  0.16666667  0.69081558
   0.66666768  0.16666667  0.69081558
   0.25000000  0.16666667  0.69081558
   0.75000079  0.16666667  0.69081558
   0.20833333  0.06245811  0.74365838
   0.70833283  0.06245811  0.74365838
   0.29166667  0.06245811  0.74365838
   0.79166594  0.06245811  0.74365838
   0.20833333  0.27087522  0.74365838
   0.70833283  0.27087522  0.74365838
   0.29166667  0.27087522  0.74365838
   0.79166594  0.27087522  0.74365838
   0.16666667  0.16666667  0.78390418
   0.66666768  0.16666667  0.78390418
   0.25000000  0.16666667  0.78390418
   0.75000079  0.16666667  0.78390418
   0.33333333  0.16666667  0.21609460
   0.83333389  0.16666667  0.21609460
   0.41666667  0.16666667  0.21609460
   0.91666700  0.16666667  0.21609460
   0.37500000  0.06245811  0.25634040
   0.87499905  0.06245811  0.25634040
   0.45833333  0.06245811  0.25634040
   0.95833216  0.06245811  0.25634040
   0.37500000  0.27087522  0.25634040
   0.87499905  0.27087522  0.25634040
   0.45833333  0.27087522  0.25634040
   0.95833216  0.27087522  0.25634040
   0.33333333  0.16666667  0.30918320
   0.83333389  0.16666667  0.30918320
   0.41666667  0.16666667  0.30918320
   0.91666700  0.16666667  0.30918320
   0.33333333  0.00000000  0.33444740
   0.83333389  0.00000000  0.33444740
   0.41666667  0.00000000  0.33444740
   0.91666700  0.00000000  0.33444740
   0.37500000  0.23337370  0.38089594
   0.87499905  0.23337370  0.38089594
   0.45833333  0.23337370  0.38089594
   0.95833216  0.23337370  0.38089594
   0.37500000  0.09995963  0.38089594
   0.87499905  0.09995963  0.38089594
   0.45833333  0.09995963  0.38089594
   0.95833216  0.09995963  0.38089594
   0.33333333  0.00000000  0.42753388
   0.83333389  0.00000000  0.42753388
   0.41666667  0.00000000  0.42753388
   0.91666700  0.00000000  0.42753388
   0.33333333  0.16666667  0.45331054
   0.83333389  0.16666667  0.45331054
   0.41666667  0.16666667  0.45331054
   0.91666700  0.16666667  0.45331054
   0.37500000  0.06516883  0.49999939
   0.87499905  0.06516883  0.49999939
   0.45833333  0.06516883  0.49999939
   0.95833216  0.06516883  0.49999939
   0.37500000  0.26816451  0.49999939
   0.87499905  0.26816451  0.49999939
   0.45833333  0.26816451  0.49999939
   0.95833216  0.26816451  0.49999939
   0.33333333  0.16666667  0.54668824
   0.83333389  0.16666667  0.54668824
   0.41666667  0.16666667  0.54668824
   0.91666700  0.16666667  0.54668824
   0.33333333  0.00000000  0.57246490
   0.83333389  0.00000000  0.57246490
   0.41666667  0.00000000  0.57246490
   0.91666700  0.00000000  0.57246490
   0.37500000  0.23337370  0.61910284
   0.87499905  0.23337370  0.61910284
   0.45833333  0.23337370  0.61910284
   0.95833216  0.23337370  0.61910284
   0.37500000  0.09995963  0.61910284
   0.87499905  0.09995963  0.61910284
   0.45833333  0.09995963  0.61910284
   0.95833216  0.09995963  0.61910284
   0.33333333  0.00000000  0.66555138
   0.83333389  0.00000000  0.66555138
   0.41666667  0.00000000  0.66555138
   0.91666700  0.00000000  0.66555138
   0.33333333  0.16666667  0.69081558
   0.83333389  0.16666667  0.69081558
   0.41666667  0.16666667  0.69081558
   0.91666700  0.16666667  0.69081558
   0.37500000  0.06245811  0.74365838
   0.87499905  0.06245811  0.74365838
   0.45833333  0.06245811  0.74365838
   0.95833216  0.06245811  0.74365838
   0.37500000  0.27087522  0.74365838
   0.87499905  0.27087522  0.74365838
   0.45833333  0.27087522  0.74365838
   0.95833216  0.27087522  0.74365838
   0.33333333  0.16666667  0.78390418
   0.83333389  0.16666667  0.78390418
   0.41666667  0.16666667  0.78390418
   0.91666700  0.16666667  0.78390418
   0.00000000  0.50000000  0.21609460
   0.49999865  0.50000000  0.21609460
   0.08333333  0.50000000  0.21609460
   0.58333457  0.50000000  0.21609460
   0.04166667  0.39579144  0.25634040
   0.54166661  0.39579144  0.25634040
   0.12500000  0.39579144  0.25634040
   0.62499972  0.39579144  0.25634040
   0.04166667  0.60420856  0.25634040
   0.54166661  0.60420856  0.25634040
   0.12500000  0.60420856  0.25634040
   0.62499972  0.60420856  0.25634040
   0.00000000  0.50000000  0.30918320
   0.49999865  0.50000000  0.30918320
   0.08333333  0.50000000  0.30918320
   0.58333457  0.50000000  0.30918320
   0.00000000  0.33333333  0.33444740
   0.49999865  0.33333333  0.33444740
   0.08333333  0.33333333  0.33444740
   0.58333457  0.33333333  0.33444740
   0.04166667  0.56670703  0.38089594
   0.54166661  0.56670703  0.38089594
   0.12500000  0.56670703  0.38089594
   0.62499972  0.56670703  0.38089594
   0.04166667  0.43329297  0.38089594
   0.54166661  0.43329297  0.38089594
   0.12500000  0.43329297  0.38089594
   0.62499972  0.43329297  0.38089594
   0.00000000  0.33333333  0.42753388
   0.49999865  0.33333333  0.42753388
   0.08333333  0.33333333  0.42753388
   0.58333457  0.33333333  0.42753388
   0.00000000  0.50000000  0.45331054
   0.49999865  0.50000000  0.45331054
   0.08333333  0.50000000  0.45331054
   0.58333457  0.50000000  0.45331054
   0.04166667  0.39850216  0.49999939
   0.54166661  0.39850216  0.49999939
   0.12500000  0.39850216  0.49999939
   0.62499972  0.39850216  0.49999939
   0.04166667  0.60149784  0.49999939
   0.54166661  0.60149784  0.49999939
   0.12500000  0.60149784  0.49999939
   0.62499972  0.60149784  0.49999939
   0.00000000  0.50000000  0.54668824
   0.49999865  0.50000000  0.54668824
   0.08333333  0.50000000  0.54668824
   0.58333457  0.50000000  0.54668824
   0.00000000  0.33333333  0.57246490
   0.49999865  0.33333333  0.57246490
   0.08333333  0.33333333  0.57246490
   0.58333457  0.33333333  0.57246490
   0.04166667  0.56670703  0.61910284
   0.54166661  0.56670703  0.61910284
   0.12500000  0.56670703  0.61910284
   0.62499972  0.56670703  0.61910284
   0.04166667  0.43329297  0.61910284
   0.54166661  0.43329297  0.61910284
   0.12500000  0.43329297  0.61910284
   0.62499972  0.43329297  0.61910284
   0.00000000  0.33333333  0.66555138
   0.49999865  0.33333333  0.66555138
   0.08333333  0.33333333  0.66555138
   0.58333457  0.33333333  0.66555138
   0.00000000  0.50000000  0.69081558
   0.49999865  0.50000000  0.69081558
   0.08333333  0.50000000  0.69081558
   0.58333457  0.50000000  0.69081558
   0.04166667  0.39579144  0.74365838
   0.54166661  0.39579144  0.74365838
   0.12500000  0.39579144  0.74365838
   0.62499972  0.39579144  0.74365838
   0.04166667  0.60420856  0.74365838
   0.54166661  0.60420856  0.74365838
   0.12500000  0.60420856  0.74365838
   0.62499972  0.60420856  0.74365838
   0.00000000  0.50000000  0.78390418
   0.49999865  0.50000000  0.78390418
   0.08333333  0.50000000  0.78390418
   0.58333457  0.50000000  0.78390418
   0.16666667  0.50000000  0.21609460
   0.66666768  0.50000000  0.21609460
   0.25000000  0.50000000  0.21609460
   0.75000079  0.50000000  0.21609460
   0.20833333  0.39579144  0.25634040
   0.70833283  0.39579144  0.25634040
   0.29166667  0.39579144  0.25634040
   0.79166594  0.39579144  0.25634040
   0.20833333  0.60420856  0.25634040
   0.70833283  0.60420856  0.25634040
   0.29166667  0.60420856  0.25634040
   0.79166594  0.60420856  0.25634040
   0.16666667  0.50000000  0.30918320
   0.66666768  0.50000000  0.30918320
   0.25000000  0.50000000  0.30918320
   0.75000079  0.50000000  0.30918320
   0.16666667  0.33333333  0.33444740
   0.66666768  0.33333333  0.33444740
   0.25000000  0.33333333  0.33444740
   0.75000079  0.33333333  0.33444740
   0.20833333  0.56670703  0.38089594
   0.70833283  0.56670703  0.38089594
   0.29166667  0.56670703  0.38089594
   0.79166594  0.56670703  0.38089594
   0.20833333  0.43329297  0.38089594
   0.70833283  0.43329297  0.38089594
   0.29166667  0.43329297  0.38089594
   0.79166594  0.43329297  0.38089594
   0.16666667  0.33333333  0.42753388
   0.66666768  0.33333333  0.42753388
   0.25000000  0.33333333  0.42753388
   0.75000079  0.33333333  0.42753388
   0.16666667  0.50000000  0.45331054
   0.66666768  0.50000000  0.45331054
   0.25000000  0.50000000  0.45331054
   0.75000079  0.50000000  0.45331054
   0.20833333  0.39850216  0.49999939
   0.70833283  0.39850216  0.49999939
   0.29166667  0.39850216  0.49999939
   0.79166594  0.39850216  0.49999939
   0.20833333  0.60149784  0.49999939
   0.70833283  0.60149784  0.49999939
   0.29166667  0.60149784  0.49999939
   0.79166594  0.60149784  0.49999939
   0.16666667  0.50000000  0.54668824
   0.66666768  0.50000000  0.54668824
   0.25000000  0.50000000  0.54668824
   0.75000079  0.50000000  0.54668824
   0.16666667  0.33333333  0.57246490
   0.66666768  0.33333333  0.57246490
   0.25000000  0.33333333  0.57246490
   0.75000079  0.33333333  0.57246490
   0.20833333  0.56670703  0.61910284
   0.70833283  0.56670703  0.61910284
   0.29166667  0.56670703  0.61910284
   0.79166594  0.56670703  0.61910284
   0.20833333  0.43329297  0.61910284
   0.70833283  0.43329297  0.61910284
   0.29166667  0.43329297  0.61910284
   0.79166594  0.43329297  0.61910284
   0.16666667  0.33333333  0.66555138
   0.66666768  0.33333333  0.66555138
   0.25000000  0.33333333  0.66555138
   0.75000079  0.33333333  0.66555138
   0.16666667  0.50000000  0.69081558
   0.66666768  0.50000000  0.69081558
   0.25000000  0.50000000  0.69081558
   0.75000079  0.50000000  0.69081558
   0.20833333  0.39579144  0.74365838
   0.70833283  0.39579144  0.74365838
   0.29166667  0.39579144  0.74365838
   0.79166594  0.39579144  0.74365838
   0.20833333  0.60420856  0.74365838
   0.70833283  0.60420856  0.74365838
   0.29166667  0.60420856  0.74365838
   0.79166594  0.60420856  0.74365838
   0.16666667  0.50000000  0.78390418
   0.66666768  0.50000000  0.78390418
   0.25000000  0.50000000  0.78390418
   0.75000079  0.50000000  0.78390418
   0.33333333  0.50000000  0.21609460
   0.83333389  0.50000000  0.21609460
   0.41666667  0.50000000  0.21609460
   0.91666700  0.50000000  0.21609460
   0.37500000  0.39579144  0.25634040
   0.87499905  0.39579144  0.25634040
   0.45833333  0.39579144  0.25634040
   0.95833216  0.39579144  0.25634040
   0.37500000  0.60420856  0.25634040
   0.87499905  0.60420856  0.25634040
   0.45833333  0.60420856  0.25634040
   0.95833216  0.60420856  0.25634040
   0.33333333  0.50000000  0.30918320
   0.83333389  0.50000000  0.30918320
   0.41666667  0.50000000  0.30918320
   0.91666700  0.50000000  0.30918320
   0.33333333  0.33333333  0.33444740
   0.83333389  0.33333333  0.33444740
   0.41666667  0.33333333  0.33444740
   0.91666700  0.33333333  0.33444740
   0.37500000  0.56670703  0.38089594
   0.87499905  0.56670703  0.38089594
   0.45833333  0.56670703  0.38089594
   0.95833216  0.56670703  0.38089594
   0.37500000  0.43329297  0.38089594
   0.87499905  0.43329297  0.38089594
   0.45833333  0.43329297  0.38089594
   0.95833216  0.43329297  0.38089594
   0.33333333  0.33333333  0.42753388
   0.83333389  0.33333333  0.42753388
   0.41666667  0.33333333  0.42753388
   0.91666700  0.33333333  0.42753388
   0.33333333  0.50000000  0.45331054
   0.83333389  0.50000000  0.45331054
   0.41666667  0.50000000  0.45331054
   0.91666700  0.50000000  0.45331054
   0.37500000  0.39850216  0.49999939
   0.87499905  0.39850216  0.49999939
   0.45833333  0.39850216  0.49999939
   0.95833216  0.39850216  0.49999939
   0.37500000  0.60149784  0.49999939
   0.87499905  0.60149784  0.49999939
   0.45833333  0.60149784  0.49999939
   0.95833216  0.60149784  0.49999939
   0.33333333  0.50000000  0.54668824
   0.83333389  0.50000000  0.54668824
   0.41666667  0.50000000  0.54668824
   0.91666700  0.50000000  0.54668824
   0.33333333  0.33333333  0.57246490
   0.83333389  0.33333333  0.57246490
   0.41666667  0.33333333  0.57246490
   0.91666700  0.33333333  0.57246490
   0.37500000  0.56670703  0.61910284
   0.87499905  0.56670703  0.61910284
   0.45833333  0.56670703  0.61910284
   0.95833216  0.56670703  0.61910284
   0.37500000  0.43329297  0.61910284
   0.87499905  0.43329297  0.61910284
   0.45833333  0.43329297  0.61910284
   0.95833216  0.43329297  0.61910284
   0.33333333  0.33333333  0.66555138
   0.83333389  0.33333333  0.66555138
   0.41666667  0.33333333  0.66555138
   0.91666700  0.33333333  0.66555138
   0.33333333  0.50000000  0.69081558
   0.83333389  0.50000000  0.69081558
   0.41666667  0.50000000  0.69081558
   0.91666700  0.50000000  0.69081558
   0.37500000  0.39579144  0.74365838
   0.87499905  0.39579144  0.74365838
   0.45833333  0.39579144  0.74365838
   0.95833216  0.39579144  0.74365838
   0.37500000  0.60420856  0.74365838
   0.87499905  0.60420856  0.74365838
   0.45833333  0.60420856  0.74365838
   0.95833216  0.60420856  0.74365838
   0.33333333  0.50000000  0.78390418
   0.83333389  0.50000000  0.78390418
   0.41666667  0.50000000  0.78390418
   0.91666700  0.50000000  0.78390418
   0.00000000  0.83333333  0.21609460
   0.49999865  0.83333333  0.21609460
   0.08333333  0.83333333  0.21609460
   0.58333457  0.83333333  0.21609460
   0.04166667  0.72912478  0.25634040
   0.54166661  0.72912478  0.25634040
   0.12500000  0.72912478  0.25634040
   0.62499972  0.72912478  0.25634040
   0.04166667  0.93754189  0.25634040
   0.54166661  0.93754189  0.25634040
   0.12500000  0.93754189  0.25634040
   0.62499972  0.93754189  0.25634040
   0.00000000  0.83333333  0.30918320
   0.49999865  0.83333333  0.30918320
   0.08333333  0.83333333  0.30918320
   0.58333457  0.83333333  0.30918320
   0.00000000  0.66666667  0.33444740
   0.49999865  0.66666667  0.33444740
   0.08333333  0.66666667  0.33444740
   0.58333457  0.66666667  0.33444740
   0.04166667  0.90004037  0.38089594
   0.54166661  0.90004037  0.38089594
   0.12500000  0.90004037  0.38089594
   0.62499972  0.90004037  0.38089594
   0.04166667  0.76662630  0.38089594
   0.54166661  0.76662630  0.38089594
   0.12500000  0.76662630  0.38089594
   0.62499972  0.76662630  0.38089594
   0.00000000  0.66666667  0.42753388
   0.49999865  0.66666667  0.42753388
   0.08333333  0.66666667  0.42753388
   0.58333457  0.66666667  0.42753388
   0.00000000  0.83333333  0.45331054
   0.49999865  0.83333333  0.45331054
   0.08333333  0.83333333  0.45331054
   0.58333457  0.83333333  0.45331054
   0.04166667  0.73183549  0.49999939
   0.54166661  0.73183549  0.49999939
   0.12500000  0.73183549  0.49999939
   0.62499972  0.73183549  0.49999939
   0.04166667  0.93483117  0.49999939
   0.54166661  0.93483117  0.49999939
   0.12500000  0.93483117  0.49999939
   0.62499972  0.93483117  0.49999939
   0.00000000  0.83333333  0.54668824
   0.49999865  0.83333333  0.54668824
   0.08333333  0.83333333  0.54668824
   0.58333457  0.83333333  0.54668824
   0.00000000  0.66666667  0.57246490
   0.49999865  0.66666667  0.57246490
   0.08333333  0.66666667  0.57246490
   0.58333457  0.66666667  0.57246490
   0.04166667  0.90004037  0.61910284
   0.54166661  0.90004037  0.61910284
   0.12500000  0.90004037  0.61910284
   0.62499972  0.90004037  0.61910284
   0.04166667  0.76662630  0.61910284
   0.54166661  0.76662630  0.61910284
   0.12500000  0.76662630  0.61910284
   0.62499972  0.76662630  0.61910284
   0.00000000  0.66666667  0.66555138
   0.49999865  0.66666667  0.66555138
   0.08333333  0.66666667  0.66555138
   0.58333457  0.66666667  0.66555138
   0.00000000  0.83333333  0.69081558
   0.49999865  0.83333333  0.69081558
   0.08333333  0.83333333  0.69081558
   0.58333457  0.83333333  0.69081558
   0.04166667  0.72912478  0.74365838
   0.54166661  0.72912478  0.74365838
   0.12500000  0.72912478  0.74365838
   0.62499972  0.72912478  0.74365838
   0.04166667  0.93754189  0.74365838
   0.54166661  0.93754189  0.74365838
   0.12500000  0.93754189  0.74365838
   0.62499972  0.93754189  0.74365838
   0.00000000  0.83333333  0.78390418
   0.49999865  0.83333333  0.78390418
   0.08333333  0.83333333  0.78390418
   0.58333457  0.83333333  0.78390418
   0.16666667  0.83333333  0.21609460
   0.66666768  0.83333333  0.21609460
   0.25000000  0.83333333  0.21609460
   0.75000079  0.83333333  0.21609460
   0.20833333  0.72912478  0.25634040
   0.70833283  0.72912478  0.25634040
   0.29166667  0.72912478  0.25634040
   0.79166594  0.72912478  0.25634040
   0.20833333  0.93754189  0.25634040
   0.70833283  0.93754189  0.25634040
   0.29166667  0.93754189  0.25634040
   0.79166594  0.93754189  0.25634040
   0.16666667  0.83333333  0.30918320
   0.66666768  0.83333333  0.30918320
   0.25000000  0.83333333  0.30918320
   0.75000079  0.83333333  0.30918320
   0.16666667  0.66666667  0.33444740
   0.66666768  0.66666667  0.33444740
   0.25000000  0.66666667  0.33444740
   0.75000079  0.66666667  0.33444740
   0.20833333  0.90004037  0.38089594
   0.70833283  0.90004037  0.38089594
   0.29166667  0.90004037  0.38089594
   0.79166594  0.90004037  0.38089594
   0.20833333  0.76662630  0.38089594
   0.70833283  0.76662630  0.38089594
   0.29166667  0.76662630  0.38089594
   0.79166594  0.76662630  0.38089594
   0.16666667  0.66666667  0.42753388
   0.66666768  0.66666667  0.42753388
   0.25000000  0.66666667  0.42753388
   0.75000079  0.66666667  0.42753388
   0.16666667  0.83333333  0.45331054
   0.66666768  0.83333333  0.45331054
   0.25000000  0.83333333  0.45331054
   0.75000079  0.83333333  0.45331054
   0.20833333  0.73183549  0.49999939
   0.70833283  0.73183549  0.49999939
   0.29166667  0.73183549  0.49999939
   0.79166594  0.73183549  0.49999939
   0.20833333  0.93483117  0.49999939
   0.70833283  0.93483117  0.49999939
   0.29166667  0.93483117  0.49999939
   0.79166594  0.93483117  0.49999939
   0.16666667  0.83333333  0.54668824
   0.66666768  0.83333333  0.54668824
   0.25000000  0.83333333  0.54668824
   0.75000079  0.83333333  0.54668824
   0.16666667  0.66666667  0.57246490
   0.66666768  0.66666667  0.57246490
   0.25000000  0.66666667  0.57246490
   0.75000079  0.66666667  0.57246490
   0.20833333  0.90004037  0.61910284
   0.70833283  0.90004037  0.61910284
   0.29166667  0.90004037  0.61910284
   0.79166594  0.90004037  0.61910284
   0.20833333  0.76662630  0.61910284
   0.70833283  0.76662630  0.61910284
   0.29166667  0.76662630  0.61910284
   0.79166594  0.76662630  0.61910284
   0.16666667  0.66666667  0.66555138
   0.66666768  0.66666667  0.66555138
   0.25000000  0.66666667  0.66555138
   0.75000079  0.66666667  0.66555138
   0.16666667  0.83333333  0.69081558
   0.66666768  0.83333333  0.69081558
   0.25000000  0.83333333  0.69081558
   0.75000079  0.83333333  0.69081558
   0.20833333  0.72912478  0.74365838
   0.70833283  0.72912478  0.74365838
   0.29166667  0.72912478  0.74365838
   0.79166594  0.72912478  0.74365838
   0.20833333  0.93754189  0.74365838
   0.70833283  0.93754189  0.74365838
   0.29166667  0.93754189  0.74365838
   0.79166594  0.93754189  0.74365838
   0.16666667  0.83333333  0.78390418
   0.66666768  0.83333333  0.78390418
   0.25000000  0.83333333  0.78390418
   0.75000079  0.83333333  0.78390418
   0.33333333  0.83333333  0.21609460
   0.83333389  0.83333333  0.21609460
   0.41666667  0.83333333  0.21609460
   0.91666700  0.83333333  0.21609460
   0.37500000  0.72912478  0.25634040
   0.87499905  0.72912478  0.25634040
   0.45833333  0.72912478  0.25634040
   0.95833216  0.72912478  0.25634040
   0.37500000  0.93754189  0.25634040
   0.87499905  0.93754189  0.25634040
   0.45833333  0.93754189  0.25634040
   0.95833216  0.93754189  0.25634040
   0.33333333  0.83333333  0.30918320
   0.83333389  0.83333333  0.30918320
   0.41666667  0.83333333  0.30918320
   0.91666700  0.83333333  0.30918320
   0.33333333  0.66666667  0.33444740
   0.83333389  0.66666667  0.33444740
   0.41666667  0.66666667  0.33444740
   0.91666700  0.66666667  0.33444740
   0.37500000  0.90004037  0.38089594
   0.87499905  0.90004037  0.38089594
   0.45833333  0.90004037  0.38089594
   0.95833216  0.90004037  0.38089594
   0.37500000  0.76662630  0.38089594
   0.87499905  0.76662630  0.38089594
   0.45833333  0.76662630  0.38089594
   0.95833216  0.76662630  0.38089594
   0.33333333  0.66666667  0.42753388
   0.83333389  0.66666667  0.42753388
   0.41666667  0.66666667  0.42753388
   0.91666700  0.66666667  0.42753388
   0.33333333  0.83333333  0.45331054
   0.83333389  0.83333333  0.45331054
   0.41666667  0.83333333  0.45331054
   0.91666700  0.83333333  0.45331054
   0.37500000  0.73183549  0.49999939
   0.87499905  0.73183549  0.49999939
   0.45833333  0.73183549  0.49999939
   0.95833216  0.73183549  0.49999939
   0.37500000  0.93483117  0.49999939
   0.87499905  0.93483117  0.49999939
   0.45833333  0.93483117  0.49999939
   0.95833216  0.93483117  0.49999939
   0.33333333  0.83333333  0.54668824
   0.83333389  0.83333333  0.54668824
   0.41666667  0.83333333  0.54668824
   0.91666700  0.83333333  0.54668824
   0.33333333  0.66666667  0.57246490
   0.83333389  0.66666667  0.57246490
   0.41666667  0.66666667  0.57246490
   0.91666700  0.66666667  0.57246490
   0.37500000  0.90004037  0.61910284
   0.87499905  0.90004037  0.61910284
   0.45833333  0.90004037  0.61910284
   0.95833216  0.90004037  0.61910284
   0.37500000  0.76662630  0.61910284
   0.87499905  0.76662630  0.61910284
   0.45833333  0.76662630  0.61910284
   0.95833216  0.76662630  0.61910284
   0.33333333  0.66666667  0.66555138
   0.83333389  0.66666667  0.66555138
   0.41666667  0.66666667  0.66555138
   0.91666700  0.66666667  0.66555138
   0.33333333  0.83333333  0.69081558
   0.83333389  0.83333333  0.69081558
   0.41666667  0.83333333  0.69081558
   0.91666700  0.83333333  0.69081558
   0.37500000  0.72912478  0.74365838
   0.87499905  0.72912478  0.74365838
   0.45833333  0.72912478  0.74365838
   0.95833216  0.72912478  0.74365838
   0.37500000  0.93754189  0.74365838
   0.87499905  0.93754189  0.74365838
   0.45833333  0.93754189  0.74365838
   0.95833216  0.93754189  0.74365838
   0.33333333  0.83333333  0.78390418
   0.83333389  0.83333333  0.78390418
   0.41666667  0.83333333  0.78390418
   0.91666700  0.83333333  0.78390418

 position of ions in cartesian coordinates  (Angst):
   0.00000000  0.00000000  7.43449438
  17.82780000  0.00000000  7.43449438
   2.97130800  0.00000000  7.43449438
  20.79920000  0.00000000  7.43449438
   1.48565400  3.29087850  7.09388047
  19.31350000  3.29087850  7.09388047
   4.45696200  3.29087850  7.09388047
  22.28480000  3.29087850  7.09388047
   0.00000000  3.29087850 10.46872860
  17.82780000  3.29087850 10.46872860
   2.97130800  3.29087850 10.46872860
  20.79920000  3.29087850 10.46872860
   1.48565400  0.00000000 10.64283691
  19.31350000  0.00000000 10.64283691
   4.45696200  0.00000000 10.64283691
  22.28480000  0.00000000 10.64283691
   0.00000000  0.00000000 13.86853311
  17.82780000  0.00000000 13.86853311
   2.97130800  0.00000000 13.86853311
  20.79920000  0.00000000 13.86853311
   1.48565400  3.29087850 13.86853311
  19.31350000  3.29087850 13.86853311
   4.45696200  3.29087850 13.86853311
  22.28480000  3.29087850 13.86853311
   0.00000000  3.29087850 17.26833762
  17.82780000  3.29087850 17.26833762
   2.97130800  3.29087850 17.26833762
  20.79920000  3.29087850 17.26833762
   1.48565400  0.00000000 17.09422930
  19.31350000  0.00000000 17.09422930
   4.45696200  0.00000000 17.09422930
  22.28480000  0.00000000 17.09422930
   0.00000000  0.00000000 20.30257183
  17.82780000  0.00000000 20.30257183
   2.97130800  0.00000000 20.30257183
  20.79920000  0.00000000 20.30257183
   1.48565400  3.29087850 20.64318574
  19.31350000  3.29087850 20.64318574
   4.45696200  3.29087850 20.64318574
  22.28480000  3.29087850 20.64318574
   5.94261600  0.00000000  7.43449438
  23.77050000  0.00000000  7.43449438
   8.91392400  0.00000000  7.43449438
  26.74180000  0.00000000  7.43449438
   7.42827000  3.29087850  7.09388047
  25.25610000  3.29087850  7.09388047
  10.39957800  3.29087850  7.09388047
  28.22740000  3.29087850  7.09388047
   5.94261600  3.29087850 10.46872860
  23.77050000  3.29087850 10.46872860
   8.91392400  3.29087850 10.46872860
  26.74180000  3.29087850 10.46872860
   7.42827000  0.00000000 10.64283691
  25.25610000  0.00000000 10.64283691
  10.39957800  0.00000000 10.64283691
  28.22740000  0.00000000 10.64283691
   5.94261600  0.00000000 13.86853311
  23.77050000  0.00000000 13.86853311
   8.91392400  0.00000000 13.86853311
  26.74180000  0.00000000 13.86853311
   7.42827000  3.29087850 13.86853311
  25.25610000  3.29087850 13.86853311
  10.39957800  3.29087850 13.86853311
  28.22740000  3.29087850 13.86853311
   5.94261600  3.29087850 17.26833762
  23.77050000  3.29087850 17.26833762
   8.91392400  3.29087850 17.26833762
  26.74180000  3.29087850 17.26833762
   7.42827000  0.00000000 17.09422930
  25.25610000  0.00000000 17.09422930
  10.39957800  0.00000000 17.09422930
  28.22740000  0.00000000 17.09422930
   5.94261600  0.00000000 20.30257183
  23.77050000  0.00000000 20.30257183
   8.91392400  0.00000000 20.30257183
  26.74180000  0.00000000 20.30257183
   7.42827000  3.29087850 20.64318574
  25.25610000  3.29087850 20.64318574
  10.39957800  3.29087850 20.64318574
  28.22740000  3.29087850 20.64318574
  11.88523200  0.00000000  7.43449438
  29.71310000  0.00000000  7.43449438
  14.85654000  0.00000000  7.43449438
  32.68440000  0.00000000  7.43449438
  13.37088600  3.29087850  7.09388047
  31.19870000  3.29087850  7.09388047
  16.34219400  3.29087850  7.09388047
  34.17000000  3.29087850  7.09388047
  11.88523200  3.29087850 10.46872860
  29.71310000  3.29087850 10.46872860
  14.85654000  3.29087850 10.46872860
  32.68440000  3.29087850 10.46872860
  13.37088600  0.00000000 10.64283691
  31.19870000  0.00000000 10.64283691
  16.34219400  0.00000000 10.64283691
  34.17000000  0.00000000 10.64283691
  11.88523200  0.00000000 13.86853311
  29.71310000  0.00000000 13.86853311
  14.85654000  0.00000000 13.86853311
  32.68440000  0.00000000 13.86853311
  13.37088600  3.29087850 13.86853311
  31.19870000  3.29087850 13.86853311
  16.34219400  3.29087850 13.86853311
  34.17000000  3.29087850 13.86853311
  11.88523200  3.29087850 17.26833762
  29.71310000  3.29087850 17.26833762
  14.85654000  3.29087850 17.26833762
  32.68440000  3.29087850 17.26833762
  13.37088600  0.00000000 17.09422930
  31.19870000  0.00000000 17.09422930
  16.34219400  0.00000000 17.09422930
  34.17000000  0.00000000 17.09422930
  11.88523200  0.00000000 20.30257183
  29.71310000  0.00000000 20.30257183
  14.85654000  0.00000000 20.30257183
  32.68440000  0.00000000 20.30257183
  13.37088600  3.29087850 20.64318574
  31.19870000  3.29087850 20.64318574
  16.34219400  3.29087850 20.64318574
  34.17000000  3.29087850 20.64318574
   0.00000000  6.58175700  7.43449438
  17.82780000  6.58175700  7.43449438
   2.97130800  6.58175700  7.43449438
  20.79920000  6.58175700  7.43449438
   1.48565400  9.87263550  7.09388047
  19.31350000  9.87263550  7.09388047
   4.45696200  9.87263550  7.09388047
  22.28480000  9.87263550  7.09388047
   0.00000000  9.87263550 10.46872860
  17.82780000  9.87263550 10.46872860
   2.97130800  9.87263550 10.46872860
  20.79920000  9.87263550 10.46872860
   1.48565400  6.58175700 10.64283691
  19.31350000  6.58175700 10.64283691
   4.45696200  6.58175700 10.64283691
  22.28480000  6.58175700 10.64283691
   0.00000000  6.58175700 13.86853311
  17.82780000  6.58175700 13.86853311
   2.97130800  6.58175700 13.86853311
  20.79920000  6.58175700 13.86853311
   1.48565400  9.87263550 13.86853311
  19.31350000  9.87263550 13.86853311
   4.45696200  9.87263550 13.86853311
  22.28480000  9.87263550 13.86853311
   0.00000000  9.87263550 17.26833762
  17.82780000  9.87263550 17.26833762
   2.97130800  9.87263550 17.26833762
  20.79920000  9.87263550 17.26833762
   1.48565400  6.58175700 17.09422930
  19.31350000  6.58175700 17.09422930
   4.45696200  6.58175700 17.09422930
  22.28480000  6.58175700 17.09422930
   0.00000000  6.58175700 20.30257183
  17.82780000  6.58175700 20.30257183
   2.97130800  6.58175700 20.30257183
  20.79920000  6.58175700 20.30257183
   1.48565400  9.87263550 20.64318574
  19.31350000  9.87263550 20.64318574
   4.45696200  9.87263550 20.64318574
  22.28480000  9.87263550 20.64318574
   5.94261600  6.58175700  7.43449438
  23.77050000  6.58175700  7.43449438
   8.91392400  6.58175700  7.43449438
  26.74180000  6.58175700  7.43449438
   7.42827000  9.87263550  7.09388047
  25.25610000  9.87263550  7.09388047
  10.39957800  9.87263550  7.09388047
  28.22740000  9.87263550  7.09388047
   5.94261600  9.87263550 10.46872860
  23.77050000  9.87263550 10.46872860
   8.91392400  9.87263550 10.46872860
  26.74180000  9.87263550 10.46872860
   7.42827000  6.58175700 10.64283691
  25.25610000  6.58175700 10.64283691
  10.39957800  6.58175700 10.64283691
  28.22740000  6.58175700 10.64283691
   5.94261600  6.58175700 13.86853311
  23.77050000  6.58175700 13.86853311
   8.91392400  6.58175700 13.86853311
  26.74180000  6.58175700 13.86853311
   7.42827000  9.87263550 13.86853311
  25.25610000  9.87263550 13.86853311
  10.39957800  9.87263550 13.86853311
  28.22740000  9.87263550 13.86853311
   5.94261600  9.87263550 17.26833762
  23.77050000  9.87263550 17.26833762
   8.91392400  9.87263550 17.26833762
  26.74180000  9.87263550 17.26833762
   7.42827000  6.58175700 17.09422930
  25.25610000  6.58175700 17.09422930
  10.39957800  6.58175700 17.09422930
  28.22740000  6.58175700 17.09422930
   5.94261600  6.58175700 20.30257183
  23.77050000  6.58175700 20.30257183
   8.91392400  6.58175700 20.30257183
  26.74180000  6.58175700 20.30257183
   7.42827000  9.87263550 20.64318574
  25.25610000  9.87263550 20.64318574
  10.39957800  9.87263550 20.64318574
  28.22740000  9.87263550 20.64318574
  11.88523200  6.58175700  7.43449438
  29.71310000  6.58175700  7.43449438
  14.85654000  6.58175700  7.43449438
  32.68440000  6.58175700  7.43449438
  13.37088600  9.87263550  7.09388047
  31.19870000  9.87263550  7.09388047
  16.34219400  9.87263550  7.09388047
  34.17000000  9.87263550  7.09388047
  11.88523200  9.87263550 10.46872860
  29.71310000  9.87263550 10.46872860
  14.85654000  9.87263550 10.46872860
  32.68440000  9.87263550 10.46872860
  13.37088600  6.58175700 10.64283691
  31.19870000  6.58175700 10.64283691
  16.34219400  6.58175700 10.64283691
  34.17000000  6.58175700 10.64283691
  11.88523200  6.58175700 13.86853311
  29.71310000  6.58175700 13.86853311
  14.85654000  6.58175700 13.86853311
  32.68440000  6.58175700 13.86853311
  13.37088600  9.87263550 13.86853311
  31.19870000  9.87263550 13.86853311
  16.34219400  9.87263550 13.86853311
  34.17000000  9.87263550 13.86853311
  11.88523200  9.87263550 17.26833762
  29.71310000  9.87263550 17.26833762
  14.85654000  9.87263550 17.26833762
  32.68440000  9.87263550 17.26833762
  13.37088600  6.58175700 17.09422930
  31.19870000  6.58175700 17.09422930
  16.34219400  6.58175700 17.09422930
  34.17000000  6.58175700 17.09422930
  11.88523200  6.58175700 20.30257183
  29.71310000  6.58175700 20.30257183
  14.85654000  6.58175700 20.30257183
  32.68440000  6.58175700 20.30257183
  13.37088600  9.87263550 20.64318574
  31.19870000  9.87263550 20.64318574
  16.34219400  9.87263550 20.64318574
  34.17000000  9.87263550 20.64318574
   0.00000000 13.16351400  7.43449438
  17.82780000 13.16351400  7.43449438
   2.97130800 13.16351400  7.43449438
  20.79920000 13.16351400  7.43449438
   1.48565400 16.45439250  7.09388047
  19.31350000 16.45439250  7.09388047
   4.45696200 16.45439250  7.09388047
  22.28480000 16.45439250  7.09388047
   0.00000000 16.45439250 10.46872860
  17.82780000 16.45439250 10.46872860
   2.97130800 16.45439250 10.46872860
  20.79920000 16.45439250 10.46872860
   1.48565400 13.16351400 10.64283691
  19.31350000 13.16351400 10.64283691
   4.45696200 13.16351400 10.64283691
  22.28480000 13.16351400 10.64283691
   0.00000000 13.16351400 13.86853311
  17.82780000 13.16351400 13.86853311
   2.97130800 13.16351400 13.86853311
  20.79920000 13.16351400 13.86853311
   1.48565400 16.45439250 13.86853311
  19.31350000 16.45439250 13.86853311
   4.45696200 16.45439250 13.86853311
  22.28480000 16.45439250 13.86853311
   0.00000000 16.45439250 17.26833762
  17.82780000 16.45439250 17.26833762
   2.97130800 16.45439250 17.26833762
  20.79920000 16.45439250 17.26833762
   1.48565400 13.16351400 17.09422930
  19.31350000 13.16351400 17.09422930
   4.45696200 13.16351400 17.09422930
  22.28480000 13.16351400 17.09422930
   0.00000000 13.16351400 20.30257183
  17.82780000 13.16351400 20.30257183
   2.97130800 13.16351400 20.30257183
  20.79920000 13.16351400 20.30257183
   1.48565400 16.45439250 20.64318574
  19.31350000 16.45439250 20.64318574
   4.45696200 16.45439250 20.64318574
  22.28480000 16.45439250 20.64318574
   5.94261600 13.16351400  7.43449438
  23.77050000 13.16351400  7.43449438
   8.91392400 13.16351400  7.43449438
  26.74180000 13.16351400  7.43449438
   7.42827000 16.45439250  7.09388047
  25.25610000 16.45439250  7.09388047
  10.39957800 16.45439250  7.09388047
  28.22740000 16.45439250  7.09388047
   5.94261600 16.45439250 10.46872860
  23.77050000 16.45439250 10.46872860
   8.91392400 16.45439250 10.46872860
  26.74180000 16.45439250 10.46872860
   7.42827000 13.16351400 10.64283691
  25.25610000 13.16351400 10.64283691
  10.39957800 13.16351400 10.64283691
  28.22740000 13.16351400 10.64283691
   5.94261600 13.16351400 13.86853311
  23.77050000 13.16351400 13.86853311
   8.91392400 13.16351400 13.86853311
  26.74180000 13.16351400 13.86853311
   7.42827000 16.45439250 13.86853311
  25.25610000 16.45439250 13.86853311
  10.39957800 16.45439250 13.86853311
  28.22740000 16.45439250 13.86853311
   5.94261600 16.45439250 17.26833762
  23.77050000 16.45439250 17.26833762
   8.91392400 16.45439250 17.26833762
  26.74180000 16.45439250 17.26833762
   7.42827000 13.16351400 17.09422930
  25.25610000 13.16351400 17.09422930
  10.39957800 13.16351400 17.09422930
  28.22740000 13.16351400 17.09422930
   5.94261600 13.16351400 20.30257183
  23.77050000 13.16351400 20.30257183
   8.91392400 13.16351400 20.30257183
  26.74180000 13.16351400 20.30257183
   7.42827000 16.45439250 20.64318574
  25.25610000 16.45439250 20.64318574
  10.39957800 16.45439250 20.64318574
  28.22740000 16.45439250 20.64318574
  11.88523200 13.16351400  7.43449438
  29.71310000 13.16351400  7.43449438
  14.85654000 13.16351400  7.43449438
  32.68440000 13.16351400  7.43449438
  13.37088600 16.45439250  7.09388047
  31.19870000 16.45439250  7.09388047
  16.34219400 16.45439250  7.09388047
  34.17000000 16.45439250  7.09388047
  11.88523200 16.45439250 10.46872860
  29.71310000 16.45439250 10.46872860
  14.85654000 16.45439250 10.46872860
  32.68440000 16.45439250 10.46872860
  13.37088600 13.16351400 10.64283691
  31.19870000 13.16351400 10.64283691
  16.34219400 13.16351400 10.64283691
  34.17000000 13.16351400 10.64283691
  11.88523200 13.16351400 13.86853311
  29.71310000 13.16351400 13.86853311
  14.85654000 13.16351400 13.86853311
  32.68440000 13.16351400 13.86853311
  13.37088600 16.45439250 13.86853311
  31.19870000 16.45439250 13.86853311
  16.34219400 16.45439250 13.86853311
  34.17000000 16.45439250 13.86853311
  11.88523200 16.45439250 17.26833762
  29.71310000 16.45439250 17.26833762
  14.85654000 16.45439250 17.26833762
  32.68440000 16.45439250 17.26833762
  13.37088600 13.16351400 17.09422930
  31.19870000 13.16351400 17.09422930
  16.34219400 13.16351400 17.09422930
  34.17000000 13.16351400 17.09422930
  11.88523200 13.16351400 20.30257183
  29.71310000 13.16351400 20.30257183
  14.85654000 13.16351400 20.30257183
  32.68440000 13.16351400 20.30257183
  13.37088600 16.45439250 20.64318574
  31.19870000 16.45439250 20.64318574
  16.34219400 16.45439250 20.64318574
  34.17000000 16.45439250 20.64318574
   0.00000000  3.29087850  5.99383754
  17.82780000  3.29087850  5.99383754
   2.97130800  3.29087850  5.99383754
  20.79920000  3.29087850  5.99383754
   1.48565400  1.23325233  7.11013923
  19.31350000  1.23325233  7.11013923
   4.45696200  1.23325233  7.11013923
  22.28480000  1.23325233  7.11013923
   1.48565400  5.34850467  7.11013923
  19.31350000  5.34850467  7.11013923
   4.45696200  5.34850467  7.11013923
  22.28480000  5.34850467  7.11013923
   0.00000000  3.29087850  8.57584531
  17.82780000  3.29087850  8.57584531
   2.97130800  3.29087850  8.57584531
  20.79920000  3.29087850  8.57584531
   0.00000000  0.00000000  9.27660101
  17.82780000  0.00000000  9.27660101
   2.97130800  0.00000000  9.27660101
  20.79920000  0.00000000  9.27660101
   1.48565400  4.60802695 10.56494887
  19.31350000  4.60802695 10.56494887
   4.45696200  4.60802695 10.56494887
  22.28480000  4.60802695 10.56494887
   1.48565400  1.97373005 10.56494887
  19.31350000  1.97373005 10.56494887
   4.45696200  1.97373005 10.56494887
  22.28480000  1.97373005 10.56494887
   0.00000000  0.00000000 11.85854994
  17.82780000  0.00000000 11.85854994
   2.97130800  0.00000000 11.85854994
  20.79920000  0.00000000 11.85854994
   0.00000000  3.29087850 12.57351985
  17.82780000  3.29087850 12.57351985
   2.97130800  3.29087850 12.57351985
  20.79920000  3.29087850 12.57351985
   1.48565400  1.28677612 13.86853311
  19.31350000  1.28677612 13.86853311
   4.45696200  1.28677612 13.86853311
  22.28480000  1.28677612 13.86853311
   1.48565400  5.29498088 13.86853311
  19.31350000  5.29498088 13.86853311
   4.45696200  5.29498088 13.86853311
  22.28480000  5.29498088 13.86853311
   0.00000000  3.29087850 15.16354637
  17.82780000  3.29087850 15.16354637
   2.97130800  3.29087850 15.16354637
  20.79920000  3.29087850 15.16354637
   0.00000000  0.00000000 15.87851627
  17.82780000  0.00000000 15.87851627
   2.97130800  0.00000000 15.87851627
  20.79920000  0.00000000 15.87851627
   1.48565400  4.60802695 17.17211734
  19.31350000  4.60802695 17.17211734
   4.45696200  4.60802695 17.17211734
  22.28480000  4.60802695 17.17211734
   1.48565400  1.97373005 17.17211734
  19.31350000  1.97373005 17.17211734
   4.45696200  1.97373005 17.17211734
  22.28480000  1.97373005 17.17211734
   0.00000000  0.00000000 18.46046521
  17.82780000  0.00000000 18.46046521
   2.97130800  0.00000000 18.46046521
  20.79920000  0.00000000 18.46046521
   0.00000000  3.29087850 19.16122091
  17.82780000  3.29087850 19.16122091
   2.97130800  3.29087850 19.16122091
  20.79920000  3.29087850 19.16122091
   1.48565400  1.23325233 20.62692698
  19.31350000  1.23325233 20.62692698
   4.45696200  1.23325233 20.62692698
  22.28480000  1.23325233 20.62692698
   1.48565400  5.34850467 20.62692698
  19.31350000  5.34850467 20.62692698
   4.45696200  5.34850467 20.62692698
  22.28480000  5.34850467 20.62692698
   0.00000000  3.29087850 21.74322867
  17.82780000  3.29087850 21.74322867
   2.97130800  3.29087850 21.74322867
  20.79920000  3.29087850 21.74322867
   5.94261600  3.29087850  5.99383754
  23.77050000  3.29087850  5.99383754
   8.91392400  3.29087850  5.99383754
  26.74180000  3.29087850  5.99383754
   7.42827000  1.23325233  7.11013923
  25.25610000  1.23325233  7.11013923
  10.39957800  1.23325233  7.11013923
  28.22740000  1.23325233  7.11013923
   7.42827000  5.34850467  7.11013923
  25.25610000  5.34850467  7.11013923
  10.39957800  5.34850467  7.11013923
  28.22740000  5.34850467  7.11013923
   5.94261600  3.29087850  8.57584531
  23.77050000  3.29087850  8.57584531
   8.91392400  3.29087850  8.57584531
  26.74180000  3.29087850  8.57584531
   5.94261600  0.00000000  9.27660101
  23.77050000  0.00000000  9.27660101
   8.91392400  0.00000000  9.27660101
  26.74180000  0.00000000  9.27660101
   7.42827000  4.60802695 10.56494887
  25.25610000  4.60802695 10.56494887
  10.39957800  4.60802695 10.56494887
  28.22740000  4.60802695 10.56494887
   7.42827000  1.97373005 10.56494887
  25.25610000  1.97373005 10.56494887
  10.39957800  1.97373005 10.56494887
  28.22740000  1.97373005 10.56494887
   5.94261600  0.00000000 11.85854994
  23.77050000  0.00000000 11.85854994
   8.91392400  0.00000000 11.85854994
  26.74180000  0.00000000 11.85854994
   5.94261600  3.29087850 12.57351985
  23.77050000  3.29087850 12.57351985
   8.91392400  3.29087850 12.57351985
  26.74180000  3.29087850 12.57351985
   7.42827000  1.28677612 13.86853311
  25.25610000  1.28677612 13.86853311
  10.39957800  1.28677612 13.86853311
  28.22740000  1.28677612 13.86853311
   7.42827000  5.29498088 13.86853311
  25.25610000  5.29498088 13.86853311
  10.39957800  5.29498088 13.86853311
  28.22740000  5.29498088 13.86853311
   5.94261600  3.29087850 15.16354637
  23.77050000  3.29087850 15.16354637
   8.91392400  3.29087850 15.16354637
  26.74180000  3.29087850 15.16354637
   5.94261600  0.00000000 15.87851627
  23.77050000  0.00000000 15.87851627
   8.91392400  0.00000000 15.87851627
  26.74180000  0.00000000 15.87851627
   7.42827000  4.60802695 17.17211734
  25.25610000  4.60802695 17.17211734
  10.39957800  4.60802695 17.17211734
  28.22740000  4.60802695 17.17211734
   7.42827000  1.97373005 17.17211734
  25.25610000  1.97373005 17.17211734
  10.39957800  1.97373005 17.17211734
  28.22740000  1.97373005 17.17211734
   5.94261600  0.00000000 18.46046521
  23.77050000  0.00000000 18.46046521
   8.91392400  0.00000000 18.46046521
  26.74180000  0.00000000 18.46046521
   5.94261600  3.29087850 19.16122091
  23.77050000  3.29087850 19.16122091
   8.91392400  3.29087850 19.16122091
  26.74180000  3.29087850 19.16122091
   7.42827000  1.23325233 20.62692698
  25.25610000  1.23325233 20.62692698
  10.39957800  1.23325233 20.62692698
  28.22740000  1.23325233 20.62692698
   7.42827000  5.34850467 20.62692698
  25.25610000  5.34850467 20.62692698
  10.39957800  5.34850467 20.62692698
  28.22740000  5.34850467 20.62692698
   5.94261600  3.29087850 21.74322867
  23.77050000  3.29087850 21.74322867
   8.91392400  3.29087850 21.74322867
  26.74180000  3.29087850 21.74322867
  11.88523200  3.29087850  5.99383754
  29.71310000  3.29087850  5.99383754
  14.85654000  3.29087850  5.99383754
  32.68440000  3.29087850  5.99383754
  13.37088600  1.23325233  7.11013923
  31.19870000  1.23325233  7.11013923
  16.34219400  1.23325233  7.11013923
  34.17000000  1.23325233  7.11013923
  13.37088600  5.34850467  7.11013923
  31.19870000  5.34850467  7.11013923
  16.34219400  5.34850467  7.11013923
  34.17000000  5.34850467  7.11013923
  11.88523200  3.29087850  8.57584531
  29.71310000  3.29087850  8.57584531
  14.85654000  3.29087850  8.57584531
  32.68440000  3.29087850  8.57584531
  11.88523200  0.00000000  9.27660101
  29.71310000  0.00000000  9.27660101
  14.85654000  0.00000000  9.27660101
  32.68440000  0.00000000  9.27660101
  13.37088600  4.60802695 10.56494887
  31.19870000  4.60802695 10.56494887
  16.34219400  4.60802695 10.56494887
  34.17000000  4.60802695 10.56494887
  13.37088600  1.97373005 10.56494887
  31.19870000  1.97373005 10.56494887
  16.34219400  1.97373005 10.56494887
  34.17000000  1.97373005 10.56494887
  11.88523200  0.00000000 11.85854994
  29.71310000  0.00000000 11.85854994
  14.85654000  0.00000000 11.85854994
  32.68440000  0.00000000 11.85854994
  11.88523200  3.29087850 12.57351985
  29.71310000  3.29087850 12.57351985
  14.85654000  3.29087850 12.57351985
  32.68440000  3.29087850 12.57351985
  13.37088600  1.28677612 13.86853311
  31.19870000  1.28677612 13.86853311
  16.34219400  1.28677612 13.86853311
  34.17000000  1.28677612 13.86853311
  13.37088600  5.29498088 13.86853311
  31.19870000  5.29498088 13.86853311
  16.34219400  5.29498088 13.86853311
  34.17000000  5.29498088 13.86853311
  11.88523200  3.29087850 15.16354637
  29.71310000  3.29087850 15.16354637
  14.85654000  3.29087850 15.16354637
  32.68440000  3.29087850 15.16354637
  11.88523200  0.00000000 15.87851627
  29.71310000  0.00000000 15.87851627
  14.85654000  0.00000000 15.87851627
  32.68440000  0.00000000 15.87851627
  13.37088600  4.60802695 17.17211734
  31.19870000  4.60802695 17.17211734
  16.34219400  4.60802695 17.17211734
  34.17000000  4.60802695 17.17211734
  13.37088600  1.97373005 17.17211734
  31.19870000  1.97373005 17.17211734
  16.34219400  1.97373005 17.17211734
  34.17000000  1.97373005 17.17211734
  11.88523200  0.00000000 18.46046521
  29.71310000  0.00000000 18.46046521
  14.85654000  0.00000000 18.46046521
  32.68440000  0.00000000 18.46046521
  11.88523200  3.29087850 19.16122091
  29.71310000  3.29087850 19.16122091
  14.85654000  3.29087850 19.16122091
  32.68440000  3.29087850 19.16122091
  13.37088600  1.23325233 20.62692698
  31.19870000  1.23325233 20.62692698
  16.34219400  1.23325233 20.62692698
  34.17000000  1.23325233 20.62692698
  13.37088600  5.34850467 20.62692698
  31.19870000  5.34850467 20.62692698
  16.34219400  5.34850467 20.62692698
  34.17000000  5.34850467 20.62692698
  11.88523200  3.29087850 21.74322867
  29.71310000  3.29087850 21.74322867
  14.85654000  3.29087850 21.74322867
  32.68440000  3.29087850 21.74322867
   0.00000000  9.87263550  5.99383754
  17.82780000  9.87263550  5.99383754
   2.97130800  9.87263550  5.99383754
  20.79920000  9.87263550  5.99383754
   1.48565400  7.81500933  7.11013923
  19.31350000  7.81500933  7.11013923
   4.45696200  7.81500933  7.11013923
  22.28480000  7.81500933  7.11013923
   1.48565400 11.93026167  7.11013923
  19.31350000 11.93026167  7.11013923
   4.45696200 11.93026167  7.11013923
  22.28480000 11.93026167  7.11013923
   0.00000000  9.87263550  8.57584531
  17.82780000  9.87263550  8.57584531
   2.97130800  9.87263550  8.57584531
  20.79920000  9.87263550  8.57584531
   0.00000000  6.58175700  9.27660101
  17.82780000  6.58175700  9.27660101
   2.97130800  6.58175700  9.27660101
  20.79920000  6.58175700  9.27660101
   1.48565400 11.18978395 10.56494887
  19.31350000 11.18978395 10.56494887
   4.45696200 11.18978395 10.56494887
  22.28480000 11.18978395 10.56494887
   1.48565400  8.55548705 10.56494887
  19.31350000  8.55548705 10.56494887
   4.45696200  8.55548705 10.56494887
  22.28480000  8.55548705 10.56494887
   0.00000000  6.58175700 11.85854994
  17.82780000  6.58175700 11.85854994
   2.97130800  6.58175700 11.85854994
  20.79920000  6.58175700 11.85854994
   0.00000000  9.87263550 12.57351985
  17.82780000  9.87263550 12.57351985
   2.97130800  9.87263550 12.57351985
  20.79920000  9.87263550 12.57351985
   1.48565400  7.86853312 13.86853311
  19.31350000  7.86853312 13.86853311
   4.45696200  7.86853312 13.86853311
  22.28480000  7.86853312 13.86853311
   1.48565400 11.87673788 13.86853311
  19.31350000 11.87673788 13.86853311
   4.45696200 11.87673788 13.86853311
  22.28480000 11.87673788 13.86853311
   0.00000000  9.87263550 15.16354637
  17.82780000  9.87263550 15.16354637
   2.97130800  9.87263550 15.16354637
  20.79920000  9.87263550 15.16354637
   0.00000000  6.58175700 15.87851627
  17.82780000  6.58175700 15.87851627
   2.97130800  6.58175700 15.87851627
  20.79920000  6.58175700 15.87851627
   1.48565400 11.18978395 17.17211734
  19.31350000 11.18978395 17.17211734
   4.45696200 11.18978395 17.17211734
  22.28480000 11.18978395 17.17211734
   1.48565400  8.55548705 17.17211734
  19.31350000  8.55548705 17.17211734
   4.45696200  8.55548705 17.17211734
  22.28480000  8.55548705 17.17211734
   0.00000000  6.58175700 18.46046521
  17.82780000  6.58175700 18.46046521
   2.97130800  6.58175700 18.46046521
  20.79920000  6.58175700 18.46046521
   0.00000000  9.87263550 19.16122091
  17.82780000  9.87263550 19.16122091
   2.97130800  9.87263550 19.16122091
  20.79920000  9.87263550 19.16122091
   1.48565400  7.81500933 20.62692698
  19.31350000  7.81500933 20.62692698
   4.45696200  7.81500933 20.62692698
  22.28480000  7.81500933 20.62692698
   1.48565400 11.93026167 20.62692698
  19.31350000 11.93026167 20.62692698
   4.45696200 11.93026167 20.62692698
  22.28480000 11.93026167 20.62692698
   0.00000000  9.87263550 21.74322867
  17.82780000  9.87263550 21.74322867
   2.97130800  9.87263550 21.74322867
  20.79920000  9.87263550 21.74322867
   5.94261600  9.87263550  5.99383754
  23.77050000  9.87263550  5.99383754
   8.91392400  9.87263550  5.99383754
  26.74180000  9.87263550  5.99383754
   7.42827000  7.81500933  7.11013923
  25.25610000  7.81500933  7.11013923
  10.39957800  7.81500933  7.11013923
  28.22740000  7.81500933  7.11013923
   7.42827000 11.93026167  7.11013923
  25.25610000 11.93026167  7.11013923
  10.39957800 11.93026167  7.11013923
  28.22740000 11.93026167  7.11013923
   5.94261600  9.87263550  8.57584531
  23.77050000  9.87263550  8.57584531
   8.91392400  9.87263550  8.57584531
  26.74180000  9.87263550  8.57584531
   5.94261600  6.58175700  9.27660101
  23.77050000  6.58175700  9.27660101
   8.91392400  6.58175700  9.27660101
  26.74180000  6.58175700  9.27660101
   7.42827000 11.18978395 10.56494887
  25.25610000 11.18978395 10.56494887
  10.39957800 11.18978395 10.56494887
  28.22740000 11.18978395 10.56494887
   7.42827000  8.55548705 10.56494887
  25.25610000  8.55548705 10.56494887
  10.39957800  8.55548705 10.56494887
  28.22740000  8.55548705 10.56494887
   5.94261600  6.58175700 11.85854994
  23.77050000  6.58175700 11.85854994
   8.91392400  6.58175700 11.85854994
  26.74180000  6.58175700 11.85854994
   5.94261600  9.87263550 12.57351985
  23.77050000  9.87263550 12.57351985
   8.91392400  9.87263550 12.57351985
  26.74180000  9.87263550 12.57351985
   7.42827000  7.86853312 13.86853311
  25.25610000  7.86853312 13.86853311
  10.39957800  7.86853312 13.86853311
  28.22740000  7.86853312 13.86853311
   7.42827000 11.87673788 13.86853311
  25.25610000 11.87673788 13.86853311
  10.39957800 11.87673788 13.86853311
  28.22740000 11.87673788 13.86853311
   5.94261600  9.87263550 15.16354637
  23.77050000  9.87263550 15.16354637
   8.91392400  9.87263550 15.16354637
  26.74180000  9.87263550 15.16354637
   5.94261600  6.58175700 15.87851627
  23.77050000  6.58175700 15.87851627
   8.91392400  6.58175700 15.87851627
  26.74180000  6.58175700 15.87851627
   7.42827000 11.18978395 17.17211734
  25.25610000 11.18978395 17.17211734
  10.39957800 11.18978395 17.17211734
  28.22740000 11.18978395 17.17211734
   7.42827000  8.55548705 17.17211734
  25.25610000  8.55548705 17.17211734
  10.39957800  8.55548705 17.17211734
  28.22740000  8.55548705 17.17211734
   5.94261600  6.58175700 18.46046521
  23.77050000  6.58175700 18.46046521
   8.91392400  6.58175700 18.46046521
  26.74180000  6.58175700 18.46046521
   5.94261600  9.87263550 19.16122091
  23.77050000  9.87263550 19.16122091
   8.91392400  9.87263550 19.16122091
  26.74180000  9.87263550 19.16122091
   7.42827000  7.81500933 20.62692698
  25.25610000  7.81500933 20.62692698
  10.39957800  7.81500933 20.62692698
  28.22740000  7.81500933 20.62692698
   7.42827000 11.93026167 20.62692698
  25.25610000 11.93026167 20.62692698
  10.39957800 11.93026167 20.62692698
  28.22740000 11.93026167 20.62692698
   5.94261600  9.87263550 21.74322867
  23.77050000  9.87263550 21.74322867
   8.91392400  9.87263550 21.74322867
  26.74180000  9.87263550 21.74322867
  11.88523200  9.87263550  5.99383754
  29.71310000  9.87263550  5.99383754
  14.85654000  9.87263550  5.99383754
  32.68440000  9.87263550  5.99383754
  13.37088600  7.81500933  7.11013923
  31.19870000  7.81500933  7.11013923
  16.34219400  7.81500933  7.11013923
  34.17000000  7.81500933  7.11013923
  13.37088600 11.93026167  7.11013923
  31.19870000 11.93026167  7.11013923
  16.34219400 11.93026167  7.11013923
  34.17000000 11.93026167  7.11013923
  11.88523200  9.87263550  8.57584531
  29.71310000  9.87263550  8.57584531
  14.85654000  9.87263550  8.57584531
  32.68440000  9.87263550  8.57584531
  11.88523200  6.58175700  9.27660101
  29.71310000  6.58175700  9.27660101
  14.85654000  6.58175700  9.27660101
  32.68440000  6.58175700  9.27660101
  13.37088600 11.18978395 10.56494887
  31.19870000 11.18978395 10.56494887
  16.34219400 11.18978395 10.56494887
  34.17000000 11.18978395 10.56494887
  13.37088600  8.55548705 10.56494887
  31.19870000  8.55548705 10.56494887
  16.34219400  8.55548705 10.56494887
  34.17000000  8.55548705 10.56494887
  11.88523200  6.58175700 11.85854994
  29.71310000  6.58175700 11.85854994
  14.85654000  6.58175700 11.85854994
  32.68440000  6.58175700 11.85854994
  11.88523200  9.87263550 12.57351985
  29.71310000  9.87263550 12.57351985
  14.85654000  9.87263550 12.57351985
  32.68440000  9.87263550 12.57351985
  13.37088600  7.86853312 13.86853311
  31.19870000  7.86853312 13.86853311
  16.34219400  7.86853312 13.86853311
  34.17000000  7.86853312 13.86853311
  13.37088600 11.87673788 13.86853311
  31.19870000 11.87673788 13.86853311
  16.34219400 11.87673788 13.86853311
  34.17000000 11.87673788 13.86853311
  11.88523200  9.87263550 15.16354637
  29.71310000  9.87263550 15.16354637
  14.85654000  9.87263550 15.16354637
  32.68440000  9.87263550 15.16354637
  11.88523200  6.58175700 15.87851627
  29.71310000  6.58175700 15.87851627
  14.85654000  6.58175700 15.87851627
  32.68440000  6.58175700 15.87851627
  13.37088600 11.18978395 17.17211734
  31.19870000 11.18978395 17.17211734
  16.34219400 11.18978395 17.17211734
  34.17000000 11.18978395 17.17211734
  13.37088600  8.55548705 17.17211734
  31.19870000  8.55548705 17.17211734
  16.34219400  8.55548705 17.17211734
  34.17000000  8.55548705 17.17211734
  11.88523200  6.58175700 18.46046521
  29.71310000  6.58175700 18.46046521
  14.85654000  6.58175700 18.46046521
  32.68440000  6.58175700 18.46046521
  11.88523200  9.87263550 19.16122091
  29.71310000  9.87263550 19.16122091
  14.85654000  9.87263550 19.16122091
  32.68440000  9.87263550 19.16122091
  13.37088600  7.81500933 20.62692698
  31.19870000  7.81500933 20.62692698
  16.34219400  7.81500933 20.62692698
  34.17000000  7.81500933 20.62692698
  13.37088600 11.93026167 20.62692698
  31.19870000 11.93026167 20.62692698
  16.34219400 11.93026167 20.62692698
  34.17000000 11.93026167 20.62692698
  11.88523200  9.87263550 21.74322867
  29.71310000  9.87263550 21.74322867
  14.85654000  9.87263550 21.74322867
  32.68440000  9.87263550 21.74322867
   0.00000000 16.45439250  5.99383754
  17.82780000 16.45439250  5.99383754
   2.97130800 16.45439250  5.99383754
  20.79920000 16.45439250  5.99383754
   1.48565400 14.39676633  7.11013923
  19.31350000 14.39676633  7.11013923
   4.45696200 14.39676633  7.11013923
  22.28480000 14.39676633  7.11013923
   1.48565400 18.51201867  7.11013923
  19.31350000 18.51201867  7.11013923
   4.45696200 18.51201867  7.11013923
  22.28480000 18.51201867  7.11013923
   0.00000000 16.45439250  8.57584531
  17.82780000 16.45439250  8.57584531
   2.97130800 16.45439250  8.57584531
  20.79920000 16.45439250  8.57584531
   0.00000000 13.16351400  9.27660101
  17.82780000 13.16351400  9.27660101
   2.97130800 13.16351400  9.27660101
  20.79920000 13.16351400  9.27660101
   1.48565400 17.77154095 10.56494887
  19.31350000 17.77154095 10.56494887
   4.45696200 17.77154095 10.56494887
  22.28480000 17.77154095 10.56494887
   1.48565400 15.13724405 10.56494887
  19.31350000 15.13724405 10.56494887
   4.45696200 15.13724405 10.56494887
  22.28480000 15.13724405 10.56494887
   0.00000000 13.16351400 11.85854994
  17.82780000 13.16351400 11.85854994
   2.97130800 13.16351400 11.85854994
  20.79920000 13.16351400 11.85854994
   0.00000000 16.45439250 12.57351985
  17.82780000 16.45439250 12.57351985
   2.97130800 16.45439250 12.57351985
  20.79920000 16.45439250 12.57351985
   1.48565400 14.45029012 13.86853311
  19.31350000 14.45029012 13.86853311
   4.45696200 14.45029012 13.86853311
  22.28480000 14.45029012 13.86853311
   1.48565400 18.45849488 13.86853311
  19.31350000 18.45849488 13.86853311
   4.45696200 18.45849488 13.86853311
  22.28480000 18.45849488 13.86853311
   0.00000000 16.45439250 15.16354637
  17.82780000 16.45439250 15.16354637
   2.97130800 16.45439250 15.16354637
  20.79920000 16.45439250 15.16354637
   0.00000000 13.16351400 15.87851627
  17.82780000 13.16351400 15.87851627
   2.97130800 13.16351400 15.87851627
  20.79920000 13.16351400 15.87851627
   1.48565400 17.77154095 17.17211734
  19.31350000 17.77154095 17.17211734
   4.45696200 17.77154095 17.17211734
  22.28480000 17.77154095 17.17211734
   1.48565400 15.13724405 17.17211734
  19.31350000 15.13724405 17.17211734
   4.45696200 15.13724405 17.17211734
  22.28480000 15.13724405 17.17211734
   0.00000000 13.16351400 18.46046521
  17.82780000 13.16351400 18.46046521
   2.97130800 13.16351400 18.46046521
  20.79920000 13.16351400 18.46046521
   0.00000000 16.45439250 19.16122091
  17.82780000 16.45439250 19.16122091
   2.97130800 16.45439250 19.16122091
  20.79920000 16.45439250 19.16122091
   1.48565400 14.39676633 20.62692698
  19.31350000 14.39676633 20.62692698
   4.45696200 14.39676633 20.62692698
  22.28480000 14.39676633 20.62692698
   1.48565400 18.51201867 20.62692698
  19.31350000 18.51201867 20.62692698
   4.45696200 18.51201867 20.62692698
  22.28480000 18.51201867 20.62692698
   0.00000000 16.45439250 21.74322867
  17.82780000 16.45439250 21.74322867
   2.97130800 16.45439250 21.74322867
  20.79920000 16.45439250 21.74322867
   5.94261600 16.45439250  5.99383754
  23.77050000 16.45439250  5.99383754
   8.91392400 16.45439250  5.99383754
  26.74180000 16.45439250  5.99383754
   7.42827000 14.39676633  7.11013923
  25.25610000 14.39676633  7.11013923
  10.39957800 14.39676633  7.11013923
  28.22740000 14.39676633  7.11013923
   7.42827000 18.51201867  7.11013923
  25.25610000 18.51201867  7.11013923
  10.39957800 18.51201867  7.11013923
  28.22740000 18.51201867  7.11013923
   5.94261600 16.45439250  8.57584531
  23.77050000 16.45439250  8.57584531
   8.91392400 16.45439250  8.57584531
  26.74180000 16.45439250  8.57584531
   5.94261600 13.16351400  9.27660101
  23.77050000 13.16351400  9.27660101
   8.91392400 13.16351400  9.27660101
  26.74180000 13.16351400  9.27660101
   7.42827000 17.77154095 10.56494887
  25.25610000 17.77154095 10.56494887
  10.39957800 17.77154095 10.56494887
  28.22740000 17.77154095 10.56494887
   7.42827000 15.13724405 10.56494887
  25.25610000 15.13724405 10.56494887
  10.39957800 15.13724405 10.56494887
  28.22740000 15.13724405 10.56494887
   5.94261600 13.16351400 11.85854994
  23.77050000 13.16351400 11.85854994
   8.91392400 13.16351400 11.85854994
  26.74180000 13.16351400 11.85854994
   5.94261600 16.45439250 12.57351985
  23.77050000 16.45439250 12.57351985
   8.91392400 16.45439250 12.57351985
  26.74180000 16.45439250 12.57351985
   7.42827000 14.45029012 13.86853311
  25.25610000 14.45029012 13.86853311
  10.39957800 14.45029012 13.86853311
  28.22740000 14.45029012 13.86853311
   7.42827000 18.45849488 13.86853311
  25.25610000 18.45849488 13.86853311
  10.39957800 18.45849488 13.86853311
  28.22740000 18.45849488 13.86853311
   5.94261600 16.45439250 15.16354637
  23.77050000 16.45439250 15.16354637
   8.91392400 16.45439250 15.16354637
  26.74180000 16.45439250 15.16354637
   5.94261600 13.16351400 15.87851627
  23.77050000 13.16351400 15.87851627
   8.91392400 13.16351400 15.87851627
  26.74180000 13.16351400 15.87851627
   7.42827000 17.77154095 17.17211734
  25.25610000 17.77154095 17.17211734
  10.39957800 17.77154095 17.17211734
  28.22740000 17.77154095 17.17211734
   7.42827000 15.13724405 17.17211734
  25.25610000 15.13724405 17.17211734
  10.39957800 15.13724405 17.17211734
  28.22740000 15.13724405 17.17211734
   5.94261600 13.16351400 18.46046521
  23.77050000 13.16351400 18.46046521
   8.91392400 13.16351400 18.46046521
  26.74180000 13.16351400 18.46046521
   5.94261600 16.45439250 19.16122091
  23.77050000 16.45439250 19.16122091
   8.91392400 16.45439250 19.16122091
  26.74180000 16.45439250 19.16122091
   7.42827000 14.39676633 20.62692698
  25.25610000 14.39676633 20.62692698
  10.39957800 14.39676633 20.62692698
  28.22740000 14.39676633 20.62692698
   7.42827000 18.51201867 20.62692698
  25.25610000 18.51201867 20.62692698
  10.39957800 18.51201867 20.62692698
  28.22740000 18.51201867 20.62692698
   5.94261600 16.45439250 21.74322867
  23.77050000 16.45439250 21.74322867
   8.91392400 16.45439250 21.74322867
  26.74180000 16.45439250 21.74322867
  11.88523200 16.45439250  5.99383754
  29.71310000 16.45439250  5.99383754
  14.85654000 16.45439250  5.99383754
  32.68440000 16.45439250  5.99383754
  13.37088600 14.39676633  7.11013923
  31.19870000 14.39676633  7.11013923
  16.34219400 14.39676633  7.11013923
  34.17000000 14.39676633  7.11013923
  13.37088600 18.51201867  7.11013923
  31.19870000 18.51201867  7.11013923
  16.34219400 18.51201867  7.11013923
  34.17000000 18.51201867  7.11013923
  11.88523200 16.45439250  8.57584531
  29.71310000 16.45439250  8.57584531
  14.85654000 16.45439250  8.57584531
  32.68440000 16.45439250  8.57584531
  11.88523200 13.16351400  9.27660101
  29.71310000 13.16351400  9.27660101
  14.85654000 13.16351400  9.27660101
  32.68440000 13.16351400  9.27660101
  13.37088600 17.77154095 10.56494887
  31.19870000 17.77154095 10.56494887
  16.34219400 17.77154095 10.56494887
  34.17000000 17.77154095 10.56494887
  13.37088600 15.13724405 10.56494887
  31.19870000 15.13724405 10.56494887
  16.34219400 15.13724405 10.56494887
  34.17000000 15.13724405 10.56494887
  11.88523200 13.16351400 11.85854994
  29.71310000 13.16351400 11.85854994
  14.85654000 13.16351400 11.85854994
  32.68440000 13.16351400 11.85854994
  11.88523200 16.45439250 12.57351985
  29.71310000 16.45439250 12.57351985
  14.85654000 16.45439250 12.57351985
  32.68440000 16.45439250 12.57351985
  13.37088600 14.45029012 13.86853311
  31.19870000 14.45029012 13.86853311
  16.34219400 14.45029012 13.86853311
  34.17000000 14.45029012 13.86853311
  13.37088600 18.45849488 13.86853311
  31.19870000 18.45849488 13.86853311
  16.34219400 18.45849488 13.86853311
  34.17000000 18.45849488 13.86853311
  11.88523200 16.45439250 15.16354637
  29.71310000 16.45439250 15.16354637
  14.85654000 16.45439250 15.16354637
  32.68440000 16.45439250 15.16354637
  11.88523200 13.16351400 15.87851627
  29.71310000 13.16351400 15.87851627
  14.85654000 13.16351400 15.87851627
  32.68440000 13.16351400 15.87851627
  13.37088600 17.77154095 17.17211734
  31.19870000 17.77154095 17.17211734
  16.34219400 17.77154095 17.17211734
  34.17000000 17.77154095 17.17211734
  13.37088600 15.13724405 17.17211734
  31.19870000 15.13724405 17.17211734
  16.34219400 15.13724405 17.17211734
  34.17000000 15.13724405 17.17211734
  11.88523200 13.16351400 18.46046521
  29.71310000 13.16351400 18.46046521
  14.85654000 13.16351400 18.46046521
  32.68440000 13.16351400 18.46046521
  11.88523200 16.45439250 19.16122091
  29.71310000 16.45439250 19.16122091
  14.85654000 16.45439250 19.16122091
  32.68440000 16.45439250 19.16122091
  13.37088600 14.39676633 20.62692698
  31.19870000 14.39676633 20.62692698
  16.34219400 14.39676633 20.62692698
  34.17000000 14.39676633 20.62692698
  13.37088600 18.51201867 20.62692698
  31.19870000 18.51201867 20.62692698
  16.34219400 18.51201867 20.62692698
  34.17000000 18.51201867 20.62692698
  11.88523200 16.45439250 21.74322867
  29.71310000 16.45439250 21.74322867
  14.85654000 16.45439250 21.74322867
  32.68440000 16.45439250 21.74322867



--------------------------------------------------------------------------------------------------------


 use serial FFT for orbitals x direction half grid
 k-point     1 :   0.0000 0.0000 0.0000  plane waves:  455267

 maximum and minimum number of plane-waves per node :    455267   455267

 maximum number of plane-waves:    455267
 maximum index in each direction: 
   IXMAX=   79   IYMAX=   44   IZMAX=   61
   IXMIN=    0   IYMIN=  -44   IZMIN=  -61


 serial   3D FFT for wavefunctions
 parallel 3D FFT for charge:
    minimum data exchange during FFTs selected (reduces bandwidth)


 total amount of memory used by VASP MPI-rank0  1518979. kBytes
=======================================================================

   base                                    :      30000. kBytes
   nonlr-proj                              :     807687. kBytes
   fftplans                                :      63636. kBytes
   grid                                    :     587030. kBytes
   one-center                              :       8398. kBytes
   wavefun                                 :      22228. kBytes

     INWAV:  cpu time      0.0001: real time      0.0003
 Broyden mixing: mesh for mixing (old mesh)
   NGX =159   NGY = 89   NGZ =123
  (NGX  =640   NGY  =360   NGZ  =500)
  gives a total of ****** points

 initial charge density was supplied:
 charge density of overlapping atoms calculated
 number of electron    8640.0000000 magnetization 
 keeping initial charge density in first step


--------------------------------------------------------------------------------------------------------


 Maximum index for non-local projection operator         4805
 Maximum index for augmentation-charges         1114 (set IRDMAX)


--------------------------------------------------------------------------------------------------------


 First call to EWALD:  gamma=   0.066
 Maximum number of real-space cells   2x   4x   3
 Maximum number of reciprocal cells   3x   2x   3

    FEWALD:  cpu time      1.0757: real time      1.0808


--------------------------------------- Ionic step        1  -------------------------------------------




--------------------------------------- Iteration      1(   1)  ---------------------------------------


    POTLOK:  cpu time      1.6025: real time      1.4409
    SETDIJ:  cpu time      0.1401: real time      0.1159
    EDDIAG:  cpu time     14.4727: real time     13.3841
  RMM-DIIS:  cpu time      7.3720: real time      4.2588
    ORTHCH:  cpu time      8.4242: real time      8.4574
       DOS:  cpu time      0.0112: real time      0.0118
    --------------------------------------------
      LOOP:  cpu time     32.0230: real time     27.6692

 eigenvalue-minimisations  :  6912
 total energy-change (2. order) : 0.1055299E+06  (-0.5245137E+06)
 number of electron    8640.0000000 magnetization 
 augmentation part     8640.0000000 magnetization 

 Free energy of the ion-electron system (eV)
  ---------------------------------------------------
  alpha Z        PSCENC =     27744.81067745
  Ewald energy   TEWEN  =   3066538.45500261
  -Hartree energ DENC   =  -3875885.49021713
  -exchange      EXHF   =         0.00000000
  -V(xc)+E(xc)   XCENC  =     42231.49950253
  PAW double counting   =    579663.92223531  -574270.54670959
  entropy T*S    EENTRO =        -1.58302807
  eigenvalues    EBANDS =    -44349.66816911
  atomic energy  EATOM  =    883858.54578326
  Solvation  Ediel_sol  =         0.00000000
  ---------------------------------------------------
  free energy    TOTEN  =    105529.94507724 eV

  energy without entropy =   105531.52810531  energy(sigma->0) =   105530.73659128


--------------------------------------------------------------------------------------------------------




--------------------------------------- Iteration      1(   2)  ---------------------------------------


    EDDIAG:  cpu time     13.3057: real time     12.2510
  RMM-DIIS:  cpu time      7.4457: real time      4.2669
    ORTHCH:  cpu time      8.4905: real time      8.5328
       DOS:  cpu time      0.0042: real time      0.0042
    --------------------------------------------
      LOOP:  cpu time     29.2462: real time     25.0549

 eigenvalue-minimisations  :  6912
 total energy-change (2. order) :-0.1133175E+06  (-0.1956788E+06)
 number of electron    8640.0000000 magnetization 
 augmentation part     8640.0000000 magnetization 

 Free energy of the ion-electron system (eV)
  ---------------------------------------------------
  alpha Z        PSCENC =     27744.81067745
  Ewald energy   TEWEN  =   3066538.45500261
  -Hartree energ DENC   =  -3875885.49021713
  -exchange      EXHF   =         0.00000000
  -V(xc)+E(xc)   XCENC  =     42231.49950253
  PAW double counting   =    579663.92223531  -574270.54670959
  entropy T*S    EENTRO =        -1.72346334
  eigenvalues    EBANDS =   -157667.01459235
  atomic energy  EATOM  =    883858.54578326
  Solvation  Ediel_sol  =         0.00000000
  ---------------------------------------------------
  free energy    TOTEN  =     -7787.54178126 eV

  energy without entropy =    -7785.81831792  energy(sigma->0) =    -7786.68004959


--------------------------------------------------------------------------------------------------------




--------------------------------------- Iteration      1(   3)  ---------------------------------------


    EDDIAG:  cpu time     13.2450: real time     12.1471
  RMM-DIIS:  cpu time      7.4367: real time      4.2561
    ORTHCH:  cpu time      8.6918: real time      8.7364
       DOS:  cpu time      0.0055: real time      0.0055
    --------------------------------------------
      LOOP:  cpu time     29.3790: real time     25.1451

 eigenvalue-minimisations  :  6912
 total energy-change (2. order) : 0.3235425E+05  (-0.3304878E+05)
 number of electron    8640.0000000 magnetization 
 augmentation part     8640.0000000 magnetization 

 Free energy of the ion-electron system (eV)
  ---------------------------------------------------
  alpha Z        PSCENC =     27744.81067745
  Ewald energy   TEWEN  =   3066538.45500261
  -Hartree energ DENC   =  -3875885.49021713
  -exchange      EXHF   =         0.00000000
  -V(xc)+E(xc)   XCENC  =     42231.49950253
  PAW double counting   =    579663.92223531  -574270.54670959
  entropy T*S    EENTRO =        -7.28936262
  eigenvalues    EBANDS =   -125307.19502048
  atomic energy  EATOM  =    883858.54578326
  Solvation  Ediel_sol  =         0.00000000
  ---------------------------------------------------
  free energy    TOTEN  =     24566.71189133 eV

  energy without entropy =    24574.00125395  energy(sigma->0) =    24570.35657264


--------------------------------------------------------------------------------------------------------




--------------------------------------- Iteration      1(   4)  ---------------------------------------


    EDDIAG:  cpu time     13.4342: real time     12.3624
  RMM-DIIS:  cpu time      7.3720: real time      4.2657
    ORTHCH:  cpu time      8.5597: real time      8.5978
       DOS:  cpu time      0.0333: real time      0.0335
    --------------------------------------------
      LOOP:  cpu time     29.3991: real time     25.2593

 eigenvalue-minimisations  :  6912
 total energy-change (2. order) :-0.1475183E+05  (-0.1122926E+05)
 number of electron    8640.0000000 magnetization 
 augmentation part     8640.0000000 magnetization 

 Free energy of the ion-electron system (eV)
  ---------------------------------------------------
  alpha Z        PSCENC =     27744.81067745
  Ewald energy   TEWEN  =   3066538.45500261
  -Hartree energ DENC   =  -3875885.49021713
  -exchange      EXHF   =         0.00000000
  -V(xc)+E(xc)   XCENC  =     42231.49950253
  PAW double counting   =    579663.92223531  -574270.54670959
  entropy T*S    EENTRO =        -4.25047883
  eigenvalues    EBANDS =   -140062.06313813
  atomic energy  EATOM  =    883858.54578326
  Solvation  Ediel_sol  =         0.00000000
  ---------------------------------------------------
  free energy    TOTEN  =      9814.88265747 eV

  energy without entropy =     9819.13313630  energy(sigma->0) =     9817.00789688


--------------------------------------------------------------------------------------------------------




--------------------------------------- Iteration      1(   5)  ---------------------------------------


    EDDIAG:  cpu time     13.3988: real time     12.3196
  RMM-DIIS:  cpu time      7.3919: real time      4.2644
    ORTHCH:  cpu time      8.5633: real time      8.6032
       DOS:  cpu time      0.0060: real time      0.0060
    --------------------------------------------
      LOOP:  cpu time     29.3600: real time     25.1932

 eigenvalue-minimisations  :  6912
 total energy-change (2. order) :-0.9571785E+04  (-0.6953762E+04)
 number of electron    8640.0000000 magnetization 
 augmentation part     8640.0000000 magnetization 

 Free energy of the ion-electron system (eV)
  ---------------------------------------------------
  alpha Z        PSCENC =     27744.81067745
  Ewald energy   TEWEN  =   3066538.45500261
  -Hartree energ DENC   =  -3875885.49021713
  -exchange      EXHF   =         0.00000000
  -V(xc)+E(xc)   XCENC  =     42231.49950253
  PAW double counting   =    579663.92223531  -574270.54670959
  entropy T*S    EENTRO =        -1.81177312
  eigenvalues    EBANDS =   -149636.28671381
  atomic energy  EATOM  =    883858.54578326
  Solvation  Ediel_sol  =         0.00000000
  ---------------------------------------------------
  free energy    TOTEN  =       243.09778750 eV

  energy without entropy =      244.90956062  energy(sigma->0) =      244.00367406


--------------------------------------------------------------------------------------------------------




--------------------------------------- Iteration      1(   6)  ---------------------------------------


    EDDIAG:  cpu time     13.3835: real time     12.3072
  RMM-DIIS:  cpu time      7.5063: real time      4.3197
    ORTHCH:  cpu time      8.5448: real time      8.5829
       DOS:  cpu time      0.0038: real time      0.0038
    --------------------------------------------
      LOOP:  cpu time     29.4385: real time     25.2136

 eigenvalue-minimisations  :  6912
 total energy-change (2. order) :-0.5904292E+04  (-0.4027367E+04)
 number of electron    8640.0000000 magnetization 
 augmentation part     8640.0000000 magnetization 

 Free energy of the ion-electron system (eV)
  ---------------------------------------------------
  alpha Z        PSCENC =     27744.81067745
  Ewald energy   TEWEN  =   3066538.45500261
  -Hartree energ DENC   =  -3875885.49021713
  -exchange      EXHF   =         0.00000000
  -V(xc)+E(xc)   XCENC  =     42231.49950253
  PAW double counting   =    579663.92223531  -574270.54670959
  entropy T*S    EENTRO =        -0.00000000
  eigenvalues    EBANDS =   -155542.39088849
  atomic energy  EATOM  =    883858.54578326
  Solvation  Ediel_sol  =         0.00000000
  ---------------------------------------------------
  free energy    TOTEN  =     -5661.19461406 eV

  energy without entropy =    -5661.19461406  energy(sigma->0) =    -5661.19461406


--------------------------------------------------------------------------------------------------------




--------------------------------------- Iteration      1(   7)  ---------------------------------------


    EDDIAG:  cpu time     13.1920: real time     12.1202
  RMM-DIIS:  cpu time      7.4582: real time      4.2644
    ORTHCH:  cpu time      8.5806: real time      8.6185
       DOS:  cpu time      0.0038: real time      0.0038
    --------------------------------------------
      LOOP:  cpu time     29.2346: real time     25.0070

 eigenvalue-minimisations  :  6912
 total energy-change (2. order) :-0.2989015E+04  (-0.2428304E+04)
 number of electron    8640.0000000 magnetization 
 augmentation part     8640.0000000 magnetization 

 Free energy of the ion-electron system (eV)
  ---------------------------------------------------
  alpha Z        PSCENC =     27744.81067745
  Ewald energy   TEWEN  =   3066538.45500261
  -Hartree energ DENC   =  -3875885.49021713
  -exchange      EXHF   =         0.00000000
  -V(xc)+E(xc)   XCENC  =     42231.49950253
  PAW double counting   =    579663.92223531  -574270.54670959
  entropy T*S    EENTRO =        -0.00000000
  eigenvalues    EBANDS =   -158531.40560138
  atomic energy  EATOM  =    883858.54578326
  Solvation  Ediel_sol  =         0.00000000
  ---------------------------------------------------
  free energy    TOTEN  =     -8650.20932695 eV

  energy without entropy =    -8650.20932695  energy(sigma->0) =    -8650.20932695


--------------------------------------------------------------------------------------------------------




--------------------------------------- Iteration      1(   8)  ---------------------------------------


    EDDIAG:  cpu time     13.1886: real time     12.1146
  RMM-DIIS:  cpu time      7.3845: real time      4.2608
    ORTHCH:  cpu time      8.5613: real time      8.6007
       DOS:  cpu time      0.0033: real time      0.0033
    --------------------------------------------
      LOOP:  cpu time     29.1377: real time     24.9794

 eigenvalue-minimisations  :  6912
 total energy-change (2. order) :-0.1445752E+04  (-0.1203144E+04)
 number of electron    8640.0000000 magnetization 
 augmentation part     8640.0000000 magnetization 

 Free energy of the ion-electron system (eV)
  ---------------------------------------------------
  alpha Z        PSCENC =     27744.81067745
  Ewald energy   TEWEN  =   3066538.45500261
  -Hartree energ DENC   =  -3875885.49021713
  -exchange      EXHF   =         0.00000000
  -V(xc)+E(xc)   XCENC  =     42231.49950253
  PAW double counting   =    579663.92223531  -574270.54670959
  entropy T*S    EENTRO =        -0.00000000
  eigenvalues    EBANDS =   -159977.15723863
  atomic energy  EATOM  =    883858.54578326
  Solvation  Ediel_sol  =         0.00000000
  ---------------------------------------------------
  free energy    TOTEN  =    -10095.96096421 eV

  energy without entropy =   -10095.96096421  energy(sigma->0) =   -10095.96096421


--------------------------------------------------------------------------------------------------------




--------------------------------------- Iteration      1(   9)  ---------------------------------------


    EDDIAG:  cpu time     13.3213: real time     12.2280
  RMM-DIIS:  cpu time     27.2445: real time     15.6745
    ORTHCH:  cpu time      8.5159: real time      8.5519
       DOS:  cpu time      0.0320: real time      0.0321
    --------------------------------------------
      LOOP:  cpu time     49.1138: real time     36.4866

 eigenvalue-minimisations  : 27153
 total energy-change (2. order) :-0.1982717E+04  (-0.1864251E+04)
 number of electron    8640.0000000 magnetization 
 augmentation part     8640.0000000 magnetization 

 Free energy of the ion-electron system (eV)
  ---------------------------------------------------
  alpha Z        PSCENC =     27744.81067745
  Ewald energy   TEWEN  =   3066538.45500261
  -Hartree energ DENC   =  -3875885.49021713
  -exchange      EXHF   =         0.00000000
  -V(xc)+E(xc)   XCENC  =     42231.49950253
  PAW double counting   =    579663.92223531  -574270.54670959
  entropy T*S    EENTRO =        -0.00000000
  eigenvalues    EBANDS =   -161959.87415779
  atomic energy  EATOM  =    883858.54578326
  Solvation  Ediel_sol  =         0.00000000
  ---------------------------------------------------
  free energy    TOTEN  =    -12078.67788336 eV

  energy without entropy =   -12078.67788336  energy(sigma->0) =   -12078.67788336


--------------------------------------------------------------------------------------------------------




--------------------------------------- Iteration      1(  10)  ---------------------------------------


    EDDIAG:  cpu time     13.2079: real time     12.1245
  RMM-DIIS:  cpu time     27.3012: real time     15.6618
    ORTHCH:  cpu time      8.5465: real time      8.5870
       DOS:  cpu time      0.0034: real time      0.0034
    --------------------------------------------
      LOOP:  cpu time     49.0590: real time     36.3767

 eigenvalue-minimisations  : 27648
 total energy-change (2. order) :-0.5357983E+03  (-0.4376294E+03)
 number of electron    8640.0000000 magnetization 
 augmentation part     8640.0000000 magnetization 

 Free energy of the ion-electron system (eV)
  ---------------------------------------------------
  alpha Z        PSCENC =     27744.81067745
  Ewald energy   TEWEN  =   3066538.45500261
  -Hartree energ DENC   =  -3875885.49021713
  -exchange      EXHF   =         0.00000000
  -V(xc)+E(xc)   XCENC  =     42231.49950253
  PAW double counting   =    579663.92223531  -574270.54670959
  entropy T*S    EENTRO =        -0.00000000
  eigenvalues    EBANDS =   -162495.67242893
  atomic energy  EATOM  =    883858.54578326
  Solvation  Ediel_sol  =         0.00000000
  ---------------------------------------------------
  free energy    TOTEN  =    -12614.47615450 eV

  energy without entropy =   -12614.47615450  energy(sigma->0) =   -12614.47615450


--------------------------------------------------------------------------------------------------------




 average (electrostatic) potential at core
  the test charge radii are     1.0397  0.7215
  (the norm of the test charge is              1.0000)
       1 -53.3255       2 -53.3255       3 -53.3255       4 -53.3255       5 -53.2885
       6 -53.2885       7 -53.2885       8 -53.2885       9 -53.3674      10 -53.3674
      11 -53.3674      12 -53.3674      13 -53.4419      14 -53.4419      15 -53.4420
      16 -53.4420      17 -53.4196      18 -53.4196      19 -53.4196      20 -53.4196
      21 -53.3687      22 -53.3686      23 -53.3687      24 -53.3687      25 -53.3674
      26 -53.3674      27 -53.3674      28 -53.3674      29 -53.4419      30 -53.4419
      31 -53.4420      32 -53.4420      33 -53.3255      34 -53.3255      35 -53.3255
      36 -53.3255      37 -53.2885      38 -53.2885      39 -53.2885      40 -53.2885
      41 -53.3255      42 -53.3255      43 -53.3255      44 -53.3255      45 -53.2885
      46 -53.2885      47 -53.2885      48 -53.2885      49 -53.3674      50 -53.3674
      51 -53.3674      52 -53.3674      53 -53.4420      54 -53.4420      55 -53.4420
      56 -53.4420      57 -53.4196      58 -53.4196      59 -53.4196      60 -53.4196
      61 -53.3687      62 -53.3687      63 -53.3687      64 -53.3687      65 -53.3674
      66 -53.3674      67 -53.3674      68 -53.3674      69 -53.4420      70 -53.4420
      71 -53.4420      72 -53.4420      73 -53.3255      74 -53.3255      75 -53.3255
      76 -53.3255      77 -53.2885      78 -53.2885      79 -53.2885      80 -53.2885
      81 -53.3255      82 -53.3255      83 -53.3255      84 -53.3255      85 -53.2885
      86 -53.2885      87 -53.2886      88 -53.2885      89 -53.3674      90 -53.3674
      91 -53.3674      92 -53.3674      93 -53.4420      94 -53.4420      95 -53.4420
      96 -53.4420      97 -53.4196      98 -53.4196      99 -53.4196     100 -53.4196
     101 -53.3687     102 -53.3687     103 -53.3687     104 -53.3687     105 -53.3674
     106 -53.3674     107 -53.3674     108 -53.3674     109 -53.4420     110 -53.4420
     111 -53.4420     112 -53.4420     113 -53.3255     114 -53.3255     115 -53.3255
     116 -53.3255     117 -53.2885     118 -53.2885     119 -53.2886     120 -53.2885
     121 -53.3255     122 -53.3255     123 -53.3255     124 -53.3255     125 -53.2885
     126 -53.2885     127 -53.2885     128 -53.2885     129 -53.3674     130 -53.3674
     131 -53.3674     132 -53.3674     133 -53.4419     134 -53.4419     135 -53.4420
     136 -53.4420     137 -53.4196     138 -53.4196     139 -53.4196     140 -53.4196
     141 -53.3687     142 -53.3686     143 -53.3687     144 -53.3687     145 -53.3674
     146 -53.3674     147 -53.3674     148 -53.3674     149 -53.4419     150 -53.4419
     151 -53.4420     152 -53.4420     153 -53.3255     154 -53.3255     155 -53.3255
     156 -53.3255     157 -53.2885     158 -53.2885     159 -53.2885     160 -53.2885
     161 -53.3255     162 -53.3255     163 -53.3255     164 -53.3255     165 -53.2885
     166 -53.2885     167 -53.2885     168 -53.2885     169 -53.3674     170 -53.3674
     171 -53.3674     172 -53.3674     173 -53.4420     174 -53.4420     175 -53.4420
     176 -53.4420     177 -53.4196     178 -53.4196     179 -53.4196     180 -53.4196
     181 -53.3687     182 -53.3687     183 -53.3687     184 -53.3687     185 -53.3674
     186 -53.3674     187 -53.3674     188 -53.3674     189 -53.4420     190 -53.4420
     191 -53.4420     192 -53.4420     193 -53.3255     194 -53.3255     195 -53.3255
     196 -53.3255     197 -53.2885     198 -53.2885     199 -53.2885     200 -53.2885
     201 -53.3255     202 -53.3255     203 -53.3255     204 -53.3255     205 -53.2885
     206 -53.2885     207 -53.2886     208 -53.2885     209 -53.3674     210 -53.3674
     211 -53.3674     212 -53.3674     213 -53.4420     214 -53.4420     215 -53.4420
     216 -53.4420     217 -53.4196     218 -53.4196     219 -53.4196     220 -53.4196
     221 -53.3687     222 -53.3687     223 -53.3687     224 -53.3687     225 -53.3674
     226 -53.3674     227 -53.3674     228 -53.3674     229 -53.4420     230 -53.4420
     231 -53.4420     232 -53.4420     233 -53.3255     234 -53.3255     235 -53.3255
     236 -53.3255     237 -53.2885     238 -53.2885     239 -53.2886     240 -53.2885
     241 -53.3255     242 -53.3255     243 -53.3255     244 -53.3255     245 -53.2885
     246 -53.2885     247 -53.2885     248 -53.2885     249 -53.3674     250 -53.3674
     251 -53.3674     252 -53.3674     253 -53.4419     254 -53.4419     255 -53.4420
     256 -53.4420     257 -53.4196     258 -53.4196     259 -53.4196     260 -53.4196
     261 -53.3687     262 -53.3686     263 -53.3687     264 -53.3687     265 -53.3674
     266 -53.3674     267 -53.3674     268 -53.3674     269 -53.4419     270 -53.4419
     271 -53.4420     272 -53.4420     273 -53.3255     274 -53.3255     275 -53.3255
     276 -53.3255     277 -53.2885     278 -53.2885     279 -53.2885     280 -53.2885
     281 -53.3255     282 -53.3255     283 -53.3255     284 -53.3255     285 -53.2885
     286 -53.2885     287 -53.2885     288 -53.2885     289 -53.3674     290 -53.3674
     291 -53.3674     292 -53.3674     293 -53.4420     294 -53.4420     295 -53.4420
     296 -53.4420     297 -53.4196     298 -53.4196     299 -53.4196     300 -53.4196
     301 -53.3687     302 -53.3687     303 -53.3687     304 -53.3687     305 -53.3674
     306 -53.3674     307 -53.3674     308 -53.3674     309 -53.4420     310 -53.4420
     311 -53.4420     312 -53.4420     313 -53.3255     314 -53.3255     315 -53.3255
     316 -53.3255     317 -53.2885     318 -53.2885     319 -53.2885     320 -53.2885
     321 -53.3255     322 -53.3255     323 -53.3255     324 -53.3255     325 -53.2885
     326 -53.2885     327 -53.2886     328 -53.2885     329 -53.3674     330 -53.3674
     331 -53.3674     332 -53.3674     333 -53.4420     334 -53.4420     335 -53.4420
     336 -53.4420     337 -53.4196     338 -53.4196     339 -53.4196     340 -53.4196
     341 -53.3687     342 -53.3687     343 -53.3687     344 -53.3687     345 -53.3674
     346 -53.3674     347 -53.3674     348 -53.3674     349 -53.4420     350 -53.4420
     351 -53.4420     352 -53.4420     353 -53.3255     354 -53.3255     355 -53.3255
     356 -53.3255     357 -53.2885     358 -53.2885     359 -53.2886     360 -53.2885
     361 -80.7194     362 -80.7196     363 -80.7195     364 -80.7196     365 -81.0860
     366 -81.0858     367 -81.0860     368 -81.0860     369 -81.0860     370 -81.0858
     371 -81.0860     372 -81.0860     373 -80.9628     374 -80.9628     375 -80.9628
     376 -80.9628     377 -81.5394     378 -81.5395     379 -81.5395     380 -81.5395
     381 -81.2354     382 -81.2352     383 -81.2354     384 -81.2354     385 -81.2354
     386 -81.2352     387 -81.2354     388 -81.2354     389 -81.5560     390 -81.5561
     391 -81.5561     392 -81.5561     393 -81.0080     394 -81.0081     395 -81.0081
     396 -81.0081     397 -81.2969     398 -81.2967     399 -81.2969     400 -81.2969
     401 -81.2969     402 -81.2967     403 -81.2969     404 -81.2969     405 -81.0080
     406 -81.0081     407 -81.0081     408 -81.0081     409 -81.5560     410 -81.5561
     411 -81.5561     412 -81.5561     413 -81.2354     414 -81.2352     415 -81.2354
     416 -81.2354     417 -81.2354     418 -81.2352     419 -81.2354     420 -81.2354
     421 -81.5394     422 -81.5395     423 -81.5395     424 -81.5395     425 -80.9628
     426 -80.9628     427 -80.9628     428 -80.9628     429 -81.0860     430 -81.0858
     431 -81.0860     432 -81.0860     433 -81.0860     434 -81.0858     435 -81.0860
     436 -81.0860     437 -80.7194     438 -80.7196     439 -80.7195     440 -80.7196
     441 -80.7195     442 -80.7196     443 -80.7195     444 -80.7196     445 -81.0860
     446 -81.0860     447 -81.0860     448 -81.0860     449 -81.0860     450 -81.0860
     451 -81.0860     452 -81.0860     453 -80.9628     454 -80.9628     455 -80.9628
     456 -80.9628     457 -81.5395     458 -81.5395     459 -81.5395     460 -81.5395
     461 -81.2354     462 -81.2354     463 -81.2354     464 -81.2354     465 -81.2354
     466 -81.2354     467 -81.2354     468 -81.2354     469 -81.5561     470 -81.5562
     471 -81.5561     472 -81.5561     473 -81.0081     474 -81.0081     475 -81.0081
     476 -81.0081     477 -81.2969     478 -81.2970     479 -81.2969     480 -81.2970
     481 -81.2969     482 -81.2970     483 -81.2969     484 -81.2970     485 -81.0081
     486 -81.0081     487 -81.0081     488 -81.0081     489 -81.5561     490 -81.5562
     491 -81.5561     492 -81.5561     493 -81.2354     494 -81.2354     495 -81.2354
     496 -81.2354     497 -81.2354     498 -81.2354     499 -81.2354     500 -81.2354
     501 -81.5395     502 -81.5395     503 -81.5395     504 -81.5395     505 -80.9628
     506 -80.9628     507 -80.9628     508 -80.9628     509 -81.0860     510 -81.0860
     511 -81.0860     512 -81.0860     513 -81.0860     514 -81.0860     515 -81.0860
     516 -81.0860     517 -80.7195     518 -80.7196     519 -80.7195     520 -80.7196
     521 -80.7195     522 -80.7196     523 -80.7195     524 -80.7196     525 -81.0860
     526 -81.0860     527 -81.0861     528 -81.0860     529 -81.0860     530 -81.0860
     531 -81.0861     532 -81.0860     533 -80.9628     534 -80.9628     535 -80.9628
     536 -80.9628     537 -81.5395     538 -81.5395     539 -81.5395     540 -81.5395
     541 -81.2354     542 -81.2354     543 -81.2355     544 -81.2354     545 -81.2354
     546 -81.2354     547 -81.2355     548 -81.2354     549 -81.5561     550 -81.5562
     551 -81.5561     552 -81.5562     553 -81.0081     554 -81.0081     555 -81.0081
     556 -81.0081     557 -81.2969     558 -81.2969     559 -81.2970     560 -81.2970
     561 -81.2969     562 -81.2969     563 -81.2970     564 -81.2970     565 -81.0081
     566 -81.0081     567 -81.0081     568 -81.0081     569 -81.5561     570 -81.5562
     571 -81.5561     572 -81.5562     573 -81.2354     574 -81.2354     575 -81.2355
     576 -81.2354     577 -81.2354     578 -81.2354     579 -81.2355     580 -81.2354
     581 -81.5395     582 -81.5395     583 -81.5395     584 -81.5395     585 -80.9628
     586 -80.9628     587 -80.9628     588 -80.9628     589 -81.0860     590 -81.0860
     591 -81.0861     592 -81.0860     593 -81.0860     594 -81.0860     595 -81.0861
     596 -81.0860     597 -80.7195     598 -80.7196     599 -80.7195     600 -80.7196
     601 -80.7194     602 -80.7196     603 -80.7195     604 -80.7196     605 -81.0860
     606 -81.0858     607 -81.0860     608 -81.0860     609 -81.0860     610 -81.0858
     611 -81.0860     612 -81.0860     613 -80.9628     614 -80.9628     615 -80.9628
     616 -80.9628     617 -81.5394     618 -81.5395     619 -81.5395     620 -81.5395
     621 -81.2354     622 -81.2352     623 -81.2354     624 -81.2354     625 -81.2354
     626 -81.2352     627 -81.2354     628 -81.2354     629 -81.5560     630 -81.5561
     631 -81.5561     632 -81.5561     633 -81.0080     634 -81.0081     635 -81.0081
     636 -81.0081     637 -81.2969     638 -81.2967     639 -81.2969     640 -81.2969
     641 -81.2969     642 -81.2967     643 -81.2969     644 -81.2969     645 -81.0080
     646 -81.0081     647 -81.0081     648 -81.0081     649 -81.5560     650 -81.5561
     651 -81.5561     652 -81.5561     653 -81.2354     654 -81.2352     655 -81.2354
     656 -81.2354     657 -81.2354     658 -81.2352     659 -81.2354     660 -81.2354
     661 -81.5394     662 -81.5395     663 -81.5395     664 -81.5395     665 -80.9628
     666 -80.9628     667 -80.9628     668 -80.9628     669 -81.0860     670 -81.0858
     671 -81.0860     672 -81.0860     673 -81.0860     674 -81.0858     675 -81.0860
     676 -81.0860     677 -80.7194     678 -80.7196     679 -80.7195     680 -80.7196
     681 -80.7195     682 -80.7196     683 -80.7195     684 -80.7196     685 -81.0860
     686 -81.0860     687 -81.0860     688 -81.0860     689 -81.0860     690 -81.0860
     691 -81.0860     692 -81.0860     693 -80.9628     694 -80.9628     695 -80.9628
     696 -80.9628     697 -81.5395     698 -81.5395     699 -81.5395     700 -81.5395
     701 -81.2354     702 -81.2354     703 -81.2354     704 -81.2354     705 -81.2354
     706 -81.2354     707 -81.2354     708 -81.2354     709 -81.5561     710 -81.5562
     711 -81.5561     712 -81.5561     713 -81.0081     714 -81.0081     715 -81.0081
     716 -81.0081     717 -81.2969     718 -81.2970     719 -81.2969     720 -81.2970
     721 -81.2969     722 -81.2970     723 -81.2969     724 -81.2970     725 -81.0081
     726 -81.0081     727 -81.0081     728 -81.0081     729 -81.5561     730 -81.5562
     731 -81.5561     732 -81.5561     733 -81.2354     734 -81.2354     735 -81.2354
     736 -81.2354     737 -81.2354     738 -81.2354     739 -81.2354     740 -81.2354
     741 -81.5395     742 -81.5395     743 -81.5395     744 -81.5395     745 -80.9628
     746 -80.9628     747 -80.9628     748 -80.9628     749 -81.0860     750 -81.0860
     751 -81.0860     752 -81.0860     753 -81.0860     754 -81.0860     755 -81.0860
     756 -81.0860     757 -80.7195     758 -80.7196     759 -80.7195     760 -80.7196
     761 -80.7195     762 -80.7196     763 -80.7195     764 -80.7196     765 -81.0860
     766 -81.0860     767 -81.0861     768 -81.0860     769 -81.0860     770 -81.0860
     771 -81.0861     772 -81.0860     773 -80.9628     774 -80.9628     775 -80.9628
     776 -80.9628     777 -81.5395     778 -81.5395     779 -81.5395     780 -81.5395
     781 -81.2354     782 -81.2354     783 -81.2355     784 -81.2354     785 -81.2354
     786 -81.2354     787 -81.2355     788 -81.2354     789 -81.5561     790 -81.5562
     791 -81.5561     792 -81.5562     793 -81.0081     794 -81.0081     795 -81.0081
     796 -81.0081     797 -81.2969     798 -81.2969     799 -81.2970     800 -81.2970
     801 -81.2969     802 -81.2969     803 -81.2970     804 -81.2970     805 -81.0081
     806 -81.0081     807 -81.0081     808 -81.0081     809 -81.5561     810 -81.5562
     811 -81.5561     812 -81.5562     813 -81.2354     814 -81.2354     815 -81.2355
     816 -81.2354     817 -81.2354     818 -81.2354     819 -81.2355     820 -81.2354
     821 -81.5395     822 -81.5395     823 -81.5395     824 -81.5395     825 -80.9628
     826 -80.9628     827 -80.9628     828 -80.9628     829 -81.0860     830 -81.0860
     831 -81.0861     832 -81.0860     833 -81.0860     834 -81.0860     835 -81.0861
     836 -81.0860     837 -80.7195     838 -80.7196     839 -80.7195     840 -80.7196
     841 -80.7194     842 -80.7196     843 -80.7195     844 -80.7196     845 -81.0860
     846 -81.0858     847 -81.0860     848 -81.0860     849 -81.0860     850 -81.0858
     851 -81.0860     852 -81.0860     853 -80.9628     854 -80.9628     855 -80.9628
     856 -80.9628     857 -81.5394     858 -81.5395     859 -81.5395     860 -81.5395
     861 -81.2354     862 -81.2352     863 -81.2354     864 -81.2354     865 -81.2354
     866 -81.2352     867 -81.2354     868 -81.2354     869 -81.5560     870 -81.5561
     871 -81.5561     872 -81.5561     873 -81.0080     874 -81.0081     875 -81.0081
     876 -81.0081     877 -81.2969     878 -81.2967     879 -81.2969     880 -81.2969
     881 -81.2969     882 -81.2967     883 -81.2969     884 -81.2969     885 -81.0080
     886 -81.0081     887 -81.0081     888 -81.0081     889 -81.5560     890 -81.5561
     891 -81.5561     892 -81.5561     893 -81.2354     894 -81.2352     895 -81.2354
     896 -81.2354     897 -81.2354     898 -81.2352     899 -81.2354     900 -81.2354
     901 -81.5394     902 -81.5395     903 -81.5395     904 -81.5395     905 -80.9628
     906 -80.9628     907 -80.9628     908 -80.9628     909 -81.0860     910 -81.0858
     911 -81.0860     912 -81.0860     913 -81.0860     914 -81.0858     915 -81.0860
     916 -81.0860     917 -80.7194     918 -80.7196     919 -80.7195     920 -80.7196
     921 -80.7195     922 -80.7196     923 -80.7195     924 -80.7196     925 -81.0860
     926 -81.0860     927 -81.0860     928 -81.0860     929 -81.0860     930 -81.0860
     931 -81.0860     932 -81.0860     933 -80.9628     934 -80.9628     935 -80.9628
     936 -80.9628     937 -81.5395     938 -81.5395     939 -81.5395     940 -81.5395
     941 -81.2354     942 -81.2354     943 -81.2354     944 -81.2354     945 -81.2354
     946 -81.2354     947 -81.2354     948 -81.2354     949 -81.5561     950 -81.5562
     951 -81.5561     952 -81.5561     953 -81.0081     954 -81.0081     955 -81.0081
     956 -81.0081     957 -81.2969     958 -81.2970     959 -81.2969     960 -81.2970
     961 -81.2969     962 -81.2970     963 -81.2969     964 -81.2970     965 -81.0081
     966 -81.0081     967 -81.0081     968 -81.0081     969 -81.5561     970 -81.5562
     971 -81.5561     972 -81.5561     973 -81.2354     974 -81.2354     975 -81.2354
     976 -81.2354     977 -81.2354     978 -81.2354     979 -81.2354     980 -81.2354
     981 -81.5395     982 -81.5395     983 -81.5395     984 -81.5395     985 -80.9628
     986 -80.9628     987 -80.9628     988 -80.9628     989 -81.0860     990 -81.0860
     991 -81.0860     992 -81.0860     993 -81.0860     994 -81.0860     995 -81.0860
     996 -81.0860     997 -80.7195     998 -80.7196     999 -80.7195    1000 -80.7196
    1001 -80.7195    1002 -80.7196    1003 -80.7195    1004 -80.7196    1005 -81.0860
    1006 -81.0860    1007 -81.0861    1008 -81.0860    1009 -81.0860    1010 -81.0860
    1011 -81.0861    1012 -81.0860    1013 -80.9628    1014 -80.9628    1015 -80.9628
    1016 -80.9628    1017 -81.5395    1018 -81.5395    1019 -81.5395    1020 -81.5395
    1021 -81.2354    1022 -81.2354    1023 -81.2355    1024 -81.2354    1025 -81.2354
    1026 -81.2354    1027 -81.2355    1028 -81.2354    1029 -81.5561    1030 -81.5562
    1031 -81.5561    1032 -81.5562    1033 -81.0081    1034 -81.0081    1035 -81.0081
    1036 -81.0081    1037 -81.2969    1038 -81.2969    1039 -81.2970    1040 -81.2970
    1041 -81.2969    1042 -81.2969    1043 -81.2970    1044 -81.2970    1045 -81.0081
    1046 -81.0081    1047 -81.0081    1048 -81.0081    1049 -81.5561    1050 -81.5562
    1051 -81.5561    1052 -81.5562    1053 -81.2354    1054 -81.2354    1055 -81.2355
    1056 -81.2354    1057 -81.2354    1058 -81.2354    1059 -81.2355    1060 -81.2354
    1061 -81.5395    1062 -81.5395    1063 -81.5395    1064 -81.5395    1065 -80.9628
    1066 -80.9628    1067 -80.9628    1068 -80.9628    1069 -81.0860    1070 -81.0860
    1071 -81.0861    1072 -81.0860    1073 -81.0860    1074 -81.0860    1075 -81.0861
    1076 -81.0860    1077 -80.7195    1078 -80.7196    1079 -80.7195    1080 -80.7196



 E-fermi :  -4.4866     XC(G=0):  -7.5753     alpha+bet : -7.0912

 WARNING: Could not determine fundamental gap because eigenvalues are not
     sorted.

 Fermi energy:        -4.4865799513

 k-point     1 :       0.0000    0.0000    0.0000
  band No.  band energies     occupation 
      1     -53.3060      2.00000
      2     -53.3052      2.00000
      3     -53.3052      2.00000
      4     -53.3033      2.00000
      5     -53.3030      2.00000
      6     -53.3021      2.00000
      7     -53.3033      2.00000
      8     -53.3014      2.00000
      9     -53.3013      2.00000
     10     -53.2941      2.00000
     11     -53.2935      2.00000
     12     -53.2930      2.00000
     13     -53.2926      2.00000
     14     -53.2932      2.00000
     15     -53.2907      2.00000
     16     -53.2800      2.00000
     17     -53.2778      2.00000
     18     -53.2778      2.00000
     19     -53.2781      2.00000
     20     -53.2772      2.00000
     21     -53.2764      2.00000
     22     -53.2768      2.00000
     23     -53.2766      2.00000
     24     -53.2752      2.00000
     25     -53.2747      2.00000
     26     -53.2708      2.00000
     27     -53.2656      2.00000
     28     -53.2665      2.00000
     29     -53.2673      2.00000
     30     -53.2650      2.00000
     31     -53.2651      2.00000
     32     -53.2631      2.00000
     33     -53.2635      2.00000
     34     -53.2654      2.00000
     35     -53.2611      2.00000
     36     -53.2572      2.00000
     37     -53.2564      2.00000
     38     -53.2580      2.00000
     39     -53.2557      2.00000
     40     -53.2563      2.00000
     41     -53.2545      2.00000
     42     -53.2534      2.00000
     43     -53.2533      2.00000
     44     -53.2521      2.00000
     45     -53.2507      2.00000
     46     -53.2523      2.00000
     47     -53.2503      2.00000
     48     -53.2353      2.00000
     49     -53.2355      2.00000
     50     -53.2320      2.00000
     51     -53.2292      2.00000
     52     -53.2244      2.00000
     53     -53.2242      2.00000
     54     -53.2274      2.00000
     55     -53.2211      2.00000
     56     -53.2245      2.00000
     57     -53.2230      2.00000
     58     -53.2211      2.00000
     59     -53.2197      2.00000
     60     -53.2223      2.00000
     61     -53.2212      2.00000
     62     -53.2167      2.00000
     63     -53.2190      2.00000
     64     -53.2213      2.00000
     65     -53.2229      2.00000
     66     -53.2212      2.00000
     67     -53.2162      2.00000
     68     -53.2159      2.00000
     69     -53.2157      2.00000
     70     -53.2138      2.00000
     71     -53.2130      2.00000
     72     -53.2074      2.00000
     73     -53.2087      2.00000
     74     -53.2072      2.00000
     75     -53.2081      2.00000
     76     -53.2089      2.00000
     77     -53.2027      2.00000
     78     -53.2069      2.00000
     79     -53.1950      2.00000
     80     -53.1944      2.00000
     81     -53.1948      2.00000
     82     -53.1962      2.00000
     83     -53.1922      2.00000
     84     -53.1938      2.00000
     85     -53.1944      2.00000
     86     -53.1936      2.00000
     87     -53.1966      2.00000
     88     -53.1955      2.00000
     89     -53.1875      2.00000
     90     -53.1915      2.00000
     91     -53.1937      2.00000
     92     -53.1939      2.00000
     93     -53.1919      2.00000
     94     -53.1878      2.00000
     95     -53.1892      2.00000
     96     -53.1894      2.00000
     97     -53.1893      2.00000
     98     -53.1863      2.00000
     99     -53.1833      2.00000
    100     -53.1864      2.00000
    101     -53.1851      2.00000
    102     -53.1827      2.00000
    103     -53.1830      2.00000
    104     -53.1848      2.00000
    105     -53.1828      2.00000
    106     -53.1817      2.00000
    107     -53.1807      2.00000
    108     -53.1831      2.00000
    109     -53.1816      2.00000
    110     -53.1797      2.00000
    111     -53.1804      2.00000
    112     -53.1821      2.00000
    113     -53.1790      2.00000
    114     -53.1811      2.00000
    115     -53.1767      2.00000
    116     -53.1760      2.00000
    117     -53.1752      2.00000
    118     -53.1773      2.00000
    119     -53.1752      2.00000
    120     -53.1751      2.00000
    121     -53.1729      2.00000
    122     -53.1717      2.00000
    123     -53.1761      2.00000
    124     -53.1715      2.00000
    125     -53.1697      2.00000
    126     -53.1704      2.00000
    127     -53.1681      2.00000
    128     -53.1693      2.00000
    129     -53.1682      2.00000
    130     -53.1616      2.00000
    131     -53.1616      2.00000
    132     -53.1566      2.00000
    133     -53.1538      2.00000
    134     -53.1581      2.00000
    135     -53.1570      2.00000
    136     -53.1536      2.00000
    137     -53.1519      2.00000
    138     -53.1515      2.00000
    139     -53.1535      2.00000
    140     -53.1517      2.00000
    141     -53.1505      2.00000
    142     -53.1525      2.00000
    143     -53.1530      2.00000
    144     -53.1529      2.00000
    145     -53.1489      2.00000
    146     -53.1507      2.00000
    147     -53.1464      2.00000
    148     -53.1500      2.00000
    149     -53.1466      2.00000
    150     -53.1432      2.00000
    151     -53.1439      2.00000
    152     -53.1435      2.00000
    153     -53.1419      2.00000
    154     -53.1443      2.00000
    155     -53.1428      2.00000
    156     -53.1422      2.00000
    157     -53.1410      2.00000
    158     -53.1425      2.00000
    159     -53.1420      2.00000
    160     -53.1416      2.00000
    161     -53.1320      2.00000
    162     -53.1295      2.00000
    163     -53.1316      2.00000
    164     -53.1269      2.00000
    165     -53.1289      2.00000
    166     -53.1276      2.00000
    167     -53.1233      2.00000
    168     -53.1250      2.00000
    169     -53.1151      2.00000
    170     -53.1208      2.00000
    171     -53.1228      2.00000
    172     -53.1140      2.00000
    173     -53.1161      2.00000
    174     -53.1171      2.00000
    175     -53.1108      2.00000
    176     -53.1131      2.00000
    177     -53.1103      2.00000
    178     -53.1067      2.00000
    179     -53.1117      2.00000
    180     -53.1116      2.00000
    181     -53.1069      2.00000
    182     -53.2279      2.00000
    183     -53.2480      2.00000
    184     -53.2444      2.00000
    185     -53.2413      2.00000
    186     -53.2446      2.00000
    187     -53.2389      2.00000
    188     -53.2066      2.00000
    189     -53.2390      2.00000
    190     -53.2303      2.00000
    191     -53.2324      2.00000
    192     -53.2309      2.00000
    193     -53.2261      2.00000
    194     -53.2290      2.00000
    195     -53.2257      2.00000
    196     -53.2166      2.00000
    197     -53.2175      2.00000
    198     -53.2453      2.00000
    199     -53.2427      2.00000
    200     -53.2350      2.00000
    201     -53.2353      2.00000
    202     -53.2128      2.00000
    203     -53.2089      2.00000
    204     -53.2157      2.00000
    205     -53.2113      2.00000
    206     -53.2114      2.00000
    207     -53.2024      2.00000
    208     -53.1977      2.00000
    209     -53.1954      2.00000
    210     -53.1897      2.00000
    211     -53.1906      2.00000
    212     -53.1926      2.00000
    213     -53.1836      2.00000
    214     -53.1817      2.00000
    215     -53.1807      2.00000
    216     -53.1926      2.00000
    217     -53.1956      2.00000
    218     -53.1890      2.00000
    219     -53.1782      2.00000
    220     -53.1705      2.00000
    221     -53.1736      2.00000
    222     -53.1735      2.00000
    223     -53.1837      2.00000
    224     -53.1606      2.00000
    225     -53.1731      2.00000
    226     -53.1684      2.00000
    227     -53.1646      2.00000
    228     -53.1597      2.00000
    229     -53.1644      2.00000
    230     -53.1598      2.00000
    231     -53.1634      2.00000
    232     -53.1631      2.00000
    233     -53.1647      2.00000
    234     -53.1550      2.00000
    235     -53.1588      2.00000
    236     -53.1513      2.00000
    237     -53.1588      2.00000
    238     -53.1578      2.00000
    239     -53.1576      2.00000
    240     -53.1522      2.00000
    241     -53.1501      2.00000
    242     -53.1555      2.00000
    243     -53.1689      2.00000
    244     -53.1442      2.00000
    245     -53.1690      2.00000
    246     -53.1551      2.00000
    247     -53.1562      2.00000
    248     -53.1586      2.00000
    249     -53.1568      2.00000
    250     -53.1452      2.00000
    251     -53.1456      2.00000
    252     -53.1457      2.00000
    253     -53.1513      2.00000
    254     -53.1409      2.00000
    255     -53.1511      2.00000
    256     -53.1521      2.00000
    257     -53.1617      2.00000
    258     -53.1455      2.00000
    259     -53.1610      2.00000
    260     -53.1599      2.00000
    261     -53.1510      2.00000
    262     -53.1552      2.00000
    263     -53.1489      2.00000
    264     -53.1521      2.00000
    265     -53.1516      2.00000
    266     -53.1495      2.00000
    267     -53.1437      2.00000
    268     -53.1579      2.00000
    269     -53.1494      2.00000
    270     -53.1367      2.00000
    271     -53.1421      2.00000
    272     -53.1424      2.00000
    273     -53.1365      2.00000
    274     -53.1300      2.00000
    275     -53.1272      2.00000
    276     -53.1400      2.00000
    277     -53.1341      2.00000
    278     -53.1326      2.00000
    279     -53.1331      2.00000
    280     -53.1391      2.00000
    281     -53.1303      2.00000
    282     -53.1380      2.00000
    283     -53.1329      2.00000
    284     -53.1278      2.00000
    285     -53.1350      2.00000
    286     -53.1253      2.00000
    287     -53.1185      2.00000
    288     -53.1332      2.00000
    289     -53.1226      2.00000
    290     -53.1154      2.00000
    291     -53.1209      2.00000
    292     -53.1241      2.00000
    293     -53.1128      2.00000
    294     -53.1095      2.00000
    295     -53.1137      2.00000
    296     -53.1116      2.00000
    297     -53.1017      2.00000
    298     -53.1169      2.00000
    299     -53.1090      2.00000
    300     -53.1023      2.00000
    301     -53.0948      2.00000
    302     -53.1006      2.00000
    303     -53.1025      2.00000
    304     -53.0955      2.00000
    305     -53.0943      2.00000
    306     -53.0996      2.00000
    307     -53.0905      2.00000
    308     -53.0910      2.00000
    309     -53.0924      2.00000
    310     -53.0940      2.00000
    311     -53.0854      2.00000
    312     -53.0871      2.00000
    313     -53.0854      2.00000
    314     -53.0822      2.00000
    315     -53.0847      2.00000
    316     -53.0816      2.00000
    317     -53.0818      2.00000
    318     -53.0748      2.00000
    319     -53.0753      2.00000
    320     -53.0841      2.00000
    321     -53.0715      2.00000
    322     -53.0681      2.00000
    323     -53.0723      2.00000
    324     -53.0725      2.00000
    325     -53.0779      2.00000
    326     -53.0670      2.00000
    327     -53.0616      2.00000
    328     -53.0573      2.00000
    329     -53.0649      2.00000
    330     -53.0592      2.00000
    331     -53.0513      2.00000
    332     -53.0538      2.00000
    333     -53.0419      2.00000
    334     -53.0488      2.00000
    335     -53.0334      2.00000
    336     -53.0365      2.00000
    337     -53.0291      2.00000
    338     -53.0215      2.00000
    339     -53.0136      2.00000
    340     -53.0190      2.00000
    341     -53.0125      2.00000
    342     -53.0133      2.00000
    343     -53.0075      2.00000
    344     -53.0067      2.00000
    345     -52.9928      2.00000
    346     -52.9865      2.00000
    347     -52.9200      2.00000
    348     -52.8405      2.00000
    349     -52.7381      2.00000
    350     -52.6515      2.00000
    351     -52.3511      2.00000
    352     -52.1610      2.00000
    353     -51.6346      2.00000
    354     -51.2769      2.00000
    355     -51.2185      2.00000
    356     -50.8281      2.00000
    357     -50.2990      2.00000
    358     -50.2191      2.00000
    359     -50.1517      2.00000
    360     -50.1290      2.00000
    361     -30.8699      2.00000
    362     -30.8699      2.00000
    363     -30.8688      2.00000
    364     -30.8473      2.00000
    365     -30.8473      2.00000
    366     -30.8462      2.00000
    367     -30.8211      2.00000
    368     -30.8212      2.00000
    369     -30.8209      2.00000
    370     -30.8209      2.00000
    371     -30.8207      2.00000
    372     -30.8209      2.00000
    373     -30.8207      2.00000
    374     -30.8205      2.00000
    375     -30.8203      2.00000
    376     -30.8200      2.00000
    377     -30.8197      2.00000
    378     -30.8198      2.00000
    379     -30.8096      2.00000
    380     -30.8094      2.00000
    381     -30.7974      2.00000
    382     -30.7975      2.00000
    383     -30.7972      2.00000
    384     -30.7974      2.00000
    385     -30.7963      2.00000
    386     -30.7964      2.00000
    387     -30.7853      2.00000
    388     -30.7691      2.00000
    389     -30.7691      2.00000
    390     -30.7691      2.00000
    391     -30.7689      2.00000
    392     -30.7686      2.00000
    393     -30.7686      2.00000
    394     -30.7687      2.00000
    395     -30.7686      2.00000
    396     -30.7681      2.00000
    397     -30.7681      2.00000
    398     -30.7677      2.00000
    399     -30.7677      2.00000
    400     -30.7602      2.00000
    401     -30.7602      2.00000
    402     -30.7602      2.00000
    403     -30.7602      2.00000
    404     -30.7354      2.00000
    405     -30.7354      2.00000
    406     -30.7304      2.00000
    407     -30.7303      2.00000
    408     -30.7302      2.00000
    409     -30.7300      2.00000
    410     -30.7142      2.00000
    411     -30.7142      2.00000
    412     -30.7051      2.00000
    413     -30.7048      2.00000
    414     -30.7035      2.00000
    415     -30.6847      2.00000
    416     -30.6847      2.00000
    417     -30.6841      2.00000
    418     -30.6842      2.00000
    419     -30.6838      2.00000
    420     -30.6832      2.00000
    421     -30.6804      2.00000
    422     -30.6803      2.00000
    423     -30.6802      2.00000
    424     -30.6802      2.00000
    425     -30.6803      2.00000
    426     -30.6803      2.00000
    427     -30.6803      2.00000
    428     -30.6802      2.00000
    429     -30.6639      2.00000
    430     -30.6638      2.00000
    431     -30.6638      2.00000
    432     -30.6636      2.00000
    433     -30.6615      2.00000
    434     -30.6613      2.00000
    435     -30.6610      2.00000
    436     -30.6610      2.00000
    437     -30.6590      2.00000
    438     -30.6589      2.00000
    439     -30.6586      2.00000
    440     -30.6586      2.00000
    441     -30.6578      2.00000
    442     -30.6569      2.00000
    443     -30.6571      2.00000
    444     -30.6568      2.00000
    445     -30.6568      2.00000
    446     -30.6567      2.00000
    447     -30.6552      2.00000
    448     -30.6552      2.00000
    449     -30.6242      2.00000
    450     -30.6239      2.00000
    451     -30.6238      2.00000
    452     -30.6237      2.00000
    453     -30.6236      2.00000
    454     -30.6234      2.00000
    455     -30.6235      2.00000
    456     -30.6232      2.00000
    457     -30.6230      2.00000
    458     -30.6233      2.00000
    459     -30.6230      2.00000
    460     -30.6229      2.00000
    461     -30.6222      2.00000
    462     -30.6228      2.00000
    463     -30.6227      2.00000
    464     -30.6225      2.00000
    465     -30.6220      2.00000
    466     -30.6219      2.00000
    467     -30.6170      2.00000
    468     -30.6170      2.00000
    469     -30.6171      2.00000
    470     -30.6170      2.00000
    471     -30.6165      2.00000
    472     -30.6165      2.00000
    473     -30.6165      2.00000
    474     -30.6165      2.00000
    475     -30.5971      2.00000
    476     -30.5964      2.00000
    477     -30.5756      2.00000
    478     -30.5756      2.00000
    479     -30.5751      2.00000
    480     -30.5750      2.00000
    481     -30.5414      2.00000
    482     -30.5412      2.00000
    483     -30.5411      2.00000
    484     -30.5410      2.00000
    485     -30.5412      2.00000
    486     -30.5410      2.00000
    487     -30.5407      2.00000
    488     -30.5407      2.00000
    489     -30.5239      2.00000
    490     -30.5237      2.00000
    491     -30.5233      2.00000
    492     -30.5232      2.00000
    493     -30.5231      2.00000
    494     -30.5228      2.00000
    495     -30.5227      2.00000
    496     -30.5225      2.00000
    497     -30.5211      2.00000
    498     -30.5207      2.00000
    499     -30.4963      2.00000
    500     -30.4961      2.00000
    501     -30.4958      2.00000
    502     -30.4959      2.00000
    503     -30.4955      2.00000
    504     -30.4957      2.00000
    505     -30.4956      2.00000
    506     -30.4955      2.00000
    507     -30.4950      2.00000
    508     -30.4951      2.00000
    509     -30.4948      2.00000
    510     -30.4951      2.00000
    511     -30.4950      2.00000
    512     -30.4942      2.00000
    513     -30.4636      2.00000
    514     -30.4634      2.00000
    515     -30.4633      2.00000
    516     -30.4629      2.00000
    517     -30.4617      2.00000
    518     -30.4615      2.00000
    519     -30.4464      2.00000
    520     -30.4457      2.00000
    521     -30.4460      2.00000
    522     -30.4452      2.00000
    523     -30.4322      2.00000
    524     -30.4320      2.00000
    525     -30.4313      2.00000
    526     -30.4314      2.00000
    527     -30.4281      2.00000
    528     -30.4280      2.00000
    529     -30.4280      2.00000
    530     -30.4196      2.00000
    531     -30.4194      2.00000
    532     -30.4192      2.00000
    533     -30.4191      2.00000
    534     -30.4186      2.00000
    535     -30.4183      2.00000
    536     -30.4186      2.00000
    537     -30.4185      2.00000
    538     -30.4182      2.00000
    539     -30.4182      2.00000
    540     -30.4181      2.00000
    541     -30.4176      2.00000
    542     -30.4102      2.00000
    543     -30.4099      2.00000
    544     -30.4099      2.00000
    545     -30.4099      2.00000
    546     -30.4099      2.00000
    547     -30.4097      2.00000
    548     -30.4014      2.00000
    549     -30.4014      2.00000
    550     -30.3867      2.00000
    551     -30.3781      2.00000
    552     -30.3700      2.00000
    553     -30.3696      2.00000
    554     -30.3695      2.00000
    555     -30.3695      2.00000
    556     -30.3695      2.00000
    557     -30.3694      2.00000
    558     -30.3695      2.00000
    559     -30.3694      2.00000
    560     -30.3679      2.00000
    561     -30.3639      2.00000
    562     -30.3635      2.00000
    563     -30.3634      2.00000
    564     -30.3627      2.00000
    565     -30.3625      2.00000
    566     -30.3504      2.00000
    567     -30.3503      2.00000
    568     -30.3471      2.00000
    569     -30.3467      2.00000
    570     -30.3459      2.00000
    571     -30.3461      2.00000
    572     -30.3461      2.00000
    573     -30.3460      2.00000
    574     -30.3456      2.00000
    575     -30.3454      2.00000
    576     -30.3452      2.00000
    577     -30.3449      2.00000
    578     -30.3449      2.00000
    579     -30.3450      2.00000
    580     -30.3447      2.00000
    581     -30.3445      2.00000
    582     -30.3429      2.00000
    583     -30.3426      2.00000
    584     -30.3420      2.00000
    585     -30.3418      2.00000
    586     -30.3418      2.00000
    587     -30.3417      2.00000
    588     -30.3407      2.00000
    589     -30.3405      2.00000
    590     -30.3373      2.00000
    591     -30.3372      2.00000
    592     -30.3370      2.00000
    593     -30.3369      2.00000
    594     -30.3347      2.00000
    595     -30.3342      2.00000
    596     -30.3273      2.00000
    597     -30.3272      2.00000
    598     -30.3258      2.00000
    599     -30.3256      2.00000
    600     -30.3238      2.00000
    601     -30.3236      2.00000
    602     -30.3203      2.00000
    603     -30.3200      2.00000
    604     -30.3002      2.00000
    605     -30.2999      2.00000
    606     -30.2997      2.00000
    607     -30.2987      2.00000
    608     -30.2978      2.00000
    609     -30.2977      2.00000
    610     -30.2970      2.00000
    611     -30.2969      2.00000
    612     -30.2951      2.00000
    613     -30.2944      2.00000
    614     -30.2871      2.00000
    615     -30.2863      2.00000
    616     -30.2863      2.00000
    617     -30.2864      2.00000
    618     -30.2845      2.00000
    619     -30.2844      2.00000
    620     -30.2790      2.00000
    621     -30.2787      2.00000
    622     -30.2785      2.00000
    623     -30.2783      2.00000
    624     -30.2783      2.00000
    625     -30.2782      2.00000
    626     -30.2781      2.00000
    627     -30.2780      2.00000
    628     -30.2775      2.00000
    629     -30.2774      2.00000
    630     -30.2737      2.00000
    631     -30.2734      2.00000
    632     -30.2722      2.00000
    633     -30.2720      2.00000
    634     -30.2719      2.00000
    635     -30.2692      2.00000
    636     -30.2692      2.00000
    637     -30.2685      2.00000
    638     -30.2685      2.00000
    639     -30.2680      2.00000
    640     -30.2680      2.00000
    641     -30.2679      2.00000
    642     -30.2679      2.00000
    643     -30.2651      2.00000
    644     -30.2648      2.00000
    645     -30.2632      2.00000
    646     -30.2632      2.00000
    647     -30.2631      2.00000
    648     -30.2627      2.00000
    649     -30.2627      2.00000
    650     -30.2622      2.00000
    651     -30.2619      2.00000
    652     -30.2617      2.00000
    653     -30.2617      2.00000
    654     -30.2617      2.00000
    655     -30.2602      2.00000
    656     -30.2600      2.00000
    657     -30.2600      2.00000
    658     -30.2599      2.00000
    659     -30.2594      2.00000
    660     -30.2595      2.00000
    661     -30.2593      2.00000
    662     -30.2593      2.00000
    663     -30.2590      2.00000
    664     -30.2589      2.00000
    665     -30.2573      2.00000
    666     -30.2571      2.00000
    667     -30.2562      2.00000
    668     -30.2559      2.00000
    669     -30.2543      2.00000
    670     -30.2542      2.00000
    671     -30.2543      2.00000
    672     -30.2543      2.00000
    673     -30.2487      2.00000
    674     -30.2485      2.00000
    675     -30.2483      2.00000
    676     -30.2482      2.00000
    677     -30.2239      2.00000
    678     -30.2237      2.00000
    679     -30.2192      2.00000
    680     -30.2192      2.00000
    681     -30.2164      2.00000
    682     -30.2162      2.00000
    683     -30.2163      2.00000
    684     -30.2162      2.00000
    685     -30.2141      2.00000
    686     -30.2140      2.00000
    687     -30.2141      2.00000
    688     -30.2140      2.00000
    689     -30.2128      2.00000
    690     -30.2126      2.00000
    691     -30.2098      2.00000
    692     -30.2096      2.00000
    693     -30.2081      2.00000
    694     -30.2079      2.00000
    695     -30.2075      2.00000
    696     -30.2073      2.00000
    697     -30.2069      2.00000
    698     -30.2073      2.00000
    699     -30.2070      2.00000
    700     -30.2070      2.00000
    701     -30.2071      2.00000
    702     -30.2067      2.00000
    703     -30.2067      2.00000
    704     -30.2065      2.00000
    705     -30.2040      2.00000
    706     -30.2038      2.00000
    707     -30.2036      2.00000
    708     -30.2034      2.00000
    709     -30.2023      2.00000
    710     -30.2015      2.00000
    711     -30.2014      2.00000
    712     -30.1963      2.00000
    713     -30.1959      2.00000
    714     -30.1932      2.00000
    715     -30.1931      2.00000
    716     -30.1925      2.00000
    717     -30.1924      2.00000
    718     -30.1923      2.00000
    719     -30.1922      2.00000
    720     -30.1922      2.00000
    721     -30.1919      2.00000
    722     -30.1912      2.00000
    723     -30.1912      2.00000
    724     -30.1910      2.00000
    725     -30.1909      2.00000
    726     -30.1914      2.00000
    727     -30.1913      2.00000
    728     -30.1827      2.00000
    729     -30.1815      2.00000
    730     -30.1815      2.00000
    731     -30.1815      2.00000
    732     -30.1813      2.00000
    733     -30.1816      2.00000
    734     -30.1762      2.00000
    735     -30.1763      2.00000
    736     -30.1761      2.00000
    737     -30.1761      2.00000
    738     -30.1760      2.00000
    739     -30.1760      2.00000
    740     -30.1625      2.00000
    741     -30.1624      2.00000
    742     -30.1623      2.00000
    743     -30.1621      2.00000
    744     -30.1615      2.00000
    745     -30.1614      2.00000
    746     -30.1613      2.00000
    747     -30.1612      2.00000
    748     -30.1611      2.00000
    749     -30.1607      2.00000
    750     -30.1538      2.00000
    751     -30.1534      2.00000
    752     -30.1518      2.00000
    753     -30.1515      2.00000
    754     -30.1506      2.00000
    755     -30.1509      2.00000
    756     -30.1508      2.00000
    757     -30.1498      2.00000
    758     -30.1470      2.00000
    759     -30.1461      2.00000
    760     -30.1461      2.00000
    761     -30.1460      2.00000
    762     -30.1461      2.00000
    763     -30.1460      2.00000
    764     -30.1459      2.00000
    765     -30.1457      2.00000
    766     -30.1426      2.00000
    767     -30.1424      2.00000
    768     -30.1422      2.00000
    769     -30.1420      2.00000
    770     -30.1419      2.00000
    771     -30.1418      2.00000
    772     -30.1415      2.00000
    773     -30.1413      2.00000
    774     -30.1389      2.00000
    775     -30.1388      2.00000
    776     -30.1387      2.00000
    777     -30.1386      2.00000
    778     -30.1376      2.00000
    779     -30.1376      2.00000
    780     -30.1354      2.00000
    781     -30.1352      2.00000
    782     -30.1346      2.00000
    783     -30.1345      2.00000
    784     -30.1330      2.00000
    785     -30.1329      2.00000
    786     -30.1327      2.00000
    787     -30.1327      2.00000
    788     -30.1327      2.00000
    789     -30.1327      2.00000
    790     -30.1314      2.00000
    791     -30.1314      2.00000
    792     -30.1308      2.00000
    793     -30.1307      2.00000
    794     -30.1289      2.00000
    795     -30.1287      2.00000
    796     -30.1285      2.00000
    797     -30.1285      2.00000
    798     -30.1276      2.00000
    799     -30.1275      2.00000
    800     -30.1273      2.00000
    801     -30.1273      2.00000
    802     -30.1276      2.00000
    803     -30.1243      2.00000
    804     -30.1228      2.00000
    805     -30.1194      2.00000
    806     -30.1189      2.00000
    807     -30.1188      2.00000
    808     -30.1187      2.00000
    809     -30.1187      2.00000
    810     -30.1186      2.00000
    811     -30.1185      2.00000
    812     -30.1187      2.00000
    813     -30.1185      2.00000
    814     -30.1185      2.00000
    815     -30.1184      2.00000
    816     -30.1182      2.00000
    817     -30.1156      2.00000
    818     -30.1155      2.00000
    819     -30.1151      2.00000
    820     -30.1145      2.00000
    821     -30.1145      2.00000
    822     -30.1142      2.00000
    823     -30.1130      2.00000
    824     -30.1129      2.00000
    825     -30.1129      2.00000
    826     -30.1129      2.00000
    827     -30.1127      2.00000
    828     -30.1124      2.00000
    829     -30.1107      2.00000
    830     -30.1097      2.00000
    831     -30.1097      2.00000
    832     -30.1098      2.00000
    833     -30.1098      2.00000
    834     -30.1095      2.00000
    835     -30.1096      2.00000
    836     -30.1097      2.00000
    837     -30.1064      2.00000
    838     -30.1038      2.00000
    839     -30.1038      2.00000
    840     -30.1037      2.00000
    841     -30.1037      2.00000
    842     -30.1036      2.00000
    843     -30.1035      2.00000
    844     -30.1034      2.00000
    845     -30.1034      2.00000
    846     -30.0979      2.00000
    847     -30.0979      2.00000
    848     -30.0977      2.00000
    849     -30.0976      2.00000
    850     -30.0976      2.00000
    851     -30.0975      2.00000
    852     -30.0972      2.00000
    853     -30.0971      2.00000
    854     -30.0971      2.00000
    855     -30.0972      2.00000
    856     -30.0972      2.00000
    857     -30.0970      2.00000
    858     -30.0968      2.00000
    859     -30.0966      2.00000
    860     -30.0966      2.00000
    861     -30.0962      2.00000
    862     -30.0955      2.00000
    863     -30.0954      2.00000
    864     -30.0946      2.00000
    865     -30.0945      2.00000
    866     -30.0944      2.00000
    867     -30.0942      2.00000
    868     -30.0837      2.00000
    869     -30.0836      2.00000
    870     -30.0836      2.00000
    871     -30.0835      2.00000
    872     -30.0825      2.00000
    873     -30.0824      2.00000
    874     -30.0821      2.00000
    875     -30.0820      2.00000
    876     -30.0815      2.00000
    877     -30.0814      2.00000
    878     -30.0804      2.00000
    879     -30.0803      2.00000
    880     -30.0802      2.00000
    881     -30.0802      2.00000
    882     -30.0800      2.00000
    883     -30.0799      2.00000
    884     -30.0800      2.00000
    885     -30.0799      2.00000
    886     -30.0794      2.00000
    887     -30.0791      2.00000
    888     -30.0766      2.00000
    889     -30.0766      2.00000
    890     -30.0762      2.00000
    891     -30.0762      2.00000
    892     -30.0748      2.00000
    893     -30.0744      2.00000
    894     -30.0735      2.00000
    895     -30.0735      2.00000
    896     -30.0736      2.00000
    897     -30.0733      2.00000
    898     -30.0728      2.00000
    899     -30.0726      2.00000
    900     -30.0725      2.00000
    901     -30.0723      2.00000
    902     -30.0719      2.00000
    903     -30.0717      2.00000
    904     -30.0715      2.00000
    905     -30.0714      2.00000
    906     -30.0715      2.00000
    907     -30.0711      2.00000
    908     -30.0712      2.00000
    909     -30.0711      2.00000
    910     -30.0697      2.00000
    911     -30.0696      2.00000
    912     -30.0692      2.00000
    913     -30.0694      2.00000
    914     -30.0696      2.00000
    915     -30.0679      2.00000
    916     -30.0678      2.00000
    917     -30.0678      2.00000
    918     -30.0676      2.00000
    919     -30.0658      2.00000
    920     -30.0659      2.00000
    921     -30.0650      2.00000
    922     -30.0649      2.00000
    923     -30.0649      2.00000
    924     -30.0648      2.00000
    925     -30.0643      2.00000
    926     -30.0642      2.00000
    927     -30.0643      2.00000
    928     -30.0642      2.00000
    929     -30.0629      2.00000
    930     -30.0629      2.00000
    931     -30.0628      2.00000
    932     -30.0626      2.00000
    933     -30.0590      2.00000
    934     -30.0588      2.00000
    935     -30.0580      2.00000
    936     -30.0581      2.00000
    937     -30.0577      2.00000
    938     -30.0578      2.00000
    939     -30.0570      2.00000
    940     -30.0567      2.00000
    941     -30.0566      2.00000
    942     -30.0566      2.00000
    943     -30.0565      2.00000
    944     -30.0565      2.00000
    945     -30.0564      2.00000
    946     -30.0563      2.00000
    947     -30.0561      2.00000
    948     -30.0559      2.00000
    949     -30.0559      2.00000
    950     -30.0550      2.00000
    951     -30.0543      2.00000
    952     -30.0523      2.00000
    953     -30.0522      2.00000
    954     -30.0514      2.00000
    955     -30.0513      2.00000
    956     -30.0474      2.00000
    957     -30.0474      2.00000
    958     -30.0472      2.00000
    959     -30.0403      2.00000
    960     -30.0400      2.00000
    961     -30.0321      2.00000
    962     -30.0319      2.00000
    963     -30.0319      2.00000
    964     -30.0318      2.00000
    965     -30.0317      2.00000
    966     -30.0317      2.00000
    967     -30.0304      2.00000
    968     -30.0303      2.00000
    969     -30.0302      2.00000
    970     -30.0299      2.00000
    971     -30.0299      2.00000
    972     -30.0297      2.00000
    973     -30.0296      2.00000
    974     -30.0294      2.00000
    975     -30.0292      2.00000
    976     -30.0292      2.00000
    977     -30.0294      2.00000
    978     -30.0293      2.00000
    979     -30.0283      2.00000
    980     -30.0277      2.00000
    981     -30.0263      2.00000
    982     -30.0252      2.00000
    983     -30.0251      2.00000
    984     -30.0251      2.00000
    985     -30.0249      2.00000
    986     -30.0249      2.00000
    987     -30.0248      2.00000
    988     -30.0222      2.00000
    989     -30.0220      2.00000
    990     -30.0151      2.00000
    991     -30.0144      2.00000
    992     -30.0139      2.00000
    993     -30.0138      2.00000
    994     -30.0131      2.00000
    995     -30.0131      2.00000
    996     -30.0131      2.00000
    997     -30.0131      2.00000
    998     -30.0119      2.00000
    999     -30.0119      2.00000
   1000     -30.0118      2.00000
   1001     -30.0118      2.00000
   1002     -30.0117      2.00000
   1003     -30.0117      2.00000
   1004     -30.0116      2.00000
   1005     -30.0116      2.00000
   1006     -30.0115      2.00000
   1007     -30.0116      2.00000
   1008     -30.0115      2.00000
   1009     -30.0113      2.00000
   1010     -30.0113      2.00000
   1011     -30.0111      2.00000
   1012     -30.0110      2.00000
   1013     -30.0110      2.00000
   1014     -30.0110      2.00000
   1015     -30.0108      2.00000
   1016     -30.0106      2.00000
   1017     -30.0097      2.00000
   1018     -30.0097      2.00000
   1019     -30.0101      2.00000
   1020     -30.0095      2.00000
   1021     -30.0059      2.00000
   1022     -30.0060      2.00000
   1023     -30.0059      2.00000
   1024     -30.0059      2.00000
   1025     -30.0055      2.00000
   1026     -30.0055      2.00000
   1027     -30.0051      2.00000
   1028     -30.0051      2.00000
   1029     -30.0051      2.00000
   1030     -30.0050      2.00000
   1031     -30.0010      2.00000
   1032     -30.0010      2.00000
   1033     -30.0008      2.00000
   1034     -30.0007      2.00000
   1035     -30.0006      2.00000
   1036     -30.0005      2.00000
   1037     -29.9999      2.00000
   1038     -29.9999      2.00000
   1039     -29.9995      2.00000
   1040     -29.9992      2.00000
   1041     -29.9988      2.00000
   1042     -29.9987      2.00000
   1043     -29.9982      2.00000
   1044     -29.9981      2.00000
   1045     -29.9978      2.00000
   1046     -29.9977      2.00000
   1047     -29.9972      2.00000
   1048     -29.9969      2.00000
   1049     -29.9968      2.00000
   1050     -29.9967      2.00000
   1051     -29.9965      2.00000
   1052     -29.9955      2.00000
   1053     -29.9945      2.00000
   1054     -29.9943      2.00000
   1055     -29.9942      2.00000
   1056     -29.9869      2.00000
   1057     -29.9869      2.00000
   1058     -29.9869      2.00000
   1059     -29.9869      2.00000
   1060     -29.9869      2.00000
   1061     -29.9866      2.00000
   1062     -29.9858      2.00000
   1063     -29.9858      2.00000
   1064     -29.9855      2.00000
   1065     -29.9855      2.00000
   1066     -29.9856      2.00000
   1067     -29.9833      2.00000
   1068     -29.9832      2.00000
   1069     -29.9832      2.00000
   1070     -29.9832      2.00000
   1071     -29.9809      2.00000
   1072     -29.9808      2.00000
   1073     -29.9807      2.00000
   1074     -29.9806      2.00000
   1075     -29.9802      2.00000
   1076     -29.9800      2.00000
   1077     -29.9789      2.00000
   1078     -29.9788      2.00000
   1079     -29.9788      2.00000
   1080     -29.9786      2.00000
   1081     -29.9781      2.00000
   1082     -29.9780      2.00000
   1083     -29.9779      2.00000
   1084     -29.9778      2.00000
   1085     -29.9765      2.00000
   1086     -29.9745      2.00000
   1087     -29.9743      2.00000
   1088     -29.9731      2.00000
   1089     -29.9730      2.00000
   1090     -29.9728      2.00000
   1091     -29.9727      2.00000
   1092     -29.9726      2.00000
   1093     -29.9723      2.00000
   1094     -29.9717      2.00000
   1095     -29.9716      2.00000
   1096     -29.9714      2.00000
   1097     -29.9713      2.00000
   1098     -29.9709      2.00000
   1099     -29.9708      2.00000
   1100     -29.9707      2.00000
   1101     -29.9707      2.00000
   1102     -29.9704      2.00000
   1103     -29.9703      2.00000
   1104     -29.9702      2.00000
   1105     -29.9702      2.00000
   1106     -29.9700      2.00000
   1107     -29.9699      2.00000
   1108     -29.9696      2.00000
   1109     -29.9695      2.00000
   1110     -29.9694      2.00000
   1111     -29.9693      2.00000
   1112     -29.9671      2.00000
   1113     -29.9671      2.00000
   1114     -29.9667      2.00000
   1115     -29.9666      2.00000
   1116     -29.9665      2.00000
   1117     -29.9663      2.00000
   1118     -29.9662      2.00000
   1119     -29.9662      2.00000
   1120     -29.9654      2.00000
   1121     -29.9651      2.00000
   1122     -29.9650      2.00000
   1123     -29.9651      2.00000
   1124     -29.9650      2.00000
   1125     -29.9651      2.00000
   1126     -29.9648      2.00000
   1127     -29.9648      2.00000
   1128     -29.9647      2.00000
   1129     -29.9634      2.00000
   1130     -29.9634      2.00000
   1131     -29.9634      2.00000
   1132     -29.9633      2.00000
   1133     -29.9626      2.00000
   1134     -29.9624      2.00000
   1135     -29.9618      2.00000
   1136     -29.9615      2.00000
   1137     -29.9612      2.00000
   1138     -29.9610      2.00000
   1139     -29.9590      2.00000
   1140     -29.9591      2.00000
   1141     -29.9590      2.00000
   1142     -29.9590      2.00000
   1143     -29.9587      2.00000
   1144     -29.9585      2.00000
   1145     -29.9575      2.00000
   1146     -29.9575      2.00000
   1147     -29.9573      2.00000
   1148     -29.9573      2.00000
   1149     -29.9553      2.00000
   1150     -29.9539      2.00000
   1151     -29.9539      2.00000
   1152     -29.9538      2.00000
   1153     -29.9537      2.00000
   1154     -29.9536      2.00000
   1155     -29.9535      2.00000
   1156     -29.9508      2.00000
   1157     -29.9508      2.00000
   1158     -29.9505      2.00000
   1159     -29.9504      2.00000
   1160     -29.9496      2.00000
   1161     -29.9494      2.00000
   1162     -29.9494      2.00000
   1163     -29.9493      2.00000
   1164     -29.9493      2.00000
   1165     -29.9494      2.00000
   1166     -29.9490      2.00000
   1167     -29.9493      2.00000
   1168     -29.9488      2.00000
   1169     -29.9485      2.00000
   1170     -29.9479      2.00000
   1171     -29.9479      2.00000
   1172     -29.9452      2.00000
   1173     -29.9449      2.00000
   1174     -29.9434      2.00000
   1175     -29.9432      2.00000
   1176     -29.9431      2.00000
   1177     -29.9429      2.00000
   1178     -29.9428      2.00000
   1179     -29.9427      2.00000
   1180     -29.9426      2.00000
   1181     -29.9425      2.00000
   1182     -29.9424      2.00000
   1183     -29.9423      2.00000
   1184     -29.9421      2.00000
   1185     -29.9420      2.00000
   1186     -29.9409      2.00000
   1187     -29.9409      2.00000
   1188     -29.9408      2.00000
   1189     -29.9408      2.00000
   1190     -29.9392      2.00000
   1191     -29.9391      2.00000
   1192     -29.9391      2.00000
   1193     -29.9391      2.00000
   1194     -29.9389      2.00000
   1195     -29.9389      2.00000
   1196     -29.9389      2.00000
   1197     -29.9389      2.00000
   1198     -29.9384      2.00000
   1199     -29.9384      2.00000
   1200     -29.9383      2.00000
   1201     -29.9383      2.00000
   1202     -29.9382      2.00000
   1203     -29.9382      2.00000
   1204     -29.9381      2.00000
   1205     -29.9381      2.00000
   1206     -29.9375      2.00000
   1207     -29.9375      2.00000
   1208     -29.9375      2.00000
   1209     -29.9374      2.00000
   1210     -29.9368      2.00000
   1211     -29.9368      2.00000
   1212     -29.9368      2.00000
   1213     -29.9367      2.00000
   1214     -29.9358      2.00000
   1215     -29.9358      2.00000
   1216     -29.9356      2.00000
   1217     -29.9354      2.00000
   1218     -29.9353      2.00000
   1219     -29.9353      2.00000
   1220     -29.9329      2.00000
   1221     -29.9329      2.00000
   1222     -29.9328      2.00000
   1223     -29.9328      2.00000
   1224     -29.9323      2.00000
   1225     -29.9323      2.00000
   1226     -29.9318      2.00000
   1227     -29.9315      2.00000
   1228     -29.9314      2.00000
   1229     -29.9308      2.00000
   1230     -29.9305      2.00000
   1231     -29.9297      2.00000
   1232     -29.9294      2.00000
   1233     -29.9294      2.00000
   1234     -29.9294      2.00000
   1235     -29.9292      2.00000
   1236     -29.9291      2.00000
   1237     -29.9290      2.00000
   1238     -29.9289      2.00000
   1239     -29.9282      2.00000
   1240     -29.9280      2.00000
   1241     -29.9256      2.00000
   1242     -29.9255      2.00000
   1243     -29.9256      2.00000
   1244     -29.9253      2.00000
   1245     -29.9240      2.00000
   1246     -29.9237      2.00000
   1247     -29.9226      2.00000
   1248     -29.9224      2.00000
   1249     -29.9219      2.00000
   1250     -29.9217      2.00000
   1251     -29.9217      2.00000
   1252     -29.9217      2.00000
   1253     -29.9217      2.00000
   1254     -29.9216      2.00000
   1255     -29.9185      2.00000
   1256     -29.9185      2.00000
   1257     -29.9181      2.00000
   1258     -29.9181      2.00000
   1259     -29.9174      2.00000
   1260     -29.9173      2.00000
   1261     -29.9170      2.00000
   1262     -29.9169      2.00000
   1263     -29.9137      2.00000
   1264     -29.9137      2.00000
   1265     -29.9137      2.00000
   1266     -29.9135      2.00000
   1267     -29.9135      2.00000
   1268     -29.9135      2.00000
   1269     -29.9113      2.00000
   1270     -29.9112      2.00000
   1271     -29.9110      2.00000
   1272     -29.9109      2.00000
   1273     -29.9108      2.00000
   1274     -29.9107      2.00000
   1275     -29.9092      2.00000
   1276     -29.9022      2.00000
   1277     -29.9022      2.00000
   1278     -29.9022      2.00000
   1279     -29.9022      2.00000
   1280     -29.9020      2.00000
   1281     -29.9020      2.00000
   1282     -29.9019      2.00000
   1283     -29.9019      2.00000
   1284     -29.9005      2.00000
   1285     -29.9005      2.00000
   1286     -29.9003      2.00000
   1287     -29.9003      2.00000
   1288     -29.8988      2.00000
   1289     -29.8986      2.00000
   1290     -29.8985      2.00000
   1291     -29.8959      2.00000
   1292     -29.8959      2.00000
   1293     -29.8957      2.00000
   1294     -29.8956      2.00000
   1295     -29.8955      2.00000
   1296     -29.8955      2.00000
   1297     -29.8947      2.00000
   1298     -29.8947      2.00000
   1299     -29.8946      2.00000
   1300     -29.8944      2.00000
   1301     -29.8922      2.00000
   1302     -29.8922      2.00000
   1303     -29.8921      2.00000
   1304     -29.8922      2.00000
   1305     -29.8919      2.00000
   1306     -29.8918      2.00000
   1307     -29.8919      2.00000
   1308     -29.8917      2.00000
   1309     -29.8917      2.00000
   1310     -29.8914      2.00000
   1311     -29.8899      2.00000
   1312     -29.8898      2.00000
   1313     -29.8888      2.00000
   1314     -29.8885      2.00000
   1315     -29.8874      2.00000
   1316     -29.8873      2.00000
   1317     -29.8871      2.00000
   1318     -29.8870      2.00000
   1319     -29.8785      2.00000
   1320     -29.8785      2.00000
   1321     -29.8784      2.00000
   1322     -29.8784      2.00000
   1323     -29.8782      2.00000
   1324     -29.8782      2.00000
   1325     -29.8782      2.00000
   1326     -29.8781      2.00000
   1327     -29.8728      2.00000
   1328     -29.8726      2.00000
   1329     -29.8717      2.00000
   1330     -29.8715      2.00000
   1331     -29.8714      2.00000
   1332     -29.8704      2.00000
   1333     -29.8550      2.00000
   1334     -29.8550      2.00000
   1335     -29.8548      2.00000
   1336     -29.8547      2.00000
   1337     -29.8547      2.00000
   1338     -29.8546      2.00000
   1339     -29.8543      2.00000
   1340     -29.8541      2.00000
   1341     -29.8540      2.00000
   1342     -29.8540      2.00000
   1343     -29.8539      2.00000
   1344     -29.8538      2.00000
   1345     -29.8532      2.00000
   1346     -29.8532      2.00000
   1347     -29.8523      2.00000
   1348     -29.8523      2.00000
   1349     -29.8521      2.00000
   1350     -29.8520      2.00000
   1351     -29.8412      2.00000
   1352     -29.8408      2.00000
   1353     -29.8405      2.00000
   1354     -29.8402      2.00000
   1355     -29.8285      2.00000
   1356     -29.8285      2.00000
   1357     -29.8284      2.00000
   1358     -29.8283      2.00000
   1359     -29.8283      2.00000
   1360     -29.8283      2.00000
   1361     -29.8280      2.00000
   1362     -29.8279      2.00000
   1363     -29.8214      2.00000
   1364     -29.8213      2.00000
   1365     -29.8213      2.00000
   1366     -29.8213      2.00000
   1367     -29.8213      2.00000
   1368     -29.8212      2.00000
   1369     -29.8211      2.00000
   1370     -29.8211      2.00000
   1371     -29.8211      2.00000
   1372     -29.8211      2.00000
   1373     -29.8210      2.00000
   1374     -29.8210      2.00000
   1375     -29.8177      2.00000
   1376     -29.8175      2.00000
   1377     -29.8147      2.00000
   1378     -29.8147      2.00000
   1379     -29.8146      2.00000
   1380     -29.8146      2.00000
   1381     -29.8146      2.00000
   1382     -29.8146      2.00000
   1383     -29.8146      2.00000
   1384     -29.8145      2.00000
   1385     -29.8083      2.00000
   1386     -29.8083      2.00000
   1387     -29.8082      2.00000
   1388     -29.8082      2.00000
   1389     -29.8081      2.00000
   1390     -29.8080      2.00000
   1391     -29.8021      2.00000
   1392     -29.8021      2.00000
   1393     -29.8021      2.00000
   1394     -29.8020      2.00000
   1395     -29.8020      2.00000
   1396     -29.8020      2.00000
   1397     -29.8020      2.00000
   1398     -29.8020      2.00000
   1399     -29.7946      2.00000
   1400     -29.7945      2.00000
   1401     -29.7943      2.00000
   1402     -29.7943      2.00000
   1403     -29.7931      2.00000
   1404     -29.7931      2.00000
   1405     -29.7931      2.00000
   1406     -29.7931      2.00000
   1407     -29.7930      2.00000
   1408     -29.7931      2.00000
   1409     -29.7930      2.00000
   1410     -29.7929      2.00000
   1411     -29.7929      2.00000
   1412     -29.7929      2.00000
   1413     -29.7928      2.00000
   1414     -29.7927      2.00000
   1415     -29.7915      2.00000
   1416     -29.7915      2.00000
   1417     -29.7914      2.00000
   1418     -29.7914      2.00000
   1419     -29.7913      2.00000
   1420     -29.7912      2.00000
   1421     -29.7912      2.00000
   1422     -29.7912      2.00000
   1423     -29.7796      2.00000
   1424     -29.7793      2.00000
   1425     -29.7777      2.00000
   1426     -29.7777      2.00000
   1427     -29.7775      2.00000
   1428     -29.7775      2.00000
   1429     -29.7753      2.00000
   1430     -29.7753      2.00000
   1431     -29.7751      2.00000
   1432     -29.7750      2.00000
   1433     -29.7736      2.00000
   1434     -29.7735      2.00000
   1435     -29.7733      2.00000
   1436     -29.7733      2.00000
   1437     -29.7708      2.00000
   1438     -29.7708      2.00000
   1439     -29.7707      2.00000
   1440     -29.7706      2.00000
   1441     -22.2185      2.00000
   1442     -22.1515      2.00000
   1443     -22.1011      2.00000
   1444     -22.0819      2.00000
   1445     -22.0281      2.00000
   1446     -22.0252      2.00000
   1447     -22.0454      2.00000
   1448     -21.9755      2.00000
   1449     -21.9951      2.00000
   1450     -21.9756      2.00000
   1451     -21.9799      2.00000
   1452     -21.9374      2.00000
   1453     -21.9136      2.00000
   1454     -21.9044      2.00000
   1455     -21.8874      2.00000
   1456     -21.8934      2.00000
   1457     -21.8464      2.00000
   1458     -21.8465      2.00000
   1459     -21.8388      2.00000
   1460     -21.8381      2.00000
   1461     -21.8607      2.00000
   1462     -21.8262      2.00000
   1463     -21.7887      2.00000
   1464     -21.7929      2.00000
   1465     -21.7930      2.00000
   1466     -21.7915      2.00000
   1467     -21.7972      2.00000
   1468     -21.7894      2.00000
   1469     -21.7500      2.00000
   1470     -21.7388      2.00000
   1471     -21.6845      2.00000
   1472     -21.6842      2.00000
   1473     -21.6841      2.00000
   1474     -21.7334      2.00000
   1475     -21.6969      2.00000
   1476     -21.6888      2.00000
   1477     -21.6674      2.00000
   1478     -21.6518      2.00000
   1479     -21.6586      2.00000
   1480     -21.6652      2.00000
   1481     -21.6507      2.00000
   1482     -21.6529      2.00000
   1483     -21.6610      2.00000
   1484     -21.6527      2.00000
   1485     -21.6601      2.00000
   1486     -21.6507      2.00000
   1487     -21.6696      2.00000
   1488     -21.6679      2.00000
   1489     -21.6667      2.00000
   1490     -21.6603      2.00000
   1491     -21.6679      2.00000
   1492     -21.6357      2.00000
   1493     -21.6349      2.00000
   1494     -21.6305      2.00000
   1495     -21.6326      2.00000
   1496     -21.6399      2.00000
   1497     -21.6263      2.00000
   1498     -21.6316      2.00000
   1499     -21.6242      2.00000
   1500     -21.6344      2.00000
   1501     -21.5893      2.00000
   1502     -21.6084      2.00000
   1503     -21.5892      2.00000
   1504     -21.6019      2.00000
   1505     -21.6118      2.00000
   1506     -21.6228      2.00000
   1507     -21.6166      2.00000
   1508     -21.6073      2.00000
   1509     -21.5651      2.00000
   1510     -21.5632      2.00000
   1511     -21.5626      2.00000
   1512     -21.5766      2.00000
   1513     -21.5782      2.00000
   1514     -21.5666      2.00000
   1515     -21.5693      2.00000
   1516     -21.5586      2.00000
   1517     -21.5633      2.00000
   1518     -21.5648      2.00000
   1519     -21.5843      2.00000
   1520     -21.5409      2.00000
   1521     -21.5478      2.00000
   1522     -21.5393      2.00000
   1523     -21.5361      2.00000
   1524     -21.5396      2.00000
   1525     -21.5476      2.00000
   1526     -21.5436      2.00000
   1527     -21.5508      2.00000
   1528     -21.5579      2.00000
   1529     -21.5343      2.00000
   1530     -21.5126      2.00000
   1531     -21.5302      2.00000
   1532     -21.5196      2.00000
   1533     -21.5052      2.00000
   1534     -21.5041      2.00000
   1535     -21.5021      2.00000
   1536     -21.4950      2.00000
   1537     -21.5018      2.00000
   1538     -21.5001      2.00000
   1539     -21.5030      2.00000
   1540     -21.4963      2.00000
   1541     -21.5001      2.00000
   1542     -21.4945      2.00000
   1543     -21.5125      2.00000
   1544     -21.5080      2.00000
   1545     -21.5129      2.00000
   1546     -21.5082      2.00000
   1547     -21.5118      2.00000
   1548     -21.5094      2.00000
   1549     -21.4979      2.00000
   1550     -21.4935      2.00000
   1551     -21.4895      2.00000
   1552     -21.4811      2.00000
   1553     -21.4754      2.00000
   1554     -21.4753      2.00000
   1555     -21.4743      2.00000
   1556     -21.4820      2.00000
   1557     -21.4710      2.00000
   1558     -21.4723      2.00000
   1559     -21.4903      2.00000
   1560     -21.4905      2.00000
   1561     -21.4826      2.00000
   1562     -21.4819      2.00000
   1563     -21.4798      2.00000
   1564     -21.4729      2.00000
   1565     -21.4542      2.00000
   1566     -21.4589      2.00000
   1567     -21.4530      2.00000
   1568     -21.4698      2.00000
   1569     -21.4612      2.00000
   1570     -21.4574      2.00000
   1571     -21.4368      2.00000
   1572     -21.4510      2.00000
   1573     -21.4458      2.00000
   1574     -21.4574      2.00000
   1575     -21.4542      2.00000
   1576     -21.4515      2.00000
   1577     -21.4595      2.00000
   1578     -21.4526      2.00000
   1579     -21.4512      2.00000
   1580     -21.4239      2.00000
   1581     -21.4237      2.00000
   1582     -21.4357      2.00000
   1583     -21.4207      2.00000
   1584     -21.4232      2.00000
   1585     -21.4351      2.00000
   1586     -21.4185      2.00000
   1587     -21.4235      2.00000
   1588     -21.4233      2.00000
   1589     -21.4197      2.00000
   1590     -21.4092      2.00000
   1591     -21.4100      2.00000
   1592     -21.4248      2.00000
   1593     -21.4242      2.00000
   1594     -21.3930      2.00000
   1595     -21.4198      2.00000
   1596     -21.4074      2.00000
   1597     -21.3872      2.00000
   1598     -21.4162      2.00000
   1599     -21.4204      2.00000
   1600     -21.3875      2.00000
   1601     -21.3787      2.00000
   1602     -21.3848      2.00000
   1603     -21.3753      2.00000
   1604     -21.3778      2.00000
   1605     -21.3759      2.00000
   1606     -21.3777      2.00000
   1607     -21.4022      2.00000
   1608     -21.4050      2.00000
   1609     -21.3774      2.00000
   1610     -21.3707      2.00000
   1611     -21.3662      2.00000
   1612     -21.3652      2.00000
   1613     -21.3667      2.00000
   1614     -21.3658      2.00000
   1615     -21.3459      2.00000
   1616     -21.3629      2.00000
   1617     -21.3660      2.00000
   1618     -21.3587      2.00000
   1619     -21.3496      2.00000
   1620     -21.3481      2.00000
   1621     -21.3451      2.00000
   1622     -21.3376      2.00000
   1623     -21.3416      2.00000
   1624     -21.3447      2.00000
   1625     -21.3322      2.00000
   1626     -21.3233      2.00000
   1627     -21.3152      2.00000
   1628     -21.3072      2.00000
   1629     -21.3051      2.00000
   1630     -21.3026      2.00000
   1631     -21.2993      2.00000
   1632     -21.3103      2.00000
   1633     -21.2962      2.00000
   1634     -21.3136      2.00000
   1635     -21.3171      2.00000
   1636     -21.2864      2.00000
   1637     -21.2866      2.00000
   1638     -21.2853      2.00000
   1639     -21.2838      2.00000
   1640     -21.2998      2.00000
   1641     -21.2974      2.00000
   1642     -21.3013      2.00000
   1643     -21.2986      2.00000
   1644     -21.2803      2.00000
   1645     -21.2740      2.00000
   1646     -21.2732      2.00000
   1647     -21.2720      2.00000
   1648     -21.2736      2.00000
   1649     -21.2830      2.00000
   1650     -21.2736      2.00000
   1651     -21.2893      2.00000
   1652     -21.2842      2.00000
   1653     -21.2877      2.00000
   1654     -21.2896      2.00000
   1655     -21.2651      2.00000
   1656     -21.2741      2.00000
   1657     -21.2579      2.00000
   1658     -21.2505      2.00000
   1659     -21.2536      2.00000
   1660     -21.2569      2.00000
   1661     -21.2588      2.00000
   1662     -21.2601      2.00000
   1663     -21.2464      2.00000
   1664     -21.2515      2.00000
   1665     -21.2476      2.00000
   1666     -21.2475      2.00000
   1667     -21.2537      2.00000
   1668     -21.2488      2.00000
   1669     -21.2484      2.00000
   1670     -21.2495      2.00000
   1671     -21.2392      2.00000
   1672     -21.2393      2.00000
   1673     -21.2482      2.00000
   1674     -21.2303      2.00000
   1675     -21.2238      2.00000
   1676     -21.2584      2.00000
   1677     -21.2245      2.00000
   1678     -21.2232      2.00000
   1679     -21.2163      2.00000
   1680     -21.2149      2.00000
   1681     -21.1983      2.00000
   1682     -21.1910      2.00000
   1683     -21.1879      2.00000
   1684     -21.1843      2.00000
   1685     -21.1813      2.00000
   1686     -21.1815      2.00000
   1687     -21.1869      2.00000
   1688     -21.1874      2.00000
   1689     -21.1882      2.00000
   1690     -21.1750      2.00000
   1691     -21.1817      2.00000
   1692     -21.1745      2.00000
   1693     -21.1925      2.00000
   1694     -21.1848      2.00000
   1695     -21.1802      2.00000
   1696     -21.1778      2.00000
   1697     -21.1771      2.00000
   1698     -21.1741      2.00000
   1699     -21.1727      2.00000
   1700     -21.1732      2.00000
   1701     -21.1721      2.00000
   1702     -21.1701      2.00000
   1703     -21.1641      2.00000
   1704     -21.1669      2.00000
   1705     -21.1642      2.00000
   1706     -21.1631      2.00000
   1707     -21.1610      2.00000
   1708     -21.1741      2.00000
   1709     -21.1756      2.00000
   1710     -21.1417      2.00000
   1711     -21.1403      2.00000
   1712     -21.1406      2.00000
   1713     -21.1395      2.00000
   1714     -21.1378      2.00000
   1715     -21.1426      2.00000
   1716     -21.1409      2.00000
   1717     -21.1408      2.00000
   1718     -21.1369      2.00000
   1719     -21.1386      2.00000
   1720     -21.1376      2.00000
   1721     -21.1364      2.00000
   1722     -21.1416      2.00000
   1723     -21.1338      2.00000
   1724     -21.1395      2.00000
   1725     -21.1341      2.00000
   1726     -21.1373      2.00000
   1727     -21.1395      2.00000
   1728     -21.1290      2.00000
   1729     -21.1326      2.00000
   1730     -21.1336      2.00000
   1731     -21.1313      2.00000
   1732     -21.1312      2.00000
   1733     -21.1286      2.00000
   1734     -21.1281      2.00000
   1735     -21.1300      2.00000
   1736     -21.1279      2.00000
   1737     -21.1255      2.00000
   1738     -21.1234      2.00000
   1739     -21.1202      2.00000
   1740     -21.1198      2.00000
   1741     -21.1104      2.00000
   1742     -21.1307      2.00000
   1743     -21.1261      2.00000
   1744     -21.1368      2.00000
   1745     -21.1132      2.00000
   1746     -21.1262      2.00000
   1747     -21.1208      2.00000
   1748     -21.1166      2.00000
   1749     -21.1170      2.00000
   1750     -21.1128      2.00000
   1751     -21.1024      2.00000
   1752     -21.0908      2.00000
   1753     -21.0971      2.00000
   1754     -21.0780      2.00000
   1755     -21.0778      2.00000
   1756     -21.0936      2.00000
   1757     -21.0755      2.00000
   1758     -21.0790      2.00000
   1759     -21.0745      2.00000
   1760     -21.0787      2.00000
   1761     -21.0947      2.00000
   1762     -21.0956      2.00000
   1763     -21.0607      2.00000
   1764     -21.0628      2.00000
   1765     -21.0601      2.00000
   1766     -21.0605      2.00000
   1767     -21.0663      2.00000
   1768     -21.0647      2.00000
   1769     -21.0551      2.00000
   1770     -21.0547      2.00000
   1771     -21.0539      2.00000
   1772     -21.0540      2.00000
   1773     -21.0494      2.00000
   1774     -21.0533      2.00000
   1775     -21.0504      2.00000
   1776     -21.0492      2.00000
   1777     -21.0424      2.00000
   1778     -21.0443      2.00000
   1779     -21.0437      2.00000
   1780     -21.0437      2.00000
   1781     -21.0392      2.00000
   1782     -21.0398      2.00000
   1783     -21.0386      2.00000
   1784     -21.0350      2.00000
   1785     -21.0322      2.00000
   1786     -21.0335      2.00000
   1787     -21.0319      2.00000
   1788     -21.0284      2.00000
   1789     -21.0329      2.00000
   1790     -21.0325      2.00000
   1791     -21.0326      2.00000
   1792     -21.0231      2.00000
   1793     -21.0236      2.00000
   1794     -21.0239      2.00000
   1795     -21.0231      2.00000
   1796     -21.0224      2.00000
   1797     -21.0242      2.00000
   1798     -21.0247      2.00000
   1799     -21.0245      2.00000
   1800     -21.0237      2.00000
   1801     -21.0244      2.00000
   1802     -21.0199      2.00000
   1803     -21.0281      2.00000
   1804     -21.0123      2.00000
   1805     -21.0161      2.00000
   1806     -21.0159      2.00000
   1807     -21.0108      2.00000
   1808     -21.0144      2.00000
   1809     -21.0150      2.00000
   1810     -21.0050      2.00000
   1811     -21.0116      2.00000
   1812     -21.0110      2.00000
   1813     -21.0068      2.00000
   1814     -21.0053      2.00000
   1815     -21.0065      2.00000
   1816     -20.9998      2.00000
   1817     -21.0026      2.00000
   1818     -21.0042      2.00000
   1819     -21.0056      2.00000
   1820     -20.9960      2.00000
   1821     -20.9983      2.00000
   1822     -21.0010      2.00000
   1823     -21.0001      2.00000
   1824     -20.9965      2.00000
   1825     -20.9998      2.00000
   1826     -20.9994      2.00000
   1827     -20.9982      2.00000
   1828     -20.9972      2.00000
   1829     -20.9990      2.00000
   1830     -20.9935      2.00000
   1831     -20.9878      2.00000
   1832     -20.9874      2.00000
   1833     -20.9856      2.00000
   1834     -20.9822      2.00000
   1835     -20.9755      2.00000
   1836     -20.9740      2.00000
   1837     -20.9680      2.00000
   1838     -20.9657      2.00000
   1839     -20.9641      2.00000
   1840     -20.9666      2.00000
   1841     -20.9637      2.00000
   1842     -20.9636      2.00000
   1843     -20.9614      2.00000
   1844     -20.9576      2.00000
   1845     -20.9578      2.00000
   1846     -20.9554      2.00000
   1847     -20.9464      2.00000
   1848     -20.9446      2.00000
   1849     -20.9492      2.00000
   1850     -20.9444      2.00000
   1851     -20.9461      2.00000
   1852     -20.9473      2.00000
   1853     -20.9474      2.00000
   1854     -20.9483      2.00000
   1855     -20.9458      2.00000
   1856     -20.9438      2.00000
   1857     -20.9406      2.00000
   1858     -20.9333      2.00000
   1859     -20.9399      2.00000
   1860     -20.9336      2.00000
   1861     -20.9319      2.00000
   1862     -20.9379      2.00000
   1863     -20.9266      2.00000
   1864     -20.9268      2.00000
   1865     -20.9280      2.00000
   1866     -20.9259      2.00000
   1867     -20.9273      2.00000
   1868     -20.9258      2.00000
   1869     -20.9252      2.00000
   1870     -20.9329      2.00000
   1871     -20.9320      2.00000
   1872     -20.9265      2.00000
   1873     -20.9140      2.00000
   1874     -20.9137      2.00000
   1875     -20.9128      2.00000
   1876     -20.9142      2.00000
   1877     -20.9143      2.00000
   1878     -20.9068      2.00000
   1879     -20.9049      2.00000
   1880     -20.9067      2.00000
   1881     -20.9066      2.00000
   1882     -20.9055      2.00000
   1883     -20.9020      2.00000
   1884     -20.9095      2.00000
   1885     -20.9040      2.00000
   1886     -20.9043      2.00000
   1887     -20.9024      2.00000
   1888     -20.9117      2.00000
   1889     -20.9104      2.00000
   1890     -20.9027      2.00000
   1891     -20.8976      2.00000
   1892     -20.8975      2.00000
   1893     -20.8980      2.00000
   1894     -20.8974      2.00000
   1895     -20.8973      2.00000
   1896     -20.8888      2.00000
   1897     -20.8902      2.00000
   1898     -20.8942      2.00000
   1899     -20.8930      2.00000
   1900     -20.8897      2.00000
   1901     -20.8907      2.00000
   1902     -20.8900      2.00000
   1903     -20.8899      2.00000
   1904     -20.8930      2.00000
   1905     -20.8868      2.00000
   1906     -20.8859      2.00000
   1907     -20.8799      2.00000
   1908     -20.8792      2.00000
   1909     -20.8758      2.00000
   1910     -20.8793      2.00000
   1911     -20.8787      2.00000
   1912     -20.8764      2.00000
   1913     -20.8751      2.00000
   1914     -20.8745      2.00000
   1915     -20.8743      2.00000
   1916     -20.8733      2.00000
   1917     -20.8722      2.00000
   1918     -20.8708      2.00000
   1919     -20.8716      2.00000
   1920     -20.8743      2.00000
   1921     -20.8738      2.00000
   1922     -20.8701      2.00000
   1923     -20.8714      2.00000
   1924     -20.8709      2.00000
   1925     -20.8710      2.00000
   1926     -20.8691      2.00000
   1927     -20.8683      2.00000
   1928     -20.8650      2.00000
   1929     -20.8638      2.00000
   1930     -20.8618      2.00000
   1931     -20.8661      2.00000
   1932     -20.8628      2.00000
   1933     -20.8610      2.00000
   1934     -20.8629      2.00000
   1935     -20.8491      2.00000
   1936     -20.8480      2.00000
   1937     -20.8445      2.00000
   1938     -20.8427      2.00000
   1939     -20.8305      2.00000
   1940     -20.8313      2.00000
   1941     -20.8284      2.00000
   1942     -20.8266      2.00000
   1943     -20.8248      2.00000
   1944     -20.8281      2.00000
   1945     -20.8244      2.00000
   1946     -20.8003      2.00000
   1947     -20.8001      2.00000
   1948     -20.7973      2.00000
   1949     -20.7997      2.00000
   1950     -20.7979      2.00000
   1951     -20.7948      2.00000
   1952     -20.7918      2.00000
   1953     -20.7907      2.00000
   1954     -20.7917      2.00000
   1955     -20.7915      2.00000
   1956     -20.7907      2.00000
   1957     -20.7912      2.00000
   1958     -20.7869      2.00000
   1959     -20.7868      2.00000
   1960     -20.7865      2.00000
   1961     -20.7866      2.00000
   1962     -20.7864      2.00000
   1963     -20.7855      2.00000
   1964     -20.7807      2.00000
   1965     -20.7807      2.00000
   1966     -20.7811      2.00000
   1967     -20.7811      2.00000
   1968     -20.7696      2.00000
   1969     -20.7650      2.00000
   1970     -20.7650      2.00000
   1971     -20.7641      2.00000
   1972     -20.7621      2.00000
   1973     -20.7650      2.00000
   1974     -20.7596      2.00000
   1975     -20.7588      2.00000
   1976     -20.7603      2.00000
   1977     -20.7538      2.00000
   1978     -20.7498      2.00000
   1979     -20.7492      2.00000
   1980     -20.7465      2.00000
   1981     -20.7455      2.00000
   1982     -20.7438      2.00000
   1983     -20.7438      2.00000
   1984     -20.7449      2.00000
   1985     -20.7442      2.00000
   1986     -20.7427      2.00000
   1987     -20.7424      2.00000
   1988     -20.7325      2.00000
   1989     -20.7321      2.00000
   1990     -20.7324      2.00000
   1991     -20.7322      2.00000
   1992     -20.7311      2.00000
   1993     -20.7302      2.00000
   1994     -20.7304      2.00000
   1995     -20.7301      2.00000
   1996     -20.7293      2.00000
   1997     -20.7294      2.00000
   1998     -20.7241      2.00000
   1999     -20.7261      2.00000
   2000     -20.7250      2.00000
   2001     -20.7226      2.00000
   2002     -20.7053      2.00000
   2003     -20.7054      2.00000
   2004     -20.6967      2.00000
   2005     -20.6962      2.00000
   2006     -20.6955      2.00000
   2007     -20.6951      2.00000
   2008     -20.6949      2.00000
   2009     -20.6958      2.00000
   2010     -20.6958      2.00000
   2011     -20.6931      2.00000
   2012     -20.6918      2.00000
   2013     -20.6930      2.00000
   2014     -20.6930      2.00000
   2015     -20.6885      2.00000
   2016     -20.6869      2.00000
   2017     -20.6836      2.00000
   2018     -20.6835      2.00000
   2019     -20.6764      2.00000
   2020     -20.6763      2.00000
   2021     -20.6755      2.00000
   2022     -20.6749      2.00000
   2023     -20.6746      2.00000
   2024     -20.6738      2.00000
   2025     -20.6756      2.00000
   2026     -20.6753      2.00000
   2027     -20.6788      2.00000
   2028     -20.6778      2.00000
   2029     -20.6598      2.00000
   2030     -20.6594      2.00000
   2031     -20.6599      2.00000
   2032     -20.6583      2.00000
   2033     -20.6578      2.00000
   2034     -20.6592      2.00000
   2035     -20.6563      2.00000
   2036     -20.6554      2.00000
   2037     -20.6564      2.00000
   2038     -20.6526      2.00000
   2039     -20.6541      2.00000
   2040     -20.6484      2.00000
   2041     -20.6479      2.00000
   2042     -20.6462      2.00000
   2043     -20.6464      2.00000
   2044     -20.6454      2.00000
   2045     -20.6341      2.00000
   2046     -20.6311      2.00000
   2047     -20.6310      2.00000
   2048     -20.6311      2.00000
   2049     -20.6309      2.00000
   2050     -20.6350      2.00000
   2051     -20.6201      2.00000
   2052     -20.6204      2.00000
   2053     -20.6179      2.00000
   2054     -20.6163      2.00000
   2055     -20.5953      2.00000
   2056     -20.5952      2.00000
   2057     -20.5945      2.00000
   2058     -20.5944      2.00000
   2059     -20.5829      2.00000
   2060     -20.5823      2.00000
   2061     -20.5823      2.00000
   2062     -20.5819      2.00000
   2063     -20.5824      2.00000
   2064     -20.5825      2.00000
   2065     -20.5818      2.00000
   2066     -20.5818      2.00000
   2067     -20.5808      2.00000
   2068     -20.5617      2.00000
   2069     -20.5613      2.00000
   2070     -20.5531      2.00000
   2071     -20.5526      2.00000
   2072     -20.5525      2.00000
   2073     -20.5527      2.00000
   2074     -20.5527      2.00000
   2075     -20.5527      2.00000
   2076     -20.5264      2.00000
   2077     -20.5259      2.00000
   2078     -20.5260      2.00000
   2079     -20.5259      2.00000
   2080     -20.5179      2.00000
   2081     -20.5178      2.00000
   2082     -20.5178      2.00000
   2083     -20.5177      2.00000
   2084     -20.5111      2.00000
   2085     -20.5110      2.00000
   2086     -20.5106      2.00000
   2087     -20.4766      2.00000
   2088     -20.4763      2.00000
   2089     -20.3097      2.00000
   2090     -20.3096      2.00000
   2091     -20.3092      2.00000
   2092     -20.3091      2.00000
   2093     -20.3090      2.00000
   2094     -20.3081      2.00000
   2095     -20.3079      2.00000
   2096     -20.3049      2.00000
   2097     -20.3047      2.00000
   2098     -20.3039      2.00000
   2099     -20.3007      2.00000
   2100     -20.2993      2.00000
   2101     -20.2917      2.00000
   2102     -20.2908      2.00000
   2103     -20.2906      2.00000
   2104     -20.2902      2.00000
   2105     -20.2891      2.00000
   2106     -20.2889      2.00000
   2107     -20.2884      2.00000
   2108     -20.2857      2.00000
   2109     -20.2835      2.00000
   2110     -20.2835      2.00000
   2111     -20.2809      2.00000
   2112     -20.2810      2.00000
   2113     -20.2618      2.00000
   2114     -20.2565      2.00000
   2115     -20.2565      2.00000
   2116     -20.2504      2.00000
   2117     -20.2468      2.00000
   2118     -20.2461      2.00000
   2119     -20.2403      2.00000
   2120     -20.2413      2.00000
   2121     -20.2359      2.00000
   2122     -20.2354      2.00000
   2123     -20.2355      2.00000
   2124     -20.2364      2.00000
   2125     -20.2263      2.00000
   2126     -20.2256      2.00000
   2127     -20.2290      2.00000
   2128     -20.2096      2.00000
   2129     -20.2085      2.00000
   2130     -20.2080      2.00000
   2131     -20.2080      2.00000
   2132     -20.2070      2.00000
   2133     -20.2053      2.00000
   2134     -20.2136      2.00000
   2135     -20.2101      2.00000
   2136     -20.2059      2.00000
   2137     -20.1967      2.00000
   2138     -20.1960      2.00000
   2139     -20.1971      2.00000
   2140     -20.1954      2.00000
   2141     -20.1973      2.00000
   2142     -20.1934      2.00000
   2143     -20.0881      2.00000
   2144     -20.0876      2.00000
   2145     -20.0868      2.00000
   2146     -20.0849      2.00000
   2147     -20.0849      2.00000
   2148     -20.0838      2.00000
   2149     -20.0858      2.00000
   2150     -20.0860      2.00000
   2151     -20.0849      2.00000
   2152     -20.0833      2.00000
   2153     -20.0829      2.00000
   2154     -20.0812      2.00000
   2155     -20.0388      2.00000
   2156     -20.0390      2.00000
   2157     -20.0388      2.00000
   2158     -20.0353      2.00000
   2159     -20.0352      2.00000
   2160     -20.0346      2.00000
   2161      -8.8549      2.00000
   2162      -8.7787      2.00000
   2163      -8.7369      2.00000
   2164      -8.6723      2.00000
   2165      -8.6705      2.00000
   2166      -8.6265      2.00000
   2167      -8.6456      2.00000
   2168      -8.6273      2.00000
   2169      -8.5725      2.00000
   2170      -8.5639      2.00000
   2171      -8.5773      2.00000
   2172      -8.5554      2.00000
   2173      -8.5620      2.00000
   2174      -8.5564      2.00000
   2175      -8.4767      2.00000
   2176      -8.4893      2.00000
   2177      -8.4828      2.00000
   2178      -8.4795      2.00000
   2179      -8.4725      2.00000
   2180      -8.4710      2.00000
   2181      -8.5105      2.00000
   2182      -8.3988      2.00000
   2183      -8.4145      2.00000
   2184      -8.4061      2.00000
   2185      -8.4050      2.00000
   2186      -8.4052      2.00000
   2187      -8.4014      2.00000
   2188      -8.4067      2.00000
   2189      -8.4201      2.00000
   2190      -8.4001      2.00000
   2191      -8.4162      2.00000
   2192      -8.4129      2.00000
   2193      -8.4066      2.00000
   2194      -8.3861      2.00000
   2195      -8.3837      2.00000
   2196      -8.3619      2.00000
   2197      -8.3961      2.00000
   2198      -8.3912      2.00000
   2199      -8.3603      2.00000
   2200      -8.3635      2.00000
   2201      -8.2969      2.00000
   2202      -8.3399      2.00000
   2203      -8.3324      2.00000
   2204      -8.3351      2.00000
   2205      -8.3156      2.00000
   2206      -8.3352      2.00000
   2207      -8.3233      2.00000
   2208      -8.3254      2.00000
   2209      -8.3256      2.00000
   2210      -8.3170      2.00000
   2211      -8.3106      2.00000
   2212      -8.3181      2.00000
   2213      -8.3198      2.00000
   2214      -8.3247      2.00000
   2215      -8.3153      2.00000
   2216      -8.3073      2.00000
   2217      -8.3076      2.00000
   2218      -8.3104      2.00000
   2219      -8.3076      2.00000
   2220      -8.3078      2.00000
   2221      -8.2440      2.00000
   2222      -8.2743      2.00000
   2223      -8.2753      2.00000
   2224      -8.2371      2.00000
   2225      -8.2702      2.00000
   2226      -8.2681      2.00000
   2227      -8.2893      2.00000
   2228      -8.2860      2.00000
   2229      -8.2685      2.00000
   2230      -8.2640      2.00000
   2231      -8.2694      2.00000
   2232      -8.2559      2.00000
   2233      -8.2371      2.00000
   2234      -8.2586      2.00000
   2235      -8.2363      2.00000
   2236      -8.2352      2.00000
   2237      -8.2441      2.00000
   2238      -8.2452      2.00000
   2239      -8.2345      2.00000
   2240      -8.2344      2.00000
   2241      -8.2508      2.00000
   2242      -8.2418      2.00000
   2243      -8.2397      2.00000
   2244      -8.2126      2.00000
   2245      -8.2132      2.00000
   2246      -8.1719      2.00000
   2247      -8.1654      2.00000
   2248      -8.1629      2.00000
   2249      -8.1555      2.00000
   2250      -8.1960      2.00000
   2251      -8.2041      2.00000
   2252      -8.2031      2.00000
   2253      -8.2103      2.00000
   2254      -8.1618      2.00000
   2255      -8.1828      2.00000
   2256      -8.1750      2.00000
   2257      -8.1773      2.00000
   2258      -8.1615      2.00000
   2259      -8.1779      2.00000
   2260      -8.1831      2.00000
   2261      -8.1667      2.00000
   2262      -8.1776      2.00000
   2263      -8.1732      2.00000
   2264      -8.1727      2.00000
   2265      -8.1713      2.00000
   2266      -8.1609      2.00000
   2267      -8.1651      2.00000
   2268      -8.1592      2.00000
   2269      -8.1610      2.00000
   2270      -8.1417      2.00000
   2271      -8.1617      2.00000
   2272      -8.1675      2.00000
   2273      -8.1512      2.00000
   2274      -8.1626      2.00000
   2275      -8.1680      2.00000
   2276      -8.1404      2.00000
   2277      -8.1201      2.00000
   2278      -8.1070      2.00000
   2279      -8.1244      2.00000
   2280      -8.1341      2.00000
   2281      -8.1368      2.00000
   2282      -8.1371      2.00000
   2283      -8.1135      2.00000
   2284      -8.1266      2.00000
   2285      -8.1185      2.00000
   2286      -8.1271      2.00000
   2287      -8.1287      2.00000
   2288      -8.1117      2.00000
   2289      -8.1094      2.00000
   2290      -8.1227      2.00000
   2291      -8.1170      2.00000
   2292      -8.1102      2.00000
   2293      -8.1180      2.00000
   2294      -8.1271      2.00000
   2295      -8.1188      2.00000
   2296      -8.1127      2.00000
   2297      -8.1187      2.00000
   2298      -8.0886      2.00000
   2299      -8.1078      2.00000
   2300      -8.1223      2.00000
   2301      -8.1063      2.00000
   2302      -8.0832      2.00000
   2303      -8.0946      2.00000
   2304      -8.1070      2.00000
   2305      -8.0809      2.00000
   2306      -8.0809      2.00000
   2307      -8.0722      2.00000
   2308      -8.0760      2.00000
   2309      -8.0656      2.00000
   2310      -8.0711      2.00000
   2311      -8.0834      2.00000
   2312      -8.0599      2.00000
   2313      -8.0930      2.00000
   2314      -8.0860      2.00000
   2315      -8.0789      2.00000
   2316      -8.0666      2.00000
   2317      -8.0671      2.00000
   2318      -8.0669      2.00000
   2319      -8.0695      2.00000
   2320      -8.0647      2.00000
   2321      -8.0584      2.00000
   2322      -8.0568      2.00000
   2323      -8.0597      2.00000
   2324      -8.0713      2.00000
   2325      -8.0735      2.00000
   2326      -8.0733      2.00000
   2327      -8.0685      2.00000
   2328      -8.0754      2.00000
   2329      -8.0539      2.00000
   2330      -8.0521      2.00000
   2331      -8.0819      2.00000
   2332      -8.0725      2.00000
   2333      -8.0656      2.00000
   2334      -8.0601      2.00000
   2335      -8.0595      2.00000
   2336      -8.0533      2.00000
   2337      -8.0481      2.00000
   2338      -8.0594      2.00000
   2339      -8.0286      2.00000
   2340      -8.0500      2.00000
   2341      -8.0438      2.00000
   2342      -8.0613      2.00000
   2343      -8.0650      2.00000
   2344      -8.0563      2.00000
   2345      -8.0642      2.00000
   2346      -8.0493      2.00000
   2347      -8.0416      2.00000
   2348      -8.0337      2.00000
   2349      -8.0198      2.00000
   2350      -8.0234      2.00000
   2351      -8.0186      2.00000
   2352      -8.0212      2.00000
   2353      -8.0206      2.00000
   2354      -8.0156      2.00000
   2355      -8.0114      2.00000
   2356      -8.0231      2.00000
   2357      -7.9921      2.00000
   2358      -8.0282      2.00000
   2359      -8.0232      2.00000
   2360      -8.0156      2.00000
   2361      -8.0016      2.00000
   2362      -8.0193      2.00000
   2363      -8.0049      2.00000
   2364      -8.0014      2.00000
   2365      -8.0060      2.00000
   2366      -8.0142      2.00000
   2367      -7.9873      2.00000
   2368      -7.9860      2.00000
   2369      -7.9863      2.00000
   2370      -8.0085      2.00000
   2371      -7.9684      2.00000
   2372      -7.9922      2.00000
   2373      -7.9925      2.00000
   2374      -7.9673      2.00000
   2375      -7.9756      2.00000
   2376      -7.9779      2.00000
   2377      -7.9863      2.00000
   2378      -7.9647      2.00000
   2379      -7.9821      2.00000
   2380      -7.9734      2.00000
   2381      -7.9716      2.00000
   2382      -7.9573      2.00000
   2383      -7.9598      2.00000
   2384      -7.9640      2.00000
   2385      -7.9570      2.00000
   2386      -7.9533      2.00000
   2387      -7.9471      2.00000
   2388      -7.9708      2.00000
   2389      -7.9575      2.00000
   2390      -7.9721      2.00000
   2391      -7.9646      2.00000
   2392      -7.9433      2.00000
   2393      -7.9581      2.00000
   2394      -7.9480      2.00000
   2395      -7.9463      2.00000
   2396      -7.9511      2.00000
   2397      -7.9353      2.00000
   2398      -7.9410      2.00000
   2399      -7.9174      2.00000
   2400      -7.9197      2.00000
   2401      -7.9352      2.00000
   2402      -7.9445      2.00000
   2403      -7.9462      2.00000
   2404      -7.9318      2.00000
   2405      -7.9371      2.00000
   2406      -7.9082      2.00000
   2407      -7.9205      2.00000
   2408      -7.9321      2.00000
   2409      -7.9300      2.00000
   2410      -7.9132      2.00000
   2411      -7.9045      2.00000
   2412      -7.9252      2.00000
   2413      -7.9278      2.00000
   2414      -7.9160      2.00000
   2415      -7.9212      2.00000
   2416      -7.9245      2.00000
   2417      -7.9179      2.00000
   2418      -7.9136      2.00000
   2419      -7.9165      2.00000
   2420      -7.9110      2.00000
   2421      -7.9079      2.00000
   2422      -7.9130      2.00000
   2423      -7.9042      2.00000
   2424      -7.8991      2.00000
   2425      -7.8999      2.00000
   2426      -7.8972      2.00000
   2427      -7.8934      2.00000
   2428      -7.8726      2.00000
   2429      -7.8825      2.00000
   2430      -7.8808      2.00000
   2431      -7.8741      2.00000
   2432      -7.8674      2.00000
   2433      -7.8648      2.00000
   2434      -7.8645      2.00000
   2435      -7.8877      2.00000
   2436      -7.8908      2.00000
   2437      -7.8860      2.00000
   2438      -7.8876      2.00000
   2439      -7.8724      2.00000
   2440      -7.8712      2.00000
   2441      -7.8686      2.00000
   2442      -7.8664      2.00000
   2443      -7.8706      2.00000
   2444      -7.8694      2.00000
   2445      -7.8673      2.00000
   2446      -7.8755      2.00000
   2447      -7.8672      2.00000
   2448      -7.8696      2.00000
   2449      -7.8590      2.00000
   2450      -7.8570      2.00000
   2451      -7.8551      2.00000
   2452      -7.8402      2.00000
   2453      -7.8462      2.00000
   2454      -7.8538      2.00000
   2455      -7.8469      2.00000
   2456      -7.8431      2.00000
   2457      -7.8373      2.00000
   2458      -7.8427      2.00000
   2459      -7.8542      2.00000
   2460      -7.8631      2.00000
   2461      -7.8436      2.00000
   2462      -7.8484      2.00000
   2463      -7.8324      2.00000
   2464      -7.8324      2.00000
   2465      -7.8484      2.00000
   2466      -7.8467      2.00000
   2467      -7.8262      2.00000
   2468      -7.8293      2.00000
   2469      -7.8206      2.00000
   2470      -7.8124      2.00000
   2471      -7.8162      2.00000
   2472      -7.8312      2.00000
   2473      -7.8287      2.00000
   2474      -7.8262      2.00000
   2475      -7.8349      2.00000
   2476      -7.8456      2.00000
   2477      -7.8186      2.00000
   2478      -7.8269      2.00000
   2479      -7.8108      2.00000
   2480      -7.8097      2.00000
   2481      -7.8147      2.00000
   2482      -7.8173      2.00000
   2483      -7.8082      2.00000
   2484      -7.8122      2.00000
   2485      -7.8147      2.00000
   2486      -7.8114      2.00000
   2487      -7.8100      2.00000
   2488      -7.8082      2.00000
   2489      -7.7968      2.00000
   2490      -7.8003      2.00000
   2491      -7.7979      2.00000
   2492      -7.7898      2.00000
   2493      -7.7950      2.00000
   2494      -7.7846      2.00000
   2495      -7.8015      2.00000
   2496      -7.7848      2.00000
   2497      -7.7711      2.00000
   2498      -7.7705      2.00000
   2499      -7.7907      2.00000
   2500      -7.8015      2.00000
   2501      -7.7968      2.00000
   2502      -7.7878      2.00000
   2503      -7.7475      2.00000
   2504      -7.7607      2.00000
   2505      -7.7681      2.00000
   2506      -7.7668      2.00000
   2507      -7.7617      2.00000
   2508      -7.7599      2.00000
   2509      -7.7628      2.00000
   2510      -7.7656      2.00000
   2511      -7.7633      2.00000
   2512      -7.7674      2.00000
   2513      -7.7484      2.00000
   2514      -7.7583      2.00000
   2515      -7.7714      2.00000
   2516      -7.7576      2.00000
   2517      -7.7643      2.00000
   2518      -7.7645      2.00000
   2519      -7.7220      2.00000
   2520      -7.7317      2.00000
   2521      -7.7416      2.00000
   2522      -7.7459      2.00000
   2523      -7.7390      2.00000
   2524      -7.7418      2.00000
   2525      -7.7415      2.00000
   2526      -7.7400      2.00000
   2527      -7.7420      2.00000
   2528      -7.7318      2.00000
   2529      -7.7328      2.00000
   2530      -7.7271      2.00000
   2531      -7.7363      2.00000
   2532      -7.7412      2.00000
   2533      -7.7321      2.00000
   2534      -7.7213      2.00000
   2535      -7.7256      2.00000
   2536      -7.7484      2.00000
   2537      -7.7204      2.00000
   2538      -7.7035      2.00000
   2539      -7.7023      2.00000
   2540      -7.7063      2.00000
   2541      -7.7000      2.00000
   2542      -7.6977      2.00000
   2543      -7.7147      2.00000
   2544      -7.7173      2.00000
   2545      -7.7106      2.00000
   2546      -7.7367      2.00000
   2547      -7.7321      2.00000
   2548      -7.7213      2.00000
   2549      -7.7075      2.00000
   2550      -7.7027      2.00000
   2551      -7.6962      2.00000
   2552      -7.6983      2.00000
   2553      -7.6862      2.00000
   2554      -7.6982      2.00000
   2555      -7.6902      2.00000
   2556      -7.7089      2.00000
   2557      -7.6926      2.00000
   2558      -7.7048      2.00000
   2559      -7.6921      2.00000
   2560      -7.7013      2.00000
   2561      -7.7016      2.00000
   2562      -7.6923      2.00000
   2563      -7.6976      2.00000
   2564      -7.6969      2.00000
   2565      -7.6937      2.00000
   2566      -7.6874      2.00000
   2567      -7.6848      2.00000
   2568      -7.6796      2.00000
   2569      -7.6802      2.00000
   2570      -7.6798      2.00000
   2571      -7.6761      2.00000
   2572      -7.6732      2.00000
   2573      -7.6731      2.00000
   2574      -7.6716      2.00000
   2575      -7.6727      2.00000
   2576      -7.6476      2.00000
   2577      -7.6715      2.00000
   2578      -7.6716      2.00000
   2579      -7.6664      2.00000
   2580      -7.6686      2.00000
   2581      -7.6680      2.00000
   2582      -7.6670      2.00000
   2583      -7.6890      2.00000
   2584      -7.6644      2.00000
   2585      -7.6685      2.00000
   2586      -7.6671      2.00000
   2587      -7.6516      2.00000
   2588      -7.6387      2.00000
   2589      -7.6552      2.00000
   2590      -7.6567      2.00000
   2591      -7.6564      2.00000
   2592      -7.6432      2.00000
   2593      -7.6393      2.00000
   2594      -7.6613      2.00000
   2595      -7.6548      2.00000
   2596      -7.6570      2.00000
   2597      -7.6591      2.00000
   2598      -7.6561      2.00000
   2599      -7.6451      2.00000
   2600      -7.6424      2.00000
   2601      -7.6394      2.00000
   2602      -7.6374      2.00000
   2603      -7.6478      2.00000
   2604      -7.6395      2.00000
   2605      -7.6380      2.00000
   2606      -7.6413      2.00000
   2607      -7.6388      2.00000
   2608      -7.6377      2.00000
   2609      -7.6286      2.00000
   2610      -7.6271      2.00000
   2611      -7.6353      2.00000
   2612      -7.6301      2.00000
   2613      -7.6295      2.00000
   2614      -7.6296      2.00000
   2615      -7.6288      2.00000
   2616      -7.6096      2.00000
   2617      -7.5903      2.00000
   2618      -7.6159      2.00000
   2619      -7.6096      2.00000
   2620      -7.5984      2.00000
   2621      -7.6061      2.00000
   2622      -7.5981      2.00000
   2623      -7.6082      2.00000
   2624      -7.5804      2.00000
   2625      -7.5972      2.00000
   2626      -7.5960      2.00000
   2627      -7.5861      2.00000
   2628      -7.5791      2.00000
   2629      -7.5822      2.00000
   2630      -7.5807      2.00000
   2631      -7.5756      2.00000
   2632      -7.5721      2.00000
   2633      -7.5829      2.00000
   2634      -7.5715      2.00000
   2635      -7.5559      2.00000
   2636      -7.5710      2.00000
   2637      -7.5823      2.00000
   2638      -7.5695      2.00000
   2639      -7.5820      2.00000
   2640      -7.5917      2.00000
   2641      -7.5651      2.00000
   2642      -7.5609      2.00000
   2643      -7.5705      2.00000
   2644      -7.5676      2.00000
   2645      -7.5648      2.00000
   2646      -7.5511      2.00000
   2647      -7.5662      2.00000
   2648      -7.5651      2.00000
   2649      -7.5574      2.00000
   2650      -7.5628      2.00000
   2651      -7.5599      2.00000
   2652      -7.5610      2.00000
   2653      -7.5664      2.00000
   2654      -7.5657      2.00000
   2655      -7.5618      2.00000
   2656      -7.5656      2.00000
   2657      -7.5560      2.00000
   2658      -7.5613      2.00000
   2659      -7.5757      2.00000
   2660      -7.5671      2.00000
   2661      -7.5585      2.00000
   2662      -7.5465      2.00000
   2663      -7.5606      2.00000
   2664      -7.5665      2.00000
   2665      -7.5574      2.00000
   2666      -7.5618      2.00000
   2667      -7.5658      2.00000
   2668      -7.5353      2.00000
   2669      -7.5480      2.00000
   2670      -7.5206      2.00000
   2671      -7.5383      2.00000
   2672      -7.5268      2.00000
   2673      -7.5461      2.00000
   2674      -7.5203      2.00000
   2675      -7.5374      2.00000
   2676      -7.5238      2.00000
   2677      -7.5415      2.00000
   2678      -7.5143      2.00000
   2679      -7.5347      2.00000
   2680      -7.5273      2.00000
   2681      -7.5193      2.00000
   2682      -7.5285      2.00000
   2683      -7.5306      2.00000
   2684      -7.5297      2.00000
   2685      -7.5224      2.00000
   2686      -7.5085      2.00000
   2687      -7.5207      2.00000
   2688      -7.5146      2.00000
   2689      -7.5188      2.00000
   2690      -7.5190      2.00000
   2691      -7.5203      2.00000
   2692      -7.5090      2.00000
   2693      -7.5087      2.00000
   2694      -7.5118      2.00000
   2695      -7.5175      2.00000
   2696      -7.4925      2.00000
   2697      -7.5166      2.00000
   2698      -7.5077      2.00000
   2699      -7.5047      2.00000
   2700      -7.4970      2.00000
   2701      -7.4921      2.00000
   2702      -7.4914      2.00000
   2703      -7.4902      2.00000
   2704      -7.4909      2.00000
   2705      -7.4840      2.00000
   2706      -7.4711      2.00000
   2707      -7.4798      2.00000
   2708      -7.4632      2.00000
   2709      -7.4614      2.00000
   2710      -7.5046      2.00000
   2711      -7.4897      2.00000
   2712      -7.4826      2.00000
   2713      -7.4731      2.00000
   2714      -7.4923      2.00000
   2715      -7.4818      2.00000
   2716      -7.4718      2.00000
   2717      -7.4689      2.00000
   2718      -7.4669      2.00000
   2719      -7.4667      2.00000
   2720      -7.4775      2.00000
   2721      -7.4662      2.00000
   2722      -7.4696      2.00000
   2723      -7.4736      2.00000
   2724      -7.4776      2.00000
   2725      -7.4721      2.00000
   2726      -7.4698      2.00000
   2727      -7.4604      2.00000
   2728      -7.4668      2.00000
   2729      -7.4744      2.00000
   2730      -7.4691      2.00000
   2731      -7.4438      2.00000
   2732      -7.4614      2.00000
   2733      -7.4632      2.00000
   2734      -7.4644      2.00000
   2735      -7.4647      2.00000
   2736      -7.4602      2.00000
   2737      -7.4621      2.00000
   2738      -7.4609      2.00000
   2739      -7.4574      2.00000
   2740      -7.4494      2.00000
   2741      -7.4457      2.00000
   2742      -7.4327      2.00000
   2743      -7.4407      2.00000
   2744      -7.4433      2.00000
   2745      -7.4510      2.00000
   2746      -7.4356      2.00000
   2747      -7.4417      2.00000
   2748      -7.4234      2.00000
   2749      -7.4327      2.00000
   2750      -7.4331      2.00000
   2751      -7.4241      2.00000
   2752      -7.4325      2.00000
   2753      -7.4282      2.00000
   2754      -7.4062      2.00000
   2755      -7.4111      2.00000
   2756      -7.4117      2.00000
   2757      -7.4185      2.00000
   2758      -7.4285      2.00000
   2759      -7.4358      2.00000
   2760      -7.4327      2.00000
   2761      -7.4034      2.00000
   2762      -7.3993      2.00000
   2763      -7.3979      2.00000
   2764      -7.4202      2.00000
   2765      -7.3899      2.00000
   2766      -7.4115      2.00000
   2767      -7.4052      2.00000
   2768      -7.4020      2.00000
   2769      -7.4153      2.00000
   2770      -7.3963      2.00000
   2771      -7.3965      2.00000
   2772      -7.3906      2.00000
   2773      -7.4114      2.00000
   2774      -7.3809      2.00000
   2775      -7.3935      2.00000
   2776      -7.4051      2.00000
   2777      -7.4131      2.00000
   2778      -7.3901      2.00000
   2779      -7.4122      2.00000
   2780      -7.3853      2.00000
   2781      -7.3959      2.00000
   2782      -7.3806      2.00000
   2783      -7.3800      2.00000
   2784      -7.3886      2.00000
   2785      -7.3886      2.00000
   2786      -7.3730      2.00000
   2787      -7.3695      2.00000
   2788      -7.3726      2.00000
   2789      -7.3662      2.00000
   2790      -7.3724      2.00000
   2791      -7.3727      2.00000
   2792      -7.3689      2.00000
   2793      -7.3758      2.00000
   2794      -7.3535      2.00000
   2795      -7.3658      2.00000
   2796      -7.3574      2.00000
   2797      -7.3422      2.00000
   2798      -7.3450      2.00000
   2799      -7.3750      2.00000
   2800      -7.3743      2.00000
   2801      -7.3609      2.00000
   2802      -7.3666      2.00000
   2803      -7.3574      2.00000
   2804      -7.3528      2.00000
   2805      -7.3490      2.00000
   2806      -7.3264      2.00000
   2807      -7.3207      2.00000
   2808      -7.3195      2.00000
   2809      -7.3280      2.00000
   2810      -7.3410      2.00000
   2811      -7.3405      2.00000
   2812      -7.3093      2.00000
   2813      -7.3351      2.00000
   2814      -7.3429      2.00000
   2815      -7.3353      2.00000
   2816      -7.3159      2.00000
   2817      -7.3254      2.00000
   2818      -7.2985      2.00000
   2819      -7.3299      2.00000
   2820      -7.3057      2.00000
   2821      -7.3078      2.00000
   2822      -7.3068      2.00000
   2823      -7.2828      2.00000
   2824      -7.3000      2.00000
   2825      -7.2976      2.00000
   2826      -7.2959      2.00000
   2827      -7.2865      2.00000
   2828      -7.2832      2.00000
   2829      -7.2841      2.00000
   2830      -7.2865      2.00000
   2831      -7.2699      2.00000
   2832      -7.2785      2.00000
   2833      -7.2631      2.00000
   2834      -7.2647      2.00000
   2835      -7.2538      2.00000
   2836      -7.2627      2.00000
   2837      -7.2706      2.00000
   2838      -7.2618      2.00000
   2839      -7.2614      2.00000
   2840      -7.2748      2.00000
   2841      -7.2586      2.00000
   2842      -7.2722      2.00000
   2843      -7.2722      2.00000
   2844      -7.2635      2.00000
   2845      -7.2520      2.00000
   2846      -7.2500      2.00000
   2847      -7.2459      2.00000
   2848      -7.2295      2.00000
   2849      -7.2475      2.00000
   2850      -7.2298      2.00000
   2851      -7.2209      2.00000
   2852      -7.2539      2.00000
   2853      -7.2455      2.00000
   2854      -7.2243      2.00000
   2855      -7.2358      2.00000
   2856      -7.2341      2.00000
   2857      -7.2288      2.00000
   2858      -7.2152      2.00000
   2859      -7.2189      2.00000
   2860      -7.2229      2.00000
   2861      -7.2051      2.00000
   2862      -7.2075      2.00000
   2863      -7.2270      2.00000
   2864      -7.2299      2.00000
   2865      -7.1909      2.00000
   2866      -7.1918      2.00000
   2867      -7.2152      2.00000
   2868      -7.1919      2.00000
   2869      -7.1853      2.00000
   2870      -7.1771      2.00000
   2871      -7.2067      2.00000
   2872      -7.2267      2.00000
   2873      -7.2064      2.00000
   2874      -7.1879      2.00000
   2875      -7.1992      2.00000
   2876      -7.1831      2.00000
   2877      -7.2113      2.00000
   2878      -7.1700      2.00000
   2879      -7.1709      2.00000
   2880      -7.1681      2.00000
   2881      -7.1687      2.00000
   2882      -7.1672      2.00000
   2883      -7.1770      2.00000
   2884      -7.1685      2.00000
   2885      -7.1465      2.00000
   2886      -7.1451      2.00000
   2887      -7.1463      2.00000
   2888      -7.1385      2.00000
   2889      -7.1720      2.00000
   2890      -7.1383      2.00000
   2891      -7.1500      2.00000
   2892      -7.1391      2.00000
   2893      -7.1748      2.00000
   2894      -7.1598      2.00000
   2895      -7.1463      2.00000
   2896      -7.1506      2.00000
   2897      -7.1408      2.00000
   2898      -7.1442      2.00000
   2899      -7.1455      2.00000
   2900      -7.1397      2.00000
   2901      -7.1345      2.00000
   2902      -7.1349      2.00000
   2903      -7.1295      2.00000
   2904      -7.1342      2.00000
   2905      -7.1480      2.00000
   2906      -7.1345      2.00000
   2907      -7.1314      2.00000
   2908      -7.0988      2.00000
   2909      -7.0938      2.00000
   2910      -7.1271      2.00000
   2911      -7.1317      2.00000
   2912      -7.0894      2.00000
   2913      -7.0936      2.00000
   2914      -7.0885      2.00000
   2915      -7.1615      2.00000
   2916      -7.1201      2.00000
   2917      -7.1082      2.00000
   2918      -7.1063      2.00000
   2919      -7.1162      2.00000
   2920      -7.0907      2.00000
   2921      -7.0942      2.00000
   2922      -7.0838      2.00000
   2923      -7.1024      2.00000
   2924      -7.0770      2.00000
   2925      -7.0790      2.00000
   2926      -7.1044      2.00000
   2927      -7.0833      2.00000
   2928      -7.0787      2.00000
   2929      -7.0825      2.00000
   2930      -7.0981      2.00000
   2931      -7.0790      2.00000
   2932      -7.0788      2.00000
   2933      -7.0829      2.00000
   2934      -7.1030      2.00000
   2935      -7.1006      2.00000
   2936      -7.0638      2.00000
   2937      -7.0633      2.00000
   2938      -7.0780      2.00000
   2939      -7.0679      2.00000
   2940      -7.0679      2.00000
   2941      -7.0659      2.00000
   2942      -7.0632      2.00000
   2943      -7.0627      2.00000
   2944      -7.0623      2.00000
   2945      -7.0593      2.00000
   2946      -7.0674      2.00000
   2947      -7.0628      2.00000
   2948      -7.0667      2.00000
   2949      -7.0588      2.00000
   2950      -7.0659      2.00000
   2951      -7.0592      2.00000
   2952      -7.0543      2.00000
   2953      -7.0530      2.00000
   2954      -7.0576      2.00000
   2955      -7.0537      2.00000
   2956      -7.0322      2.00000
   2957      -7.0450      2.00000
   2958      -7.0404      2.00000
   2959      -7.0563      2.00000
   2960      -7.0469      2.00000
   2961      -7.0203      2.00000
   2962      -7.0258      2.00000
   2963      -7.0571      2.00000
   2964      -7.0115      2.00000
   2965      -7.0278      2.00000
   2966      -7.0329      2.00000
   2967      -7.0378      2.00000
   2968      -7.0426      2.00000
   2969      -7.0347      2.00000
   2970      -7.0289      2.00000
   2971      -7.0096      2.00000
   2972      -7.0058      2.00000
   2973      -7.0000      2.00000
   2974      -7.0157      2.00000
   2975      -7.0128      2.00000
   2976      -7.0173      2.00000
   2977      -7.0027      2.00000
   2978      -7.0308      2.00000
   2979      -7.0288      2.00000
   2980      -7.0109      2.00000
   2981      -7.0188      2.00000
   2982      -7.0249      2.00000
   2983      -7.0042      2.00000
   2984      -6.9792      2.00000
   2985      -6.9814      2.00000
   2986      -6.9887      2.00000
   2987      -6.9793      2.00000
   2988      -6.9705      2.00000
   2989      -6.9762      2.00000
   2990      -7.0229      2.00000
   2991      -6.9995      2.00000
   2992      -6.9762      2.00000
   2993      -6.9714      2.00000
   2994      -6.9815      2.00000
   2995      -6.9781      2.00000
   2996      -6.9702      2.00000
   2997      -6.9684      2.00000
   2998      -6.9634      2.00000
   2999      -6.9598      2.00000
   3000      -6.9826      2.00000
   3001      -6.9790      2.00000
   3002      -6.9989      2.00000
   3003      -6.9681      2.00000
   3004      -6.9959      2.00000
   3005      -6.9705      2.00000
   3006      -6.9653      2.00000
   3007      -6.9820      2.00000
   3008      -6.9636      2.00000
   3009      -6.9603      2.00000
   3010      -6.9584      2.00000
   3011      -6.9572      2.00000
   3012      -6.9505      2.00000
   3013      -6.9507      2.00000
   3014      -6.9560      2.00000
   3015      -6.9517      2.00000
   3016      -6.9601      2.00000
   3017      -6.9457      2.00000
   3018      -6.9438      2.00000
   3019      -6.9455      2.00000
   3020      -6.9348      2.00000
   3021      -6.9344      2.00000
   3022      -6.9304      2.00000
   3023      -6.9417      2.00000
   3024      -6.9260      2.00000
   3025      -6.9275      2.00000
   3026      -6.9535      2.00000
   3027      -6.9394      2.00000
   3028      -6.9121      2.00000
   3029      -6.9526      2.00000
   3030      -6.9229      2.00000
   3031      -6.9186      2.00000
   3032      -6.9184      2.00000
   3033      -6.9330      2.00000
   3034      -6.8967      2.00000
   3035      -6.9128      2.00000
   3036      -6.9128      2.00000
   3037      -6.9066      2.00000
   3038      -6.9079      2.00000
   3039      -6.9082      2.00000
   3040      -6.9095      2.00000
   3041      -6.9121      2.00000
   3042      -6.9008      2.00000
   3043      -6.9085      2.00000
   3044      -6.9123      2.00000
   3045      -6.9033      2.00000
   3046      -6.8910      2.00000
   3047      -6.9034      2.00000
   3048      -6.8980      2.00000
   3049      -6.8910      2.00000
   3050      -6.8898      2.00000
   3051      -6.8876      2.00000
   3052      -6.8923      2.00000
   3053      -6.8828      2.00000
   3054      -6.8755      2.00000
   3055      -6.8733      2.00000
   3056      -6.8731      2.00000
   3057      -6.8795      2.00000
   3058      -6.8764      2.00000
   3059      -6.8674      2.00000
   3060      -6.8649      2.00000
   3061      -6.8769      2.00000
   3062      -6.8331      2.00000
   3063      -6.8446      2.00000
   3064      -6.8524      2.00000
   3065      -6.8358      2.00000
   3066      -6.8489      2.00000
   3067      -6.8591      2.00000
   3068      -6.8638      2.00000
   3069      -6.8367      2.00000
   3070      -6.8560      2.00000
   3071      -6.8355      2.00000
   3072      -6.8459      2.00000
   3073      -6.8480      2.00000
   3074      -6.8621      2.00000
   3075      -6.8510      2.00000
   3076      -6.8415      2.00000
   3077      -6.8397      2.00000
   3078      -6.8440      2.00000
   3079      -6.8327      2.00000
   3080      -6.8404      2.00000
   3081      -6.8388      2.00000
   3082      -6.8281      2.00000
   3083      -6.8296      2.00000
   3084      -6.8358      2.00000
   3085      -6.8315      2.00000
   3086      -6.8278      2.00000
   3087      -6.8251      2.00000
   3088      -6.8255      2.00000
   3089      -6.8186      2.00000
   3090      -6.8332      2.00000
   3091      -6.8260      2.00000
   3092      -6.8212      2.00000
   3093      -6.8259      2.00000
   3094      -6.8217      2.00000
   3095      -6.8233      2.00000
   3096      -6.8225      2.00000
   3097      -6.8115      2.00000
   3098      -6.8128      2.00000
   3099      -6.8080      2.00000
   3100      -6.7989      2.00000
   3101      -6.7998      2.00000
   3102      -6.7988      2.00000
   3103      -6.7958      2.00000
   3104      -6.7979      2.00000
   3105      -6.7963      2.00000
   3106      -6.7936      2.00000
   3107      -6.8023      2.00000
   3108      -6.7926      2.00000
   3109      -6.7654      2.00000
   3110      -6.7812      2.00000
   3111      -6.7968      2.00000
   3112      -6.7949      2.00000
   3113      -6.7820      2.00000
   3114      -6.7809      2.00000
   3115      -6.7872      2.00000
   3116      -6.7896      2.00000
   3117      -6.7807      2.00000
   3118      -6.7819      2.00000
   3119      -6.7873      2.00000
   3120      -6.7603      2.00000
   3121      -6.7757      2.00000
   3122      -6.7620      2.00000
   3123      -6.7711      2.00000
   3124      -6.7606      2.00000
   3125      -6.7745      2.00000
   3126      -6.7642      2.00000
   3127      -6.7576      2.00000
   3128      -6.7329      2.00000
   3129      -6.7573      2.00000
   3130      -6.7295      2.00000
   3131      -6.7370      2.00000
   3132      -6.7528      2.00000
   3133      -6.7507      2.00000
   3134      -6.7569      2.00000
   3135      -6.7447      2.00000
   3136      -6.7515      2.00000
   3137      -6.7429      2.00000
   3138      -6.7447      2.00000
   3139      -6.7604      2.00000
   3140      -6.7446      2.00000
   3141      -6.7371      2.00000
   3142      -6.7236      2.00000
   3143      -6.7243      2.00000
   3144      -6.7468      2.00000
   3145      -6.7376      2.00000
   3146      -6.7203      2.00000
   3147      -6.7157      2.00000
   3148      -6.7270      2.00000
   3149      -6.7286      2.00000
   3150      -6.7362      2.00000
   3151      -6.7404      2.00000
   3152      -6.7256      2.00000
   3153      -6.7321      2.00000
   3154      -6.7286      2.00000
   3155      -6.7218      2.00000
   3156      -6.7203      2.00000
   3157      -6.7249      2.00000
   3158      -6.7294      2.00000
   3159      -6.7340      2.00000
   3160      -6.7319      2.00000
   3161      -6.7245      2.00000
   3162      -6.7201      2.00000
   3163      -6.7172      2.00000
   3164      -6.7166      2.00000
   3165      -6.7220      2.00000
   3166      -6.7133      2.00000
   3167      -6.7257      2.00000
   3168      -6.7203      2.00000
   3169      -6.7317      2.00000
   3170      -6.7138      2.00000
   3171      -6.6950      2.00000
   3172      -6.7092      2.00000
   3173      -6.7028      2.00000
   3174      -6.7016      2.00000
   3175      -6.7003      2.00000
   3176      -6.7069      2.00000
   3177      -6.7103      2.00000
   3178      -6.7061      2.00000
   3179      -6.6889      2.00000
   3180      -6.6868      2.00000
   3181      -6.6865      2.00000
   3182      -6.6800      2.00000
   3183      -6.6955      2.00000
   3184      -6.6830      2.00000
   3185      -6.6738      2.00000
   3186      -6.6778      2.00000
   3187      -6.6975      2.00000
   3188      -6.6894      2.00000
   3189      -6.6719      2.00000
   3190      -6.6586      2.00000
   3191      -6.6480      2.00000
   3192      -6.6553      2.00000
   3193      -6.6609      2.00000
   3194      -6.6595      2.00000
   3195      -6.6524      2.00000
   3196      -6.6506      2.00000
   3197      -6.6516      2.00000
   3198      -6.6507      2.00000
   3199      -6.6511      2.00000
   3200      -6.6419      2.00000
   3201      -6.6494      2.00000
   3202      -6.6421      2.00000
   3203      -6.6492      2.00000
   3204      -6.6501      2.00000
   3205      -6.6426      2.00000
   3206      -6.6393      2.00000
   3207      -6.6386      2.00000
   3208      -6.6381      2.00000
   3209      -6.6261      2.00000
   3210      -6.6333      2.00000
   3211      -6.6329      2.00000
   3212      -6.6354      2.00000
   3213      -6.6366      2.00000
   3214      -6.6241      2.00000
   3215      -6.6301      2.00000
   3216      -6.6302      2.00000
   3217      -6.6264      2.00000
   3218      -6.6432      2.00000
   3219      -6.6375      2.00000
   3220      -6.6354      2.00000
   3221      -6.6291      2.00000
   3222      -6.6139      2.00000
   3223      -6.6089      2.00000
   3224      -6.6200      2.00000
   3225      -6.6185      2.00000
   3226      -6.6194      2.00000
   3227      -6.6132      2.00000
   3228      -6.6194      2.00000
   3229      -6.6157      2.00000
   3230      -6.6085      2.00000
   3231      -6.6059      2.00000
   3232      -6.6082      2.00000
   3233      -6.6026      2.00000
   3234      -6.5988      2.00000
   3235      -6.6091      2.00000
   3236      -6.6094      2.00000
   3237      -6.6164      2.00000
   3238      -6.6140      2.00000
   3239      -6.6099      2.00000
   3240      -6.6108      2.00000
   3241      -6.6132      2.00000
   3242      -6.6070      2.00000
   3243      -6.6095      2.00000
   3244      -6.6057      2.00000
   3245      -6.6020      2.00000
   3246      -6.5914      2.00000
   3247      -6.5967      2.00000
   3248      -6.5780      2.00000
   3249      -6.5830      2.00000
   3250      -6.5807      2.00000
   3251      -6.5671      2.00000
   3252      -6.5835      2.00000
   3253      -6.5694      2.00000
   3254      -6.5869      2.00000
   3255      -6.5859      2.00000
   3256      -6.5813      2.00000
   3257      -6.5859      2.00000
   3258      -6.5640      2.00000
   3259      -6.5669      2.00000
   3260      -6.5688      2.00000
   3261      -6.5556      2.00000
   3262      -6.5625      2.00000
   3263      -6.5556      2.00000
   3264      -6.5762      2.00000
   3265      -6.5741      2.00000
   3266      -6.5501      2.00000
   3267      -6.5848      2.00000
   3268      -6.5519      2.00000
   3269      -6.5671      2.00000
   3270      -6.5507      2.00000
   3271      -6.5623      2.00000
   3272      -6.5618      2.00000
   3273      -6.5754      2.00000
   3274      -6.5638      2.00000
   3275      -6.5527      2.00000
   3276      -6.5661      2.00000
   3277      -6.5607      2.00000
   3278      -6.5655      2.00000
   3279      -6.5347      2.00000
   3280      -6.5545      2.00000
   3281      -6.5471      2.00000
   3282      -6.5598      2.00000
   3283      -6.5441      2.00000
   3284      -6.5479      2.00000
   3285      -6.5442      2.00000
   3286      -6.5458      2.00000
   3287      -6.5426      2.00000
   3288      -6.5427      2.00000
   3289      -6.5437      2.00000
   3290      -6.5533      2.00000
   3291      -6.5375      2.00000
   3292      -6.5354      2.00000
   3293      -6.5351      2.00000
   3294      -6.5343      2.00000
   3295      -6.5284      2.00000
   3296      -6.5334      2.00000
   3297      -6.5303      2.00000
   3298      -6.5531      2.00000
   3299      -6.5529      2.00000
   3300      -6.5365      2.00000
   3301      -6.5452      2.00000
   3302      -6.5300      2.00000
   3303      -6.5237      2.00000
   3304      -6.5284      2.00000
   3305      -6.5211      2.00000
   3306      -6.5254      2.00000
   3307      -6.5201      2.00000
   3308      -6.5124      2.00000
   3309      -6.5140      2.00000
   3310      -6.5077      2.00000
   3311      -6.5025      2.00000
   3312      -6.4908      2.00000
   3313      -6.4800      2.00000
   3314      -6.4644      2.00000
   3315      -6.4729      2.00000
   3316      -6.4703      2.00000
   3317      -6.4712      2.00000
   3318      -6.4668      2.00000
   3319      -6.4708      2.00000
   3320      -6.4667      2.00000
   3321      -6.4679      2.00000
   3322      -6.4637      2.00000
   3323      -6.4676      2.00000
   3324      -6.4747      2.00000
   3325      -6.4689      2.00000
   3326      -6.4684      2.00000
   3327      -6.4598      2.00000
   3328      -6.4598      2.00000
   3329      -6.4663      2.00000
   3330      -6.4618      2.00000
   3331      -6.4703      2.00000
   3332      -6.4531      2.00000
   3333      -6.4482      2.00000
   3334      -6.4464      2.00000
   3335      -6.4537      2.00000
   3336      -6.4539      2.00000
   3337      -6.4476      2.00000
   3338      -6.4524      2.00000
   3339      -6.4481      2.00000
   3340      -6.4487      2.00000
   3341      -6.4521      2.00000
   3342      -6.4439      2.00000
   3343      -6.4419      2.00000
   3344      -6.4363      2.00000
   3345      -6.4406      2.00000
   3346      -6.4403      2.00000
   3347      -6.4414      2.00000
   3348      -6.4386      2.00000
   3349      -6.4363      2.00000
   3350      -6.4379      2.00000
   3351      -6.4366      2.00000
   3352      -6.4408      2.00000
   3353      -6.4421      2.00000
   3354      -6.4362      2.00000
   3355      -6.4344      2.00000
   3356      -6.4370      2.00000
   3357      -6.4353      2.00000
   3358      -6.4344      2.00000
   3359      -6.4336      2.00000
   3360      -6.4325      2.00000
   3361      -6.4302      2.00000
   3362      -6.4314      2.00000
   3363      -6.4354      2.00000
   3364      -6.4264      2.00000
   3365      -6.4265      2.00000
   3366      -6.4317      2.00000
   3367      -6.4258      2.00000
   3368      -6.4239      2.00000
   3369      -6.4257      2.00000
   3370      -6.4320      2.00000
   3371      -6.4226      2.00000
   3372      -6.4012      2.00000
   3373      -6.4159      2.00000
   3374      -6.4112      2.00000
   3375      -6.4049      2.00000
   3376      -6.4047      2.00000
   3377      -6.3891      2.00000
   3378      -6.3961      2.00000
   3379      -6.3957      2.00000
   3380      -6.4011      2.00000
   3381      -6.4087      2.00000
   3382      -6.3967      2.00000
   3383      -6.3860      2.00000
   3384      -6.4020      2.00000
   3385      -6.3957      2.00000
   3386      -6.4010      2.00000
   3387      -6.3798      2.00000
   3388      -6.4021      2.00000
   3389      -6.4005      2.00000
   3390      -6.3991      2.00000
   3391      -6.3999      2.00000
   3392      -6.4031      2.00000
   3393      -6.3955      2.00000
   3394      -6.3973      2.00000
   3395      -6.3944      2.00000
   3396      -6.3888      2.00000
   3397      -6.3867      2.00000
   3398      -6.3849      2.00000
   3399      -6.3942      2.00000
   3400      -6.3883      2.00000
   3401      -6.3889      2.00000
   3402      -6.3914      2.00000
   3403      -6.3889      2.00000
   3404      -6.3779      2.00000
   3405      -6.3848      2.00000
   3406      -6.3793      2.00000
   3407      -6.3828      2.00000
   3408      -6.3794      2.00000
   3409      -6.3760      2.00000
   3410      -6.3764      2.00000
   3411      -6.3804      2.00000
   3412      -6.3805      2.00000
   3413      -6.3755      2.00000
   3414      -6.3630      2.00000
   3415      -6.3622      2.00000
   3416      -6.3727      2.00000
   3417      -6.3595      2.00000
   3418      -6.3673      2.00000
   3419      -6.3649      2.00000
   3420      -6.3643      2.00000
   3421      -6.3683      2.00000
   3422      -6.3595      2.00000
   3423      -6.3610      2.00000
   3424      -6.3707      2.00000
   3425      -6.3555      2.00000
   3426      -6.3609      2.00000
   3427      -6.3424      2.00000
   3428      -6.3414      2.00000
   3429      -6.3467      2.00000
   3430      -6.3557      2.00000
   3431      -6.3560      2.00000
   3432      -6.3567      2.00000
   3433      -6.3565      2.00000
   3434      -6.3476      2.00000
   3435      -6.3472      2.00000
   3436      -6.3465      2.00000
   3437      -6.3368      2.00000
   3438      -6.3319      2.00000
   3439      -6.3317      2.00000
   3440      -6.3399      2.00000
   3441      -6.3399      2.00000
   3442      -6.3407      2.00000
   3443      -6.3419      2.00000
   3444      -6.3389      2.00000
   3445      -6.3415      2.00000
   3446      -6.3270      2.00000
   3447      -6.3215      2.00000
   3448      -6.3274      2.00000
   3449      -6.3103      2.00000
   3450      -6.3233      2.00000
   3451      -6.3254      2.00000
   3452      -6.3329      2.00000
   3453      -6.3216      2.00000
   3454      -6.3085      2.00000
   3455      -6.3175      2.00000
   3456      -6.3189      2.00000
   3457      -6.3142      2.00000
   3458      -6.3119      2.00000
   3459      -6.3165      2.00000
   3460      -6.3211      2.00000
   3461      -6.3042      2.00000
   3462      -6.3009      2.00000
   3463      -6.2976      2.00000
   3464      -6.2996      2.00000
   3465      -6.2918      2.00000
   3466      -6.2932      2.00000
   3467      -6.2863      2.00000
   3468      -6.3026      2.00000
   3469      -6.2945      2.00000
   3470      -6.2990      2.00000
   3471      -6.2966      2.00000
   3472      -6.2847      2.00000
   3473      -6.2767      2.00000
   3474      -6.2960      2.00000
   3475      -6.2805      2.00000
   3476      -6.2869      2.00000
   3477      -6.2827      2.00000
   3478      -6.2835      2.00000
   3479      -6.2742      2.00000
   3480      -6.2669      2.00000
   3481      -6.2648      2.00000
   3482      -6.2744      2.00000
   3483      -6.2611      2.00000
   3484      -6.2615      2.00000
   3485      -6.2629      2.00000
   3486      -6.2671      2.00000
   3487      -6.2744      2.00000
   3488      -6.2744      2.00000
   3489      -6.2638      2.00000
   3490      -6.2674      2.00000
   3491      -6.2648      2.00000
   3492      -6.2427      2.00000
   3493      -6.2399      2.00000
   3494      -6.2416      2.00000
   3495      -6.2404      2.00000
   3496      -6.2348      2.00000
   3497      -6.2513      2.00000
   3498      -6.2474      2.00000
   3499      -6.2381      2.00000
   3500      -6.2447      2.00000
   3501      -6.2489      2.00000
   3502      -6.2468      2.00000
   3503      -6.2521      2.00000
   3504      -6.2457      2.00000
   3505      -6.2384      2.00000
   3506      -6.2437      2.00000
   3507      -6.2261      2.00000
   3508      -6.2273      2.00000
   3509      -6.2418      2.00000
   3510      -6.2406      2.00000
   3511      -6.2411      2.00000
   3512      -6.2249      2.00000
   3513      -6.2419      2.00000
   3514      -6.2383      2.00000
   3515      -6.2289      2.00000
   3516      -6.2295      2.00000
   3517      -6.2307      2.00000
   3518      -6.2429      2.00000
   3519      -6.2378      2.00000
   3520      -6.2343      2.00000
   3521      -6.2376      2.00000
   3522      -6.2252      2.00000
   3523      -6.2256      2.00000
   3524      -6.2177      2.00000
   3525      -6.2277      2.00000
   3526      -6.2279      2.00000
   3527      -6.2210      2.00000
   3528      -6.2253      2.00000
   3529      -6.2226      2.00000
   3530      -6.2257      2.00000
   3531      -6.2192      2.00000
   3532      -6.2417      2.00000
   3533      -6.2158      2.00000
   3534      -6.2201      2.00000
   3535      -6.2266      2.00000
   3536      -6.2129      2.00000
   3537      -6.1923      2.00000
   3538      -6.2044      2.00000
   3539      -6.2085      2.00000
   3540      -6.1989      2.00000
   3541      -6.1869      2.00000
   3542      -6.2058      2.00000
   3543      -6.1914      2.00000
   3544      -6.1885      2.00000
   3545      -6.1867      2.00000
   3546      -6.1866      2.00000
   3547      -6.2024      2.00000
   3548      -6.1912      2.00000
   3549      -6.1833      2.00000
   3550      -6.1859      2.00000
   3551      -6.1856      2.00000
   3552      -6.1739      2.00000
   3553      -6.1807      2.00000
   3554      -6.1742      2.00000
   3555      -6.1805      2.00000
   3556      -6.1823      2.00000
   3557      -6.1769      2.00000
   3558      -6.1681      2.00000
   3559      -6.1670      2.00000
   3560      -6.1736      2.00000
   3561      -6.1777      2.00000
   3562      -6.1767      2.00000
   3563      -6.1788      2.00000
   3564      -6.1729      2.00000
   3565      -6.1752      2.00000
   3566      -6.1596      2.00000
   3567      -6.1735      2.00000
   3568      -6.1740      2.00000
   3569      -6.1539      2.00000
   3570      -6.1640      2.00000
   3571      -6.1527      2.00000
   3572      -6.1561      2.00000
   3573      -6.1451      2.00000
   3574      -6.1592      2.00000
   3575      -6.1614      2.00000
   3576      -6.1577      2.00000
   3577      -6.1598      2.00000
   3578      -6.1556      2.00000
   3579      -6.1545      2.00000
   3580      -6.1560      2.00000
   3581      -6.1415      2.00000
   3582      -6.1386      2.00000
   3583      -6.1343      2.00000
   3584      -6.1343      2.00000
   3585      -6.1326      2.00000
   3586      -6.1331      2.00000
   3587      -6.1379      2.00000
   3588      -6.1344      2.00000
   3589      -6.1371      2.00000
   3590      -6.1370      2.00000
   3591      -6.1355      2.00000
   3592      -6.1118      2.00000
   3593      -6.1123      2.00000
   3594      -6.1157      2.00000
   3595      -6.1232      2.00000
   3596      -6.1150      2.00000
   3597      -6.1140      2.00000
   3598      -6.1205      2.00000
   3599      -6.1083      2.00000
   3600      -6.1188      2.00000
   3601      -6.1155      2.00000
   3602      -6.1181      2.00000
   3603      -6.1146      2.00000
   3604      -6.1182      2.00000
   3605      -6.1007      2.00000
   3606      -6.1034      2.00000
   3607      -6.0969      2.00000
   3608      -6.0960      2.00000
   3609      -6.0947      2.00000
   3610      -6.0941      2.00000
   3611      -6.1043      2.00000
   3612      -6.0930      2.00000
   3613      -6.0974      2.00000
   3614      -6.0902      2.00000
   3615      -6.0950      2.00000
   3616      -6.1047      2.00000
   3617      -6.0792      2.00000
   3618      -6.0789      2.00000
   3619      -6.0784      2.00000
   3620      -6.0887      2.00000
   3621      -6.0869      2.00000
   3622      -6.0791      2.00000
   3623      -6.0795      2.00000
   3624      -6.0796      2.00000
   3625      -6.0805      2.00000
   3626      -6.0759      2.00000
   3627      -6.0939      2.00000
   3628      -6.0784      2.00000
   3629      -6.0820      2.00000
   3630      -6.0811      2.00000
   3631      -6.0765      2.00000
   3632      -6.0772      2.00000
   3633      -6.0777      2.00000
   3634      -6.0824      2.00000
   3635      -6.0635      2.00000
   3636      -6.0714      2.00000
   3637      -6.0691      2.00000
   3638      -6.0813      2.00000
   3639      -6.0763      2.00000
   3640      -6.0755      2.00000
   3641      -6.0752      2.00000
   3642      -6.0764      2.00000
   3643      -6.0717      2.00000
   3644      -6.0774      2.00000
   3645      -6.0763      2.00000
   3646      -6.0633      2.00000
   3647      -6.0611      2.00000
   3648      -6.0668      2.00000
   3649      -6.0494      2.00000
   3650      -6.0458      2.00000
   3651      -6.0519      2.00000
   3652      -6.0446      2.00000
   3653      -6.0442      2.00000
   3654      -6.0586      2.00000
   3655      -6.0584      2.00000
   3656      -6.0582      2.00000
   3657      -6.0588      2.00000
   3658      -6.0568      2.00000
   3659      -6.0524      2.00000
   3660      -6.0544      2.00000
   3661      -6.0345      2.00000
   3662      -6.0540      2.00000
   3663      -6.0540      2.00000
   3664      -6.0496      2.00000
   3665      -6.0496      2.00000
   3666      -6.0505      2.00000
   3667      -6.0478      2.00000
   3668      -6.0416      2.00000
   3669      -6.0312      2.00000
   3670      -6.0315      2.00000
   3671      -6.0445      2.00000
   3672      -6.0548      2.00000
   3673      -6.0447      2.00000
   3674      -6.0384      2.00000
   3675      -6.0431      2.00000
   3676      -6.0158      2.00000
   3677      -6.0374      2.00000
   3678      -6.0250      2.00000
   3679      -6.0442      2.00000
   3680      -6.0360      2.00000
   3681      -6.0339      2.00000
   3682      -6.0173      2.00000
   3683      -6.0104      2.00000
   3684      -6.0190      2.00000
   3685      -6.0124      2.00000
   3686      -6.0091      2.00000
   3687      -6.0075      2.00000
   3688      -6.0099      2.00000
   3689      -6.0109      2.00000
   3690      -6.0141      2.00000
   3691      -6.0044      2.00000
   3692      -6.0051      2.00000
   3693      -6.0051      2.00000
   3694      -6.0014      2.00000
   3695      -6.0076      2.00000
   3696      -5.9983      2.00000
   3697      -6.0158      2.00000
   3698      -5.9985      2.00000
   3699      -6.0019      2.00000
   3700      -6.0035      2.00000
   3701      -5.9952      2.00000
   3702      -6.0051      2.00000
   3703      -5.9970      2.00000
   3704      -5.9878      2.00000
   3705      -5.9958      2.00000
   3706      -5.9907      2.00000
   3707      -5.9831      2.00000
   3708      -5.9915      2.00000
   3709      -6.0029      2.00000
   3710      -5.9960      2.00000
   3711      -5.9783      2.00000
   3712      -5.9785      2.00000
   3713      -5.9846      2.00000
   3714      -5.9785      2.00000
   3715      -5.9788      2.00000
   3716      -5.9907      2.00000
   3717      -5.9843      2.00000
   3718      -5.9747      2.00000
   3719      -5.9896      2.00000
   3720      -5.9762      2.00000
   3721      -5.9828      2.00000
   3722      -5.9850      2.00000
   3723      -5.9896      2.00000
   3724      -5.9837      2.00000
   3725      -5.9838      2.00000
   3726      -5.9842      2.00000
   3727      -5.9820      2.00000
   3728      -5.9857      2.00000
   3729      -5.9812      2.00000
   3730      -5.9818      2.00000
   3731      -5.9788      2.00000
   3732      -5.9809      2.00000
   3733      -5.9776      2.00000
   3734      -5.9777      2.00000
   3735      -5.9795      2.00000
   3736      -5.9615      2.00000
   3737      -5.9763      2.00000
   3738      -5.9598      2.00000
   3739      -5.9739      2.00000
   3740      -5.9698      2.00000
   3741      -5.9656      2.00000
   3742      -5.9679      2.00000
   3743      -5.9676      2.00000
   3744      -5.9613      2.00000
   3745      -5.9566      2.00000
   3746      -5.9630      2.00000
   3747      -5.9643      2.00000
   3748      -5.9632      2.00000
   3749      -5.9614      2.00000
   3750      -5.9554      2.00000
   3751      -5.9615      2.00000
   3752      -5.9472      2.00000
   3753      -5.9599      2.00000
   3754      -5.9336      2.00000
   3755      -5.9343      2.00000
   3756      -5.9300      2.00000
   3757      -5.9378      2.00000
   3758      -5.9288      2.00000
   3759      -5.9324      2.00000
   3760      -5.9326      2.00000
   3761      -5.9285      2.00000
   3762      -5.9270      2.00000
   3763      -5.9414      2.00000
   3764      -5.9264      2.00000
   3765      -5.9331      2.00000
   3766      -5.9309      2.00000
   3767      -5.9350      2.00000
   3768      -5.9279      2.00000
   3769      -5.9232      2.00000
   3770      -5.9241      2.00000
   3771      -5.9409      2.00000
   3772      -5.9313      2.00000
   3773      -5.9230      2.00000
   3774      -5.9157      2.00000
   3775      -5.9181      2.00000
   3776      -5.9246      2.00000
   3777      -5.9070      2.00000
   3778      -5.9043      2.00000
   3779      -5.9051      2.00000
   3780      -5.9162      2.00000
   3781      -5.9065      2.00000
   3782      -5.9241      2.00000
   3783      -5.9095      2.00000
   3784      -5.9147      2.00000
   3785      -5.9167      2.00000
   3786      -5.9145      2.00000
   3787      -5.9178      2.00000
   3788      -5.9148      2.00000
   3789      -5.9159      2.00000
   3790      -5.9142      2.00000
   3791      -5.9116      2.00000
   3792      -5.9004      2.00000
   3793      -5.9146      2.00000
   3794      -5.9052      2.00000
   3795      -5.9094      2.00000
   3796      -5.9073      2.00000
   3797      -5.9087      2.00000
   3798      -5.8889      2.00000
   3799      -5.9008      2.00000
   3800      -5.9039      2.00000
   3801      -5.8913      2.00000
   3802      -5.9072      2.00000
   3803      -5.8997      2.00000
   3804      -5.9007      2.00000
   3805      -5.8987      2.00000
   3806      -5.8988      2.00000
   3807      -5.8940      2.00000
   3808      -5.8837      2.00000
   3809      -5.8874      2.00000
   3810      -5.8982      2.00000
   3811      -5.8693      2.00000
   3812      -5.8683      2.00000
   3813      -5.8833      2.00000
   3814      -5.8681      2.00000
   3815      -5.8900      2.00000
   3816      -5.8840      2.00000
   3817      -5.8873      2.00000
   3818      -5.8844      2.00000
   3819      -5.8581      2.00000
   3820      -5.8579      2.00000
   3821      -5.8820      2.00000
   3822      -5.8508      2.00000
   3823      -5.8664      2.00000
   3824      -5.8624      2.00000
   3825      -5.8487      2.00000
   3826      -5.8574      2.00000
   3827      -5.8416      2.00000
   3828      -5.8652      2.00000
   3829      -5.8393      2.00000
   3830      -5.8339      2.00000
   3831      -5.8513      2.00000
   3832      -5.8372      2.00000
   3833      -5.8463      2.00000
   3834      -5.8445      2.00000
   3835      -5.8388      2.00000
   3836      -5.8388      2.00000
   3837      -5.8393      2.00000
   3838      -5.8339      2.00000
   3839      -5.8319      2.00000
   3840      -5.8283      2.00000
   3841      -5.8364      2.00000
   3842      -5.8198      2.00000
   3843      -5.8269      2.00000
   3844      -5.8349      2.00000
   3845      -5.8331      2.00000
   3846      -5.8276      2.00000
   3847      -5.8215      2.00000
   3848      -5.8129      2.00000
   3849      -5.8221      2.00000
   3850      -5.8153      2.00000
   3851      -5.8099      2.00000
   3852      -5.8102      2.00000
   3853      -5.8236      2.00000
   3854      -5.8229      2.00000
   3855      -5.8244      2.00000
   3856      -5.8189      2.00000
   3857      -5.8186      2.00000
   3858      -5.8208      2.00000
   3859      -5.8126      2.00000
   3860      -5.8110      2.00000
   3861      -5.8042      2.00000
   3862      -5.7948      2.00000
   3863      -5.7979      2.00000
   3864      -5.7949      2.00000
   3865      -5.7935      2.00000
   3866      -5.8002      2.00000
   3867      -5.8061      2.00000
   3868      -5.8078      2.00000
   3869      -5.8006      2.00000
   3870      -5.7891      2.00000
   3871      -5.7906      2.00000
   3872      -5.7886      2.00000
   3873      -5.7968      2.00000
   3874      -5.7985      2.00000
   3875      -5.7916      2.00000
   3876      -5.7953      2.00000
   3877      -5.7916      2.00000
   3878      -5.7663      2.00000
   3879      -5.7809      2.00000
   3880      -5.7934      2.00000
   3881      -5.7779      2.00000
   3882      -5.7631      2.00000
   3883      -5.7778      2.00000
   3884      -5.7717      2.00000
   3885      -5.7703      2.00000
   3886      -5.7671      2.00000
   3887      -5.7602      2.00000
   3888      -5.7512      2.00000
   3889      -5.7711      2.00000
   3890      -5.7601      2.00000
   3891      -5.7404      2.00000
   3892      -5.7597      2.00000
   3893      -5.7380      2.00000
   3894      -5.7397      2.00000
   3895      -5.7384      2.00000
   3896      -5.7401      2.00000
   3897      -5.7361      2.00000
   3898      -5.7353      2.00000
   3899      -5.7344      2.00000
   3900      -5.7255      2.00000
   3901      -5.7225      2.00000
   3902      -5.7252      2.00000
   3903      -5.7245      2.00000
   3904      -5.7204      2.00000
   3905      -5.7217      2.00000
   3906      -5.7329      2.00000
   3907      -5.7311      2.00000
   3908      -5.7318      2.00000
   3909      -5.7287      2.00000
   3910      -5.7265      2.00000
   3911      -5.7137      2.00000
   3912      -5.7131      2.00000
   3913      -5.7132      2.00000
   3914      -5.7247      2.00000
   3915      -5.7220      2.00000
   3916      -5.7215      2.00000
   3917      -5.7081      2.00000
   3918      -5.7078      2.00000
   3919      -5.7146      2.00000
   3920      -5.7198      2.00000
   3921      -5.7096      2.00000
   3922      -5.7188      2.00000
   3923      -5.7200      2.00000
   3924      -5.7176      2.00000
   3925      -5.7103      2.00000
   3926      -5.7115      2.00000
   3927      -5.7061      2.00000
   3928      -5.6882      2.00000
   3929      -5.6851      2.00000
   3930      -5.6889      2.00000
   3931      -5.6873      2.00000
   3932      -5.6930      2.00000
   3933      -5.6985      2.00000
   3934      -5.7006      2.00000
   3935      -5.6930      2.00000
   3936      -5.6785      2.00000
   3937      -5.6811      2.00000
   3938      -5.6789      2.00000
   3939      -5.6726      2.00000
   3940      -5.6916      2.00000
   3941      -5.6656      2.00000
   3942      -5.6734      2.00000
   3943      -5.6642      2.00000
   3944      -5.6813      2.00000
   3945      -5.6889      2.00000
   3946      -5.6843      2.00000
   3947      -5.6634      2.00000
   3948      -5.6651      2.00000
   3949      -5.6545      2.00000
   3950      -5.6683      2.00000
   3951      -5.6572      2.00000
   3952      -5.6619      2.00000
   3953      -5.6692      2.00000
   3954      -5.6517      2.00000
   3955      -5.6618      2.00000
   3956      -5.6525      2.00000
   3957      -5.6573      2.00000
   3958      -5.6626      2.00000
   3959      -5.6530      2.00000
   3960      -5.6556      2.00000
   3961      -5.6451      2.00000
   3962      -5.6442      2.00000
   3963      -5.6583      2.00000
   3964      -5.6508      2.00000
   3965      -5.6559      2.00000
   3966      -5.6608      2.00000
   3967      -5.6477      2.00000
   3968      -5.6380      2.00000
   3969      -5.6364      2.00000
   3970      -5.6533      2.00000
   3971      -5.6303      2.00000
   3972      -5.6313      2.00000
   3973      -5.6413      2.00000
   3974      -5.6420      2.00000
   3975      -5.6393      2.00000
   3976      -5.6193      2.00000
   3977      -5.6210      2.00000
   3978      -5.6184      2.00000
   3979      -5.6190      2.00000
   3980      -5.6138      2.00000
   3981      -5.6333      2.00000
   3982      -5.6376      2.00000
   3983      -5.6312      2.00000
   3984      -5.6306      2.00000
   3985      -5.6223      2.00000
   3986      -5.6243      2.00000
   3987      -5.6231      2.00000
   3988      -5.6164      2.00000
   3989      -5.6043      2.00000
   3990      -5.6030      2.00000
   3991      -5.6135      2.00000
   3992      -5.6127      2.00000
   3993      -5.6180      2.00000
   3994      -5.6244      2.00000
   3995      -5.6051      2.00000
   3996      -5.5971      2.00000
   3997      -5.5982      2.00000
   3998      -5.5954      2.00000
   3999      -5.5959      2.00000
   4000      -5.5949      2.00000
   4001      -5.5974      2.00000
   4002      -5.5957      2.00000
   4003      -5.5930      2.00000
   4004      -5.5932      2.00000
   4005      -5.5993      2.00000
   4006      -5.5969      2.00000
   4007      -5.6084      2.00000
   4008      -5.6054      2.00000
   4009      -5.6016      2.00000
   4010      -5.6046      2.00000
   4011      -5.6014      2.00000
   4012      -5.5806      2.00000
   4013      -5.5986      2.00000
   4014      -5.6006      2.00000
   4015      -5.5863      2.00000
   4016      -5.5915      2.00000
   4017      -5.5902      2.00000
   4018      -5.5724      2.00000
   4019      -5.5680      2.00000
   4020      -5.5731      2.00000
   4021      -5.5712      2.00000
   4022      -5.5736      2.00000
   4023      -5.5733      2.00000
   4024      -5.5831      2.00000
   4025      -5.5816      2.00000
   4026      -5.5813      2.00000
   4027      -5.5819      2.00000
   4028      -5.5712      2.00000
   4029      -5.5811      2.00000
   4030      -5.5806      2.00000
   4031      -5.5711      2.00000
   4032      -5.5620      2.00000
   4033      -5.5686      2.00000
   4034      -5.5749      2.00000
   4035      -5.5755      2.00000
   4036      -5.5526      2.00000
   4037      -5.5529      2.00000
   4038      -5.5581      2.00000
   4039      -5.5678      2.00000
   4040      -5.5759      2.00000
   4041      -5.5550      2.00000
   4042      -5.5498      2.00000
   4043      -5.5325      2.00000
   4044      -5.5348      2.00000
   4045      -5.5362      2.00000
   4046      -5.5332      2.00000
   4047      -5.5386      2.00000
   4048      -5.5475      2.00000
   4049      -5.5466      2.00000
   4050      -5.5497      2.00000
   4051      -5.5535      2.00000
   4052      -5.5210      2.00000
   4053      -5.5255      2.00000
   4054      -5.5400      2.00000
   4055      -5.5369      2.00000
   4056      -5.5195      2.00000
   4057      -5.5166      2.00000
   4058      -5.5163      2.00000
   4059      -5.5166      2.00000
   4060      -5.5169      2.00000
   4061      -5.5301      2.00000
   4062      -5.5165      2.00000
   4063      -5.5139      2.00000
   4064      -5.5183      2.00000
   4065      -5.5255      2.00000
   4066      -5.5244      2.00000
   4067      -5.5225      2.00000
   4068      -5.5046      2.00000
   4069      -5.5057      2.00000
   4070      -5.5049      2.00000
   4071      -5.5036      2.00000
   4072      -5.5061      2.00000
   4073      -5.5089      2.00000
   4074      -5.5067      2.00000
   4075      -5.5138      2.00000
   4076      -5.5146      2.00000
   4077      -5.5112      2.00000
   4078      -5.5064      2.00000
   4079      -5.5043      2.00000
   4080      -5.5034      2.00000
   4081      -5.5088      2.00000
   4082      -5.5069      2.00000
   4083      -5.5090      2.00000
   4084      -5.5100      2.00000
   4085      -5.5083      2.00000
   4086      -5.5005      2.00000
   4087      -5.5019      2.00000
   4088      -5.5009      2.00000
   4089      -5.4977      2.00000
   4090      -5.4919      2.00000
   4091      -5.4794      2.00000
   4092      -5.4975      2.00000
   4093      -5.4881      2.00000
   4094      -5.4895      2.00000
   4095      -5.4783      2.00000
   4096      -5.4719      2.00000
   4097      -5.4931      2.00000
   4098      -5.4710      2.00000
   4099      -5.4913      2.00000
   4100      -5.4890      2.00000
   4101      -5.4863      2.00000
   4102      -5.4834      2.00000
   4103      -5.4809      2.00000
   4104      -5.4781      2.00000
   4105      -5.4694      2.00000
   4106      -5.4658      2.00000
   4107      -5.4803      2.00000
   4108      -5.4808      2.00000
   4109      -5.4813      2.00000
   4110      -5.4548      2.00000
   4111      -5.4658      2.00000
   4112      -5.4620      2.00000
   4113      -5.4608      2.00000
   4114      -5.4432      2.00000
   4115      -5.4539      2.00000
   4116      -5.4512      2.00000
   4117      -5.4468      2.00000
   4118      -5.4570      2.00000
   4119      -5.4500      2.00000
   4120      -5.4526      2.00000
   4121      -5.4488      2.00000
   4122      -5.4544      2.00000
   4123      -5.4256      2.00000
   4124      -5.4514      2.00000
   4125      -5.4403      2.00000
   4126      -5.4285      2.00000
   4127      -5.4086      2.00000
   4128      -5.4176      2.00000
   4129      -5.4108      2.00000
   4130      -5.4166      2.00000
   4131      -5.4152      2.00000
   4132      -5.4108      2.00000
   4133      -5.4112      2.00000
   4134      -5.4070      2.00000
   4135      -5.4061      2.00000
   4136      -5.4035      2.00000
   4137      -5.4061      2.00000
   4138      -5.4161      2.00000
   4139      -5.4052      2.00000
   4140      -5.4147      2.00000
   4141      -5.4043      2.00000
   4142      -5.3913      2.00000
   4143      -5.3952      2.00000
   4144      -5.3963      2.00000
   4145      -5.3912      2.00000
   4146      -5.3880      2.00000
   4147      -5.3868      2.00000
   4148      -5.3903      2.00000
   4149      -5.3869      2.00000
   4150      -5.3869      2.00000
   4151      -5.3912      2.00000
   4152      -5.3873      2.00000
   4153      -5.3932      2.00000
   4154      -5.3987      2.00000
   4155      -5.3736      2.00000
   4156      -5.3865      2.00000
   4157      -5.3793      2.00000
   4158      -5.3835      2.00000
   4159      -5.3773      2.00000
   4160      -5.3801      2.00000
   4161      -5.3797      2.00000
   4162      -5.3863      2.00000
   4163      -5.3770      2.00000
   4164      -5.3792      2.00000
   4165      -5.3817      2.00000
   4166      -5.3802      2.00000
   4167      -5.3776      2.00000
   4168      -5.3699      2.00000
   4169      -5.3741      2.00000
   4170      -5.3705      2.00000
   4171      -5.3694      2.00000
   4172      -5.3711      2.00000
   4173      -5.3675      2.00000
   4174      -5.3679      2.00000
   4175      -5.3665      2.00000
   4176      -5.3677      2.00000
   4177      -5.3693      2.00000
   4178      -5.3734      2.00000
   4179      -5.3663      2.00000
   4180      -5.3543      2.00000
   4181      -5.3619      2.00000
   4182      -5.3661      2.00000
   4183      -5.3676      2.00000
   4184      -5.3673      2.00000
   4185      -5.3633      2.00000
   4186      -5.3582      2.00000
   4187      -5.3627      2.00000
   4188      -5.3645      2.00000
   4189      -5.3643      2.00000
   4190      -5.3576      2.00000
   4191      -5.3381      2.00000
   4192      -5.3591      2.00000
   4193      -5.3589      2.00000
   4194      -5.3514      2.00000
   4195      -5.3464      2.00000
   4196      -5.3463      2.00000
   4197      -5.3385      2.00000
   4198      -5.3405      2.00000
   4199      -5.3388      2.00000
   4200      -5.3358      2.00000
   4201      -5.3387      2.00000
   4202      -5.3386      2.00000
   4203      -5.3367      2.00000
   4204      -5.3198      2.00000
   4205      -5.3203      2.00000
   4206      -5.3220      2.00000
   4207      -5.3305      2.00000
   4208      -5.3205      2.00000
   4209      -5.3182      2.00000
   4210      -5.3151      2.00000
   4211      -5.3329      2.00000
   4212      -5.3301      2.00000
   4213      -5.3293      2.00000
   4214      -5.3259      2.00000
   4215      -5.3233      2.00000
   4216      -5.3176      2.00000
   4217      -5.3251      2.00000
   4218      -5.3108      2.00000
   4219      -5.3086      2.00000
   4220      -5.3138      2.00000
   4221      -5.3213      2.00000
   4222      -5.3134      2.00000
   4223      -5.3253      2.00000
   4224      -5.3273      2.00000
   4225      -5.3320      2.00000
   4226      -5.3259      2.00000
   4227      -5.3164      2.00000
   4228      -5.3273      2.00000
   4229      -5.3223      2.00000
   4230      -5.3196      2.00000
   4231      -5.3145      2.00000
   4232      -5.3029      2.00000
   4233      -5.3121      2.00000
   4234      -5.2973      2.00000
   4235      -5.2997      2.00000
   4236      -5.3073      2.00000
   4237      -5.3133      2.00000
   4238      -5.3114      2.00000
   4239      -5.2982      2.00000
   4240      -5.3155      2.00000
   4241      -5.3076      2.00000
   4242      -5.3119      2.00000
   4243      -5.3064      2.00000
   4244      -5.3040      2.00000
   4245      -5.3084      2.00000
   4246      -5.3024      2.00000
   4247      -5.3029      2.00000
   4248      -5.3077      2.00000
   4249      -5.2993      2.00000
   4250      -5.3042      2.00000
   4251      -5.3009      2.00000
   4252      -5.3011      2.00000
   4253      -5.2989      2.00000
   4254      -5.3020      2.00000
   4255      -5.2912      2.00000
   4256      -5.2715      2.00000
   4257      -5.2980      2.00000
   4258      -5.2816      2.00000
   4259      -5.2693      2.00000
   4260      -5.2466      2.00000
   4261      -5.2582      2.00000
   4262      -5.2791      2.00000
   4263      -5.2714      2.00000
   4264      -5.2310      2.00000
   4265      -5.2315      2.00000
   4266      -5.2285      2.00000
   4267      -5.2287      2.00000
   4268      -5.2277      2.00000
   4269      -5.2271      2.00000
   4270      -5.2226      2.00000
   4271      -5.2203      2.00000
   4272      -5.2263      2.00000
   4273      -5.2396      2.00000
   4274      -5.2360      2.00000
   4275      -5.2334      2.00000
   4276      -5.2201      2.00000
   4277      -5.2246      2.00000
   4278      -5.2208      2.00000
   4279      -5.2235      2.00000
   4280      -5.2192      2.00000
   4281      -5.2187      2.00000
   4282      -5.2179      2.00000
   4283      -5.2145      2.00000
   4284      -5.1766      2.00000
   4285      -5.1772      2.00000
   4286      -5.1998      2.00000
   4287      -5.1733      2.00000
   4288      -5.1807      2.00000
   4289      -5.1643      2.00000
   4290      -5.1609      2.00000
   4291      -5.1608      2.00000
   4292      -5.1503      2.00000
   4293      -5.1703      2.00000
   4294      -5.1671      2.00000
   4295      -5.1652      2.00000
   4296      -5.1633      2.00000
   4297      -5.1287      2.00000
   4298      -5.1287      2.00000
   4299      -5.1548      2.00000
   4300      -5.1520      2.00000
   4301      -5.1543      2.00000
   4302      -5.1126      2.00000
   4303      -5.1070      2.00000
   4304      -5.1370      2.00000
   4305      -5.1185      2.00000
   4306      -5.1187      2.00000
   4307      -5.0848      2.00000
   4308      -5.0817      2.00000
   4309      -5.0978      2.00000
   4310      -5.0993      2.00000
   4311      -5.0937      2.00000
   4312      -5.0748      2.00000
   4313      -5.0751      2.00000
   4314      -5.0324      2.00000
   4315      -5.0187      2.00000
   4316      -4.9888      2.00000
   4317      -5.0086      2.00000
   4318      -4.9582      2.00000
   4319      -4.9794      2.00000
   4320      -4.9711      2.00000
   4321       2.9260      0.00000
   4322       3.0306      0.00000
   4323       3.0447      0.00000
   4324       3.0398      0.00000
   4325       3.0737      0.00000
   4326       3.1129      0.00000
   4327       3.1245      0.00000
   4328       3.0839      0.00000
   4329       3.0765      0.00000
   4330       3.1445      0.00000
   4331       3.1440      0.00000
   4332       3.1424      0.00000
   4333       3.1975      0.00000
   4334       3.1999      0.00000
   4335       3.1817      0.00000
   4336       3.2180      0.00000
   4337       3.2022      0.00000
   4338       3.2083      0.00000
   4339       3.2442      0.00000
   4340       3.2723      0.00000
   4341       3.2415      0.00000
   4342       3.2864      0.00000
   4343       3.2608      0.00000
   4344       3.2893      0.00000
   4345       3.2933      0.00000
   4346       3.2812      0.00000
   4347       3.2749      0.00000
   4348       3.3056      0.00000
   4349       3.3151      0.00000
   4350       3.3141      0.00000
   4351       3.3146      0.00000
   4352       3.3130      0.00000
   4353       3.3366      0.00000
   4354       3.3365      0.00000
   4355       3.3417      0.00000
   4356       3.3107      0.00000
   4357       3.3484      0.00000
   4358       3.3434      0.00000
   4359       3.3415      0.00000
   4360       3.3382      0.00000
   4361       3.3503      0.00000
   4362       3.3447      0.00000
   4363       3.3455      0.00000
   4364       3.3507      0.00000
   4365       3.3397      0.00000
   4366       3.3692      0.00000
   4367       3.3778      0.00000
   4368       3.3780      0.00000
   4369       3.3838      0.00000
   4370       3.3796      0.00000
   4371       3.3751      0.00000
   4372       3.3829      0.00000
   4373       3.3666      0.00000
   4374       3.3785      0.00000
   4375       3.3893      0.00000
   4376       3.3705      0.00000
   4377       3.3882      0.00000
   4378       3.3878      0.00000
   4379       3.3812      0.00000
   4380       3.3877      0.00000
   4381       3.3989      0.00000
   4382       3.4004      0.00000
   4383       3.3965      0.00000
   4384       3.3858      0.00000
   4385       3.3990      0.00000
   4386       3.3991      0.00000
   4387       3.3867      0.00000
   4388       3.3972      0.00000
   4389       3.4127      0.00000
   4390       3.4167      0.00000
   4391       3.4320      0.00000
   4392       3.4324      0.00000
   4393       3.4186      0.00000
   4394       3.4153      0.00000
   4395       3.4374      0.00000
   4396       3.4249      0.00000
   4397       3.4347      0.00000
   4398       3.4194      0.00000
   4399       3.4360      0.00000
   4400       3.4267      0.00000
   4401       3.4569      0.00000
   4402       3.4701      0.00000
   4403       3.4529      0.00000
   4404       3.4700      0.00000
   4405       3.4409      0.00000
   4406       3.4572      0.00000
   4407       3.4830      0.00000
   4408       3.4848      0.00000
   4409       3.4854      0.00000
   4410       3.4693      0.00000
   4411       3.4921      0.00000
   4412       3.4844      0.00000
   4413       3.4856      0.00000
   4414       3.4802      0.00000
   4415       3.4917      0.00000
   4416       3.4927      0.00000
   4417       3.4979      0.00000
   4418       3.4934      0.00000
   4419       3.4982      0.00000
   4420       3.5053      0.00000
   4421       3.4955      0.00000
   4422       3.4968      0.00000
   4423       3.5019      0.00000
   4424       3.5085      0.00000
   4425       3.5103      0.00000
   4426       3.5133      0.00000
   4427       3.5095      0.00000
   4428       3.5028      0.00000
   4429       3.5140      0.00000
   4430       3.5016      0.00000
   4431       3.4990      0.00000
   4432       3.5001      0.00000
   4433       3.5029      0.00000
   4434       3.5032      0.00000
   4435       3.5193      0.00000
   4436       3.5212      0.00000
   4437       3.5165      0.00000
   4438       3.5208      0.00000
   4439       3.5298      0.00000
   4440       3.5259      0.00000
   4441       3.5237      0.00000
   4442       3.5207      0.00000
   4443       3.5208      0.00000
   4444       3.5267      0.00000
   4445       3.5421      0.00000
   4446       3.5278      0.00000
   4447       3.5355      0.00000
   4448       3.5241      0.00000
   4449       3.5238      0.00000
   4450       3.5283      0.00000
   4451       3.5325      0.00000
   4452       3.5584      0.00000
   4453       3.5349      0.00000
   4454       3.5383      0.00000
   4455       3.5410      0.00000
   4456       3.5407      0.00000
   4457       3.5425      0.00000
   4458       3.5747      0.00000
   4459       3.5701      0.00000
   4460       3.5581      0.00000
   4461       3.5622      0.00000
   4462       3.5853      0.00000
   4463       3.5744      0.00000
   4464       3.5831      0.00000
   4465       3.5843      0.00000
   4466       3.5855      0.00000
   4467       3.5864      0.00000
   4468       3.5951      0.00000
   4469       3.5855      0.00000
   4470       3.5788      0.00000
   4471       3.6006      0.00000
   4472       3.6010      0.00000
   4473       3.6081      0.00000
   4474       3.6073      0.00000
   4475       3.6141      0.00000
   4476       3.5872      0.00000
   4477       3.6075      0.00000
   4478       3.6254      0.00000
   4479       3.6267      0.00000
   4480       3.6086      0.00000
   4481       3.6097      0.00000
   4482       3.6148      0.00000
   4483       3.6167      0.00000
   4484       3.6194      0.00000
   4485       3.6366      0.00000
   4486       3.6483      0.00000
   4487       3.6462      0.00000
   4488       3.6502      0.00000
   4489       3.6473      0.00000
   4490       3.6382      0.00000
   4491       3.6292      0.00000
   4492       3.6318      0.00000
   4493       3.6480      0.00000
   4494       3.6603      0.00000
   4495       3.6633      0.00000
   4496       3.6616      0.00000
   4497       3.6679      0.00000
   4498       3.6743      0.00000
   4499       3.6539      0.00000
   4500       3.6580      0.00000
   4501       3.6811      0.00000
   4502       3.6742      0.00000
   4503       3.6496      0.00000
   4504       3.6503      0.00000
   4505       3.6552      0.00000
   4506       3.6934      0.00000
   4507       3.6958      0.00000
   4508       3.6928      0.00000
   4509       3.6586      0.00000
   4510       3.6726      0.00000
   4511       3.6787      0.00000
   4512       3.6829      0.00000
   4513       3.7023      0.00000
   4514       3.7065      0.00000
   4515       3.7150      0.00000
   4516       3.7063      0.00000
   4517       3.7145      0.00000
   4518       3.6942      0.00000
   4519       3.6988      0.00000
   4520       3.7225      0.00000
   4521       3.7153      0.00000
   4522       3.7145      0.00000
   4523       3.7108      0.00000
   4524       3.7289      0.00000
   4525       3.7203      0.00000
   4526       3.7280      0.00000
   4527       3.7295      0.00000
   4528       3.7322      0.00000
   4529       3.7166      0.00000
   4530       3.7171      0.00000
   4531       3.7158      0.00000
   4532       3.7226      0.00000
   4533       3.7262      0.00000
   4534       3.7502      0.00000
   4535       3.7480      0.00000
   4536       3.7310      0.00000
   4537       3.7338      0.00000
   4538       3.7384      0.00000
   4539       3.7384      0.00000
   4540       3.7511      0.00000
   4541       3.7720      0.00000
   4542       3.7744      0.00000
   4543       3.7759      0.00000
   4544       3.7842      0.00000
   4545       3.7666      0.00000
   4546       3.7830      0.00000
   4547       3.7812      0.00000
   4548       3.7885      0.00000
   4549       3.7789      0.00000
   4550       3.7698      0.00000
   4551       3.7726      0.00000
   4552       3.7714      0.00000
   4553       3.7653      0.00000
   4554       3.7900      0.00000
   4555       3.7972      0.00000
   4556       3.7844      0.00000
   4557       3.8105      0.00000
   4558       3.8074      0.00000
   4559       3.8171      0.00000
   4560       3.8082      0.00000
   4561       3.8126      0.00000
   4562       3.8111      0.00000
   4563       3.8198      0.00000
   4564       3.8177      0.00000
   4565       3.8064      0.00000
   4566       3.8174      0.00000
   4567       3.8078      0.00000
   4568       3.8058      0.00000
   4569       3.8079      0.00000
   4570       3.8141      0.00000
   4571       3.8372      0.00000
   4572       3.8551      0.00000
   4573       3.8312      0.00000
   4574       3.8589      0.00000
   4575       3.8614      0.00000
   4576       3.8471      0.00000
   4577       3.8607      0.00000
   4578       3.8451      0.00000
   4579       3.8503      0.00000
   4580       3.8477      0.00000
   4581       3.8532      0.00000
   4582       3.8641      0.00000
   4583       3.8671      0.00000
   4584       3.8844      0.00000
   4585       3.8620      0.00000
   4586       3.8667      0.00000
   4587       3.8689      0.00000
   4588       3.8972      0.00000
   4589       3.8649      0.00000
   4590       3.8832      0.00000
   4591       3.8823      0.00000
   4592       3.9040      0.00000
   4593       3.8954      0.00000
   4594       3.9282      0.00000
   4595       3.9485      0.00000
   4596       3.9508      0.00000
   4597       3.9433      0.00000
   4598       3.9464      0.00000
   4599       3.9411      0.00000
   4600       3.9510      0.00000
   4601       3.9532      0.00000
   4602       3.9328      0.00000
   4603       3.9614      0.00000
   4604       3.9535      0.00000
   4605       3.9751      0.00000
   4606       3.9721      0.00000
   4607       3.9892      0.00000
   4608       3.9824      0.00000
   4609       3.9742      0.00000
   4610       3.9932      0.00000
   4611       3.9951      0.00000
   4612       3.9911      0.00000
   4613       3.9874      0.00000
   4614       3.9677      0.00000
   4615       4.0121      0.00000
   4616       3.9976      0.00000
   4617       4.0231      0.00000
   4618       4.0160      0.00000
   4619       4.0229      0.00000
   4620       4.0287      0.00000
   4621       4.0157      0.00000
   4622       4.0279      0.00000
   4623       4.0244      0.00000
   4624       4.0108      0.00000
   4625       4.0304      0.00000
   4626       4.0242      0.00000
   4627       4.0258      0.00000
   4628       4.0253      0.00000
   4629       4.0429      0.00000
   4630       4.0423      0.00000
   4631       4.0316      0.00000
   4632       4.0263      0.00000
   4633       4.0331      0.00000
   4634       4.0478      0.00000
   4635       4.0458      0.00000
   4636       4.0408      0.00000
   4637       4.0299      0.00000
   4638       4.0349      0.00000
   4639       4.0411      0.00000
   4640       4.0552      0.00000
   4641       4.0551      0.00000
   4642       4.0494      0.00000
   4643       4.0620      0.00000
   4644       4.0727      0.00000
   4645       4.0670      0.00000
   4646       4.0686      0.00000
   4647       4.0701      0.00000
   4648       4.0645      0.00000
   4649       4.0638      0.00000
   4650       4.0695      0.00000
   4651       4.0672      0.00000
   4652       4.0791      0.00000
   4653       4.0776      0.00000
   4654       4.0865      0.00000
   4655       4.0823      0.00000
   4656       4.0646      0.00000
   4657       4.0796      0.00000
   4658       4.0713      0.00000
   4659       4.0713      0.00000
   4660       4.0779      0.00000
   4661       4.0794      0.00000
   4662       4.0847      0.00000
   4663       4.0910      0.00000
   4664       4.0894      0.00000
   4665       4.1151      0.00000
   4666       4.1009      0.00000
   4667       4.1182      0.00000
   4668       4.1185      0.00000
   4669       4.0981      0.00000
   4670       4.1042      0.00000
   4671       4.1026      0.00000
   4672       4.0944      0.00000
   4673       4.1222      0.00000
   4674       4.1410      0.00000
   4675       4.1155      0.00000
   4676       4.1141      0.00000
   4677       4.1440      0.00000
   4678       4.1464      0.00000
   4679       4.1245      0.00000
   4680       4.1242      0.00000
   4681       4.1376      0.00000
   4682       4.1430      0.00000
   4683       4.1527      0.00000
   4684       4.1218      0.00000
   4685       4.1333      0.00000
   4686       4.1670      0.00000
   4687       4.1678      0.00000
   4688       4.1437      0.00000
   4689       4.1383      0.00000
   4690       4.1708      0.00000
   4691       4.1362      0.00000
   4692       4.1570      0.00000
   4693       4.1544      0.00000
   4694       4.1724      0.00000
   4695       4.1533      0.00000
   4696       4.1727      0.00000
   4697       4.1747      0.00000
   4698       4.1751      0.00000
   4699       4.1770      0.00000
   4700       4.1636      0.00000
   4701       4.1658      0.00000
   4702       4.1671      0.00000
   4703       4.1700      0.00000
   4704       4.1774      0.00000
   4705       4.1789      0.00000
   4706       4.1760      0.00000
   4707       4.1785      0.00000
   4708       4.1881      0.00000
   4709       4.1724      0.00000
   4710       4.1708      0.00000
   4711       4.1784      0.00000
   4712       4.1730      0.00000
   4713       4.1945      0.00000
   4714       4.1762      0.00000
   4715       4.1877      0.00000
   4716       4.1928      0.00000
   4717       4.1937      0.00000
   4718       4.1738      0.00000
   4719       4.1955      0.00000
   4720       4.1833      0.00000
   4721       4.2118      0.00000
   4722       4.1976      0.00000
   4723       4.1902      0.00000
   4724       4.2024      0.00000
   4725       4.2034      0.00000
   4726       4.2068      0.00000
   4727       4.2017      0.00000
   4728       4.2208      0.00000
   4729       4.2269      0.00000
   4730       4.2273      0.00000
   4731       4.2209      0.00000
   4732       4.2287      0.00000
   4733       4.2274      0.00000
   4734       4.2304      0.00000
   4735       4.2170      0.00000
   4736       4.2263      0.00000
   4737       4.2273      0.00000
   4738       4.2264      0.00000
   4739       4.2276      0.00000
   4740       4.2320      0.00000
   4741       4.2397      0.00000
   4742       4.2207      0.00000
   4743       4.2173      0.00000
   4744       4.2367      0.00000
   4745       4.2392      0.00000
   4746       4.2439      0.00000
   4747       4.2392      0.00000
   4748       4.2444      0.00000
   4749       4.2399      0.00000
   4750       4.2318      0.00000
   4751       4.2205      0.00000
   4752       4.2227      0.00000
   4753       4.2257      0.00000
   4754       4.2287      0.00000
   4755       4.2621      0.00000
   4756       4.2638      0.00000
   4757       4.2653      0.00000
   4758       4.2559      0.00000
   4759       4.2459      0.00000
   4760       4.2477      0.00000
   4761       4.2497      0.00000
   4762       4.2569      0.00000
   4763       4.2590      0.00000
   4764       4.2612      0.00000
   4765       4.2673      0.00000
   4766       4.2555      0.00000
   4767       4.2565      0.00000
   4768       4.2901      0.00000
   4769       4.2632      0.00000
   4770       4.2637      0.00000
   4771       4.2911      0.00000
   4772       4.2698      0.00000
   4773       4.2787      0.00000
   4774       4.3001      0.00000
   4775       4.2948      0.00000
   4776       4.2891      0.00000
   4777       4.2788      0.00000
   4778       4.2835      0.00000
   4779       4.3013      0.00000
   4780       4.2849      0.00000
   4781       4.3074      0.00000
   4782       4.2944      0.00000
   4783       4.2892      0.00000
   4784       4.3073      0.00000
   4785       4.3133      0.00000
   4786       4.3015      0.00000
   4787       4.3043      0.00000
   4788       4.2962      0.00000
   4789       4.3026      0.00000
   4790       4.2988      0.00000
   4791       4.3008      0.00000
   4792       4.2969      0.00000
   4793       4.3160      0.00000
   4794       4.3151      0.00000
   4795       4.3051      0.00000
   4796       4.3352      0.00000
   4797       4.3418      0.00000
   4798       4.3302      0.00000
   4799       4.3320      0.00000
   4800       4.3358      0.00000
   4801       4.3430      0.00000
   4802       4.3456      0.00000
   4803       4.3388      0.00000
   4804       4.3578      0.00000
   4805       4.3585      0.00000
   4806       4.3683      0.00000
   4807       4.3693      0.00000
   4808       4.3398      0.00000
   4809       4.3623      0.00000
   4810       4.3702      0.00000
   4811       4.3750      0.00000
   4812       4.3787      0.00000
   4813       4.3711      0.00000
   4814       4.3886      0.00000
   4815       4.3782      0.00000
   4816       4.3764      0.00000
   4817       4.3920      0.00000
   4818       4.3811      0.00000
   4819       4.3814      0.00000
   4820       4.3825      0.00000
   4821       4.3967      0.00000
   4822       4.3945      0.00000
   4823       4.3909      0.00000
   4824       4.3988      0.00000
   4825       4.3738      0.00000
   4826       4.3737      0.00000
   4827       4.4017      0.00000
   4828       4.4031      0.00000
   4829       4.4066      0.00000
   4830       4.3992      0.00000
   4831       4.4009      0.00000
   4832       4.4056      0.00000
   4833       4.4060      0.00000
   4834       4.4222      0.00000
   4835       4.4294      0.00000
   4836       4.4194      0.00000
   4837       4.4194      0.00000
   4838       4.4280      0.00000
   4839       4.4274      0.00000
   4840       4.4342      0.00000
   4841       4.4257      0.00000
   4842       4.4353      0.00000
   4843       4.4459      0.00000
   4844       4.4353      0.00000
   4845       4.4421      0.00000
   4846       4.4319      0.00000
   4847       4.4330      0.00000
   4848       4.4254      0.00000
   4849       4.4395      0.00000
   4850       4.4418      0.00000
   4851       4.4374      0.00000
   4852       4.4483      0.00000
   4853       4.4607      0.00000
   4854       4.4504      0.00000
   4855       4.4556      0.00000
   4856       4.4560      0.00000
   4857       4.4535      0.00000
   4858       4.4625      0.00000
   4859       4.4505      0.00000
   4860       4.4672      0.00000
   4861       4.4557      0.00000
   4862       4.4701      0.00000
   4863       4.4561      0.00000
   4864       4.4525      0.00000
   4865       4.4561      0.00000
   4866       4.4474      0.00000
   4867       4.4495      0.00000
   4868       4.4566      0.00000
   4869       4.4549      0.00000
   4870       4.4896      0.00000
   4871       4.4801      0.00000
   4872       4.4945      0.00000
   4873       4.4696      0.00000
   4874       4.4907      0.00000
   4875       4.4913      0.00000
   4876       4.4921      0.00000
   4877       4.4738      0.00000
   4878       4.4904      0.00000
   4879       4.4882      0.00000
   4880       4.5010      0.00000
   4881       4.5038      0.00000
   4882       4.5031      0.00000
   4883       4.5001      0.00000
   4884       4.5011      0.00000
   4885       4.4996      0.00000
   4886       4.5003      0.00000
   4887       4.5078      0.00000
   4888       4.5083      0.00000
   4889       4.5127      0.00000
   4890       4.5024      0.00000
   4891       4.4911      0.00000
   4892       4.5042      0.00000
   4893       4.5119      0.00000
   4894       4.5123      0.00000
   4895       4.5034      0.00000
   4896       4.4910      0.00000
   4897       4.5016      0.00000
   4898       4.5003      0.00000
   4899       4.5182      0.00000
   4900       4.5299      0.00000
   4901       4.5265      0.00000
   4902       4.5345      0.00000
   4903       4.5212      0.00000
   4904       4.5276      0.00000
   4905       4.5370      0.00000
   4906       4.5331      0.00000
   4907       4.5396      0.00000
   4908       4.5372      0.00000
   4909       4.5197      0.00000
   4910       4.5406      0.00000
   4911       4.5381      0.00000
   4912       4.5547      0.00000
   4913       4.5498      0.00000
   4914       4.5353      0.00000
   4915       4.5509      0.00000
   4916       4.5414      0.00000
   4917       4.5508      0.00000
   4918       4.5569      0.00000
   4919       4.5494      0.00000
   4920       4.5437      0.00000
   4921       4.5453      0.00000
   4922       4.5619      0.00000
   4923       4.5482      0.00000
   4924       4.5427      0.00000
   4925       4.5565      0.00000
   4926       4.5484      0.00000
   4927       4.5647      0.00000
   4928       4.5544      0.00000
   4929       4.5609      0.00000
   4930       4.5460      0.00000
   4931       4.5562      0.00000
   4932       4.5433      0.00000
   4933       4.5509      0.00000
   4934       4.5631      0.00000
   4935       4.5561      0.00000
   4936       4.5706      0.00000
   4937       4.5788      0.00000
   4938       4.5608      0.00000
   4939       4.5668      0.00000
   4940       4.5647      0.00000
   4941       4.5697      0.00000
   4942       4.5644      0.00000
   4943       4.5676      0.00000
   4944       4.5806      0.00000
   4945       4.5790      0.00000
   4946       4.5732      0.00000
   4947       4.5752      0.00000
   4948       4.5762      0.00000
   4949       4.5804      0.00000
   4950       4.5754      0.00000
   4951       4.5836      0.00000
   4952       4.5827      0.00000
   4953       4.5855      0.00000
   4954       4.5756      0.00000
   4955       4.5751      0.00000
   4956       4.5759      0.00000
   4957       4.5872      0.00000
   4958       4.5899      0.00000
   4959       4.5846      0.00000
   4960       4.5845      0.00000
   4961       4.5871      0.00000
   4962       4.5905      0.00000
   4963       4.5927      0.00000
   4964       4.5889      0.00000
   4965       4.6087      0.00000
   4966       4.6008      0.00000
   4967       4.6041      0.00000
   4968       4.6072      0.00000
   4969       4.6070      0.00000
   4970       4.6017      0.00000
   4971       4.6074      0.00000
   4972       4.6019      0.00000
   4973       4.5997      0.00000
   4974       4.6051      0.00000
   4975       4.6035      0.00000
   4976       4.6139      0.00000
   4977       4.6230      0.00000
   4978       4.6091      0.00000
   4979       4.6142      0.00000
   4980       4.6168      0.00000
   4981       4.6018      0.00000
   4982       4.6212      0.00000
   4983       4.6100      0.00000
   4984       4.6070      0.00000
   4985       4.6081      0.00000
   4986       4.6014      0.00000
   4987       4.6128      0.00000
   4988       4.6093      0.00000
   4989       4.6211      0.00000
   4990       4.6198      0.00000
   4991       4.6324      0.00000
   4992       4.6351      0.00000
   4993       4.6307      0.00000
   4994       4.6242      0.00000
   4995       4.6189      0.00000
   4996       4.6302      0.00000
   4997       4.6405      0.00000
   4998       4.6381      0.00000
   4999       4.6276      0.00000
   5000       4.6292      0.00000
   5001       4.6285      0.00000
   5002       4.6390      0.00000
   5003       4.6663      0.00000
   5004       4.6637      0.00000
   5005       4.6615      0.00000
   5006       4.6422      0.00000
   5007       4.6285      0.00000
   5008       4.6702      0.00000
   5009       4.6703      0.00000
   5010       4.6399      0.00000
   5011       4.6657      0.00000
   5012       4.6527      0.00000
   5013       4.6712      0.00000
   5014       4.6616      0.00000
   5015       4.6584      0.00000
   5016       4.6468      0.00000
   5017       4.6491      0.00000
   5018       4.6503      0.00000
   5019       4.6626      0.00000
   5020       4.6615      0.00000
   5021       4.6703      0.00000
   5022       4.6590      0.00000
   5023       4.6691      0.00000
   5024       4.6593      0.00000
   5025       4.6618      0.00000
   5026       4.6630      0.00000
   5027       4.6720      0.00000
   5028       4.6578      0.00000
   5029       4.6766      0.00000
   5030       4.6751      0.00000
   5031       4.6739      0.00000
   5032       4.6671      0.00000
   5033       4.6828      0.00000
   5034       4.6764      0.00000
   5035       4.6860      0.00000
   5036       4.6869      0.00000
   5037       4.6983      0.00000
   5038       4.6886      0.00000
   5039       4.6905      0.00000
   5040       4.6974      0.00000
   5041       4.6986      0.00000
   5042       4.7002      0.00000
   5043       4.7065      0.00000
   5044       4.6985      0.00000
   5045       4.6997      0.00000
   5046       4.7016      0.00000
   5047       4.7014      0.00000
   5048       4.6954      0.00000
   5049       4.7049      0.00000
   5050       4.7111      0.00000
   5051       4.7046      0.00000
   5052       4.7041      0.00000
   5053       4.7104      0.00000
   5054       4.7108      0.00000
   5055       4.6925      0.00000
   5056       4.7105      0.00000
   5057       4.7152      0.00000
   5058       4.7138      0.00000
   5059       4.7195      0.00000
   5060       4.7217      0.00000
   5061       4.7285      0.00000
   5062       4.7200      0.00000
   5063       4.7216      0.00000
   5064       4.7094      0.00000
   5065       4.7283      0.00000
   5066       4.7235      0.00000
   5067       4.7217      0.00000
   5068       4.7219      0.00000
   5069       4.7327      0.00000
   5070       4.7129      0.00000
   5071       4.7278      0.00000
   5072       4.7360      0.00000
   5073       4.7565      0.00000
   5074       4.7342      0.00000
   5075       4.7525      0.00000
   5076       4.7513      0.00000
   5077       4.7499      0.00000
   5078       4.7471      0.00000
   5079       4.7495      0.00000
   5080       4.7437      0.00000
   5081       4.7581      0.00000
   5082       4.7524      0.00000
   5083       4.7476      0.00000
   5084       4.7538      0.00000
   5085       4.7682      0.00000
   5086       4.7612      0.00000
   5087       4.7646      0.00000
   5088       4.7699      0.00000
   5089       4.7704      0.00000
   5090       4.7599      0.00000
   5091       4.7582      0.00000
   5092       4.7705      0.00000
   5093       4.7705      0.00000
   5094       4.7712      0.00000
   5095       4.7643      0.00000
   5096       4.7601      0.00000
   5097       4.7646      0.00000
   5098       4.7667      0.00000
   5099       4.7642      0.00000
   5100       4.7716      0.00000
   5101       4.7763      0.00000
   5102       4.7820      0.00000
   5103       4.7812      0.00000
   5104       4.7767      0.00000
   5105       4.7789      0.00000
   5106       4.7832      0.00000
   5107       4.7804      0.00000
   5108       4.7861      0.00000
   5109       4.7766      0.00000
   5110       4.7764      0.00000
   5111       4.7896      0.00000
   5112       4.7801      0.00000
   5113       4.7790      0.00000
   5114       4.7614      0.00000
   5115       4.7699      0.00000
   5116       4.7760      0.00000
   5117       4.7917      0.00000
   5118       4.7874      0.00000
   5119       4.7919      0.00000
   5120       4.7755      0.00000
   5121       4.7810      0.00000
   5122       4.7825      0.00000
   5123       4.7817      0.00000
   5124       4.7949      0.00000
   5125       4.7953      0.00000
   5126       4.7911      0.00000
   5127       4.8005      0.00000
   5128       4.7949      0.00000
   5129       4.8079      0.00000
   5130       4.8008      0.00000
   5131       4.8135      0.00000
   5132       4.8231      0.00000
   5133       4.8183      0.00000
   5134       4.8235      0.00000
   5135       4.8317      0.00000
   5136       4.8286      0.00000
   5137       4.8331      0.00000
   5138       4.8238      0.00000
   5139       4.8374      0.00000
   5140       4.8241      0.00000
   5141       4.8267      0.00000
   5142       4.8304      0.00000
   5143       4.8348      0.00000
   5144       4.8376      0.00000
   5145       4.8235      0.00000
   5146       4.8316      0.00000
   5147       4.8409      0.00000
   5148       4.8416      0.00000
   5149       4.8366      0.00000
   5150       4.8473      0.00000
   5151       4.8334      0.00000
   5152       4.8479      0.00000
   5153       4.8510      0.00000
   5154       4.8588      0.00000
   5155       4.8361      0.00000
   5156       4.8474      0.00000
   5157       4.8530      0.00000
   5158       4.8552      0.00000
   5159       4.8585      0.00000
   5160       4.8503      0.00000
   5161       4.8540      0.00000
   5162       4.8491      0.00000
   5163       4.8517      0.00000
   5164       4.8506      0.00000
   5165       4.8602      0.00000
   5166       4.8566      0.00000
   5167       4.8516      0.00000
   5168       4.8476      0.00000
   5169       4.8683      0.00000
   5170       4.8716      0.00000
   5171       4.8864      0.00000
   5172       4.8687      0.00000
   5173       4.8736      0.00000
   5174       4.8726      0.00000
   5175       4.8727      0.00000
   5176       4.8813      0.00000
   5177       4.8899      0.00000
   5178       4.8843      0.00000
   5179       4.8741      0.00000
   5180       4.8834      0.00000
   5181       4.8762      0.00000
   5182       4.8862      0.00000
   5183       4.8949      0.00000
   5184       4.8913      0.00000
   5185       4.8914      0.00000
   5186       4.8831      0.00000
   5187       4.8812      0.00000
   5188       4.8971      0.00000
   5189       4.8913      0.00000
   5190       4.8869      0.00000
   5191       4.9037      0.00000
   5192       4.8866      0.00000
   5193       4.8986      0.00000
   5194       4.8985      0.00000
   5195       4.8951      0.00000
   5196       4.9138      0.00000
   5197       4.9048      0.00000
   5198       4.8955      0.00000
   5199       4.8954      0.00000
   5200       4.9076      0.00000
   5201       4.9065      0.00000
   5202       4.9137      0.00000
   5203       4.9080      0.00000
   5204       4.9095      0.00000
   5205       4.9109      0.00000
   5206       4.9093      0.00000
   5207       4.9226      0.00000
   5208       4.9221      0.00000
   5209       4.9141      0.00000
   5210       4.9184      0.00000
   5211       4.9150      0.00000
   5212       4.9161      0.00000
   5213       4.9263      0.00000
   5214       4.9290      0.00000
   5215       4.9238      0.00000
   5216       4.9166      0.00000
   5217       4.9221      0.00000
   5218       4.9304      0.00000
   5219       4.9200      0.00000
   5220       4.9169      0.00000
   5221       4.9255      0.00000
   5222       4.9264      0.00000
   5223       4.9165      0.00000
   5224       4.9233      0.00000
   5225       4.9297      0.00000
   5226       4.9313      0.00000
   5227       4.9143      0.00000
   5228       4.9299      0.00000
   5229       4.9324      0.00000
   5230       4.9295      0.00000
   5231       4.9323      0.00000
   5232       4.9386      0.00000
   5233       4.9370      0.00000
   5234       4.9480      0.00000
   5235       4.9490      0.00000
   5236       4.9404      0.00000
   5237       4.9377      0.00000
   5238       4.9434      0.00000
   5239       4.9389      0.00000
   5240       4.9422      0.00000
   5241       4.9375      0.00000
   5242       4.9383      0.00000
   5243       4.9647      0.00000
   5244       4.9654      0.00000
   5245       4.9674      0.00000
   5246       4.9692      0.00000
   5247       4.9716      0.00000
   5248       4.9608      0.00000
   5249       4.9732      0.00000
   5250       4.9649      0.00000
   5251       4.9552      0.00000
   5252       4.9559      0.00000
   5253       4.9709      0.00000
   5254       4.9676      0.00000
   5255       4.9569      0.00000
   5256       4.9578      0.00000
   5257       4.9761      0.00000
   5258       4.9663      0.00000
   5259       4.9572      0.00000
   5260       4.9504      0.00000
   5261       4.9761      0.00000
   5262       4.9628      0.00000
   5263       4.9683      0.00000
   5264       4.9742      0.00000
   5265       4.9641      0.00000
   5266       4.9697      0.00000
   5267       4.9794      0.00000
   5268       4.9862      0.00000
   5269       4.9701      0.00000
   5270       5.0080      0.00000
   5271       4.9959      0.00000
   5272       4.9906      0.00000
   5273       4.9920      0.00000
   5274       5.0006      0.00000
   5275       5.0093      0.00000
   5276       4.9915      0.00000
   5277       5.0002      0.00000
   5278       4.9968      0.00000
   5279       5.0014      0.00000
   5280       5.0046      0.00000
   5281       5.0093      0.00000
   5282       4.9983      0.00000
   5283       5.0054      0.00000
   5284       5.0006      0.00000
   5285       5.0135      0.00000
   5286       5.0190      0.00000
   5287       4.9957      0.00000
   5288       5.0277      0.00000
   5289       5.0228      0.00000
   5290       5.0261      0.00000
   5291       5.0043      0.00000
   5292       5.0145      0.00000
   5293       5.0122      0.00000
   5294       5.0280      0.00000
   5295       5.0370      0.00000
   5296       5.0340      0.00000
   5297       5.0292      0.00000
   5298       5.0181      0.00000
   5299       5.0185      0.00000
   5300       5.0152      0.00000
   5301       5.0154      0.00000
   5302       5.0184      0.00000
   5303       5.0157      0.00000
   5304       5.0275      0.00000
   5305       5.0430      0.00000
   5306       5.0351      0.00000
   5307       5.0322      0.00000
   5308       5.0254      0.00000
   5309       5.0243      0.00000
   5310       5.0347      0.00000
   5311       5.0328      0.00000
   5312       5.0375      0.00000
   5313       5.0299      0.00000
   5314       5.0281      0.00000
   5315       5.0380      0.00000
   5316       5.0410      0.00000
   5317       5.0672      0.00000
   5318       5.0455      0.00000
   5319       5.0540      0.00000
   5320       5.0447      0.00000
   5321       5.0594      0.00000
   5322       5.0458      0.00000
   5323       5.0628      0.00000
   5324       5.0562      0.00000
   5325       5.0638      0.00000
   5326       5.0574      0.00000
   5327       5.0835      0.00000
   5328       5.0631      0.00000
   5329       5.0629      0.00000
   5330       5.0846      0.00000
   5331       5.0807      0.00000
   5332       5.0798      0.00000
   5333       5.0688      0.00000
   5334       5.0812      0.00000
   5335       5.0933      0.00000
   5336       5.0952      0.00000
   5337       5.0816      0.00000
   5338       5.0883      0.00000
   5339       5.0894      0.00000
   5340       5.0770      0.00000
   5341       5.0812      0.00000
   5342       5.0737      0.00000
   5343       5.0734      0.00000
   5344       5.0919      0.00000
   5345       5.0897      0.00000
   5346       5.0746      0.00000
   5347       5.0777      0.00000
   5348       5.0877      0.00000
   5349       5.0971      0.00000
   5350       5.1049      0.00000
   5351       5.1121      0.00000
   5352       5.1140      0.00000
   5353       5.1231      0.00000
   5354       5.1318      0.00000
   5355       5.1279      0.00000
   5356       5.1395      0.00000
   5357       5.1256      0.00000
   5358       5.1176      0.00000
   5359       5.1356      0.00000
   5360       5.1178      0.00000
   5361       5.1490      0.00000
   5362       5.1377      0.00000
   5363       5.1233      0.00000
   5364       5.1111      0.00000
   5365       5.0960      0.00000
   5366       5.1024      0.00000
   5367       5.1416      0.00000
   5368       5.1030      0.00000
   5369       5.1225      0.00000
   5370       5.1047      0.00000
   5371       5.1187      0.00000
   5372       5.1274      0.00000
   5373       5.1174      0.00000
   5374       5.1441      0.00000
   5375       5.1508      0.00000
   5376       5.1569      0.00000
   5377       5.1479      0.00000
   5378       5.1541      0.00000
   5379       5.1667      0.00000
   5380       5.1826      0.00000
   5381       5.1792      0.00000
   5382       5.1744      0.00000
   5383       5.1920      0.00000
   5384       5.1650      0.00000
   5385       5.1758      0.00000
   5386       5.1835      0.00000
   5387       5.2030      0.00000
   5388       5.1837      0.00000
   5389       5.1886      0.00000
   5390       5.2187      0.00000
   5391       5.2039      0.00000
   5392       5.2216      0.00000
   5393       5.2093      0.00000
   5394       5.2391      0.00000
   5395       5.2048      0.00000
   5396       5.1953      0.00000
   5397       5.2152      0.00000
   5398       5.2027      0.00000
   5399       5.2436      0.00000
   5400       5.2008      0.00000
   5401       5.2142      0.00000
   5402       5.2326      0.00000
   5403       5.1992      0.00000
   5404       5.2362      0.00000
   5405       5.2037      0.00000
   5406       5.2172      0.00000
   5407       5.2246      0.00000
   5408       5.2370      0.00000
   5409       5.2431      0.00000
   5410       5.2882      0.00000
   5411       5.2871      0.00000
   5412       5.2664      0.00000
   5413       5.2972      0.00000
   5414       5.3082      0.00000
   5415       5.2996      0.00000
   5416       5.3079      0.00000
   5417       5.2600      0.00000
   5418       5.3086      0.00000
   5419       5.2884      0.00000
   5420       5.2606      0.00000
   5421       5.2596      0.00000
   5422       5.2062      0.00000
   5423       5.3167      0.00000
   5424       5.2603      0.00000
   5425       5.3764      0.00000
   5426       5.3374      0.00000
   5427       5.3452      0.00000
   5428       5.3881      0.00000
   5429       5.3438      0.00000
   5430       5.3378      0.00000
   5431       5.3704      0.00000
   5432       5.3514      0.00000
   5433       5.3877      0.00000
   5434       5.3983      0.00000
   5435       5.4076      0.00000
   5436       5.3531      0.00000
   5437       5.3967      0.00000
   5438       5.4282      0.00000
   5439       5.4228      0.00000
   5440       5.4264      0.00000
   5441       5.3721      0.00000
   5442       5.3799      0.00000
   5443       5.3701      0.00000
   5444       5.3838      0.00000
   5445       5.3982      0.00000
   5446       5.3997      0.00000
   5447       5.3774      0.00000
   5448       5.3822      0.00000
   5449       5.3741      0.00000
   5450       5.3813      0.00000
   5451       5.3898      0.00000
   5452       5.3845      0.00000
   5453       5.4035      0.00000
   5454       5.4036      0.00000
   5455       5.4063      0.00000
   5456       5.4376      0.00000
   5457       5.4229      0.00000
   5458       5.4141      0.00000
   5459       5.4221      0.00000
   5460       5.4263      0.00000
   5461       5.4545      0.00000
   5462       5.4613      0.00000
   5463       5.4288      0.00000
   5464       5.4334      0.00000
   5465       5.4297      0.00000
   5466       5.4885      0.00000
   5467       5.4699      0.00000
   5468       5.4933      0.00000
   5469       5.4672      0.00000
   5470       5.4944      0.00000
   5471       5.4929      0.00000
   5472       5.5156      0.00000
   5473       5.4921      0.00000
   5474       5.4943      0.00000
   5475       5.5066      0.00000
   5476       5.7138      0.00000
   5477       5.7583      0.00000
   5478       5.7604      0.00000
   5479       5.7736      0.00000
   5480       5.7949      0.00000
   5481       5.8086      0.00000
   5482       5.8240      0.00000
   5483       5.9014      0.00000
   5484       5.9316      0.00000
   5485       5.9404      0.00000
   5486       5.9617      0.00000
   5487       5.9740      0.00000
   5488       5.9974      0.00000
   5489       6.0343      0.00000
   5490       6.0289      0.00000
   5491       6.0112      0.00000
   5492       6.0602      0.00000
   5493       6.1292      0.00000
   5494       6.1077      0.00000
   5495       6.1302      0.00000
   5496       6.1302      0.00000
   5497       6.1303      0.00000
   5498       6.1387      0.00000
   5499       6.1419      0.00000
   5500       6.1528      0.00000
   5501       6.1606      0.00000
   5502       6.1539      0.00000
   5503       6.1250      0.00000
   5504       6.2030      0.00000
   5505       6.2029      0.00000
   5506       6.1628      0.00000
   5507       6.2607      0.00000
   5508       6.2573      0.00000
   5509       6.2690      0.00000
   5510       6.2627      0.00000
   5511       6.2932      0.00000
   5512       6.2857      0.00000
   5513       6.2871      0.00000
   5514       6.2921      0.00000
   5515       6.2769      0.00000
   5516       6.2776      0.00000
   5517       6.3195      0.00000
   5518       6.2948      0.00000
   5519       6.3091      0.00000
   5520       6.3261      0.00000
   5521       6.3289      0.00000
   5522       6.3183      0.00000
   5523       6.3596      0.00000
   5524       6.3643      0.00000
   5525       6.3607      0.00000
   5526       6.3584      0.00000
   5527       6.3352      0.00000
   5528       6.3659      0.00000
   5529       6.3739      0.00000
   5530       6.3714      0.00000
   5531       6.3650      0.00000
   5532       6.3619      0.00000
   5533       6.3739      0.00000
   5534       6.3690      0.00000
   5535       6.3892      0.00000
   5536       6.3880      0.00000
   5537       6.3823      0.00000
   5538       6.3875      0.00000
   5539       6.3900      0.00000
   5540       6.3938      0.00000
   5541       6.3836      0.00000
   5542       6.4061      0.00000
   5543       6.4039      0.00000
   5544       6.4050      0.00000
   5545       6.4005      0.00000
   5546       6.4050      0.00000
   5547       6.3843      0.00000
   5548       6.4112      0.00000
   5549       6.4315      0.00000
   5550       6.4113      0.00000
   5551       6.4029      0.00000
   5552       6.4090      0.00000
   5553       6.4466      0.00000
   5554       6.4176      0.00000
   5555       6.4470      0.00000
   5556       6.4439      0.00000
   5557       6.4289      0.00000
   5558       6.4345      0.00000
   5559       6.4283      0.00000
   5560       6.4548      0.00000
   5561       6.4316      0.00000
   5562       6.4548      0.00000
   5563       6.4443      0.00000
   5564       6.4558      0.00000
   5565       6.4456      0.00000
   5566       6.4579      0.00000
   5567       6.4632      0.00000
   5568       6.4502      0.00000
   5569       6.4653      0.00000
   5570       6.4618      0.00000
   5571       6.4631      0.00000
   5572       6.4718      0.00000
   5573       6.4750      0.00000
   5574       6.4879      0.00000
   5575       6.4924      0.00000
   5576       6.5013      0.00000
   5577       6.4916      0.00000
   5578       6.5030      0.00000
   5579       6.5130      0.00000
   5580       6.4914      0.00000
   5581       6.5021      0.00000
   5582       6.4865      0.00000
   5583       6.4928      0.00000
   5584       6.5125      0.00000
   5585       6.5142      0.00000
   5586       6.4982      0.00000
   5587       6.5033      0.00000
   5588       6.4863      0.00000
   5589       6.5164      0.00000
   5590       6.5102      0.00000
   5591       6.5086      0.00000
   5592       6.5171      0.00000
   5593       6.5180      0.00000
   5594       6.5231      0.00000
   5595       6.5285      0.00000
   5596       6.5328      0.00000
   5597       6.5326      0.00000
   5598       6.5235      0.00000
   5599       6.5252      0.00000
   5600       6.5555      0.00000
   5601       6.5634      0.00000
   5602       6.5471      0.00000
   5603       6.5550      0.00000
   5604       6.5530      0.00000
   5605       6.5717      0.00000
   5606       6.5510      0.00000
   5607       6.5635      0.00000
   5608       6.5630      0.00000
   5609       6.5637      0.00000
   5610       6.5687      0.00000
   5611       6.5660      0.00000
   5612       6.5705      0.00000
   5613       6.5646      0.00000
   5614       6.5644      0.00000
   5615       6.5597      0.00000
   5616       6.5775      0.00000
   5617       6.5807      0.00000
   5618       6.5919      0.00000
   5619       6.5809      0.00000
   5620       6.5749      0.00000
   5621       6.5880      0.00000
   5622       6.6037      0.00000
   5623       6.5953      0.00000
   5624       6.5915      0.00000
   5625       6.6114      0.00000
   5626       6.5930      0.00000
   5627       6.6006      0.00000
   5628       6.6085      0.00000
   5629       6.6019      0.00000
   5630       6.6163      0.00000
   5631       6.6099      0.00000
   5632       6.6188      0.00000
   5633       6.6161      0.00000
   5634       6.6067      0.00000
   5635       6.6212      0.00000
   5636       6.6162      0.00000
   5637       6.6409      0.00000
   5638       6.6357      0.00000
   5639       6.6429      0.00000
   5640       6.6252      0.00000
   5641       6.6265      0.00000
   5642       6.6276      0.00000
   5643       6.6318      0.00000
   5644       6.6177      0.00000
   5645       6.6383      0.00000
   5646       6.6331      0.00000
   5647       6.6497      0.00000
   5648       6.6318      0.00000
   5649       6.6268      0.00000
   5650       6.6477      0.00000
   5651       6.6475      0.00000
   5652       6.6421      0.00000
   5653       6.6464      0.00000
   5654       6.6396      0.00000
   5655       6.6476      0.00000
   5656       6.6433      0.00000
   5657       6.6564      0.00000
   5658       6.6432      0.00000
   5659       6.6550      0.00000
   5660       6.6611      0.00000
   5661       6.6754      0.00000
   5662       6.6701      0.00000
   5663       6.6737      0.00000
   5664       6.6934      0.00000
   5665       6.6871      0.00000
   5666       6.7022      0.00000
   5667       6.7005      0.00000
   5668       6.7074      0.00000
   5669       6.6970      0.00000
   5670       6.6912      0.00000
   5671       6.6943      0.00000
   5672       6.6993      0.00000
   5673       6.6922      0.00000
   5674       6.7027      0.00000
   5675       6.7216      0.00000
   5676       6.7190      0.00000
   5677       6.6930      0.00000
   5678       6.7047      0.00000
   5679       6.6989      0.00000
   5680       6.7133      0.00000
   5681       6.7020      0.00000
   5682       6.7123      0.00000
   5683       6.6964      0.00000
   5684       6.7263      0.00000
   5685       6.7108      0.00000
   5686       6.7173      0.00000
   5687       6.7305      0.00000
   5688       6.7137      0.00000
   5689       6.7306      0.00000
   5690       6.7324      0.00000
   5691       6.7447      0.00000
   5692       6.7508      0.00000
   5693       6.7444      0.00000
   5694       6.7440      0.00000
   5695       6.7531      0.00000
   5696       6.7347      0.00000
   5697       6.7421      0.00000
   5698       6.7438      0.00000
   5699       6.7487      0.00000
   5700       6.7153      0.00000
   5701       6.7345      0.00000
   5702       6.7644      0.00000
   5703       6.7663      0.00000
   5704       6.7505      0.00000
   5705       6.7552      0.00000
   5706       6.7682      0.00000
   5707       6.7681      0.00000
   5708       6.7718      0.00000
   5709       6.7600      0.00000
   5710       6.7714      0.00000
   5711       6.7543      0.00000
   5712       6.7714      0.00000
   5713       6.7872      0.00000
   5714       6.7806      0.00000
   5715       6.7864      0.00000
   5716       6.7853      0.00000
   5717       6.7825      0.00000
   5718       6.7891      0.00000
   5719       6.7894      0.00000
   5720       6.7961      0.00000
   5721       6.7810      0.00000
   5722       6.7764      0.00000
   5723       6.7897      0.00000
   5724       6.8112      0.00000
   5725       6.8027      0.00000
   5726       6.8048      0.00000
   5727       6.7873      0.00000
   5728       6.8141      0.00000
   5729       6.8214      0.00000
   5730       6.8328      0.00000
   5731       6.8214      0.00000
   5732       6.8162      0.00000
   5733       6.8383      0.00000
   5734       6.8440      0.00000
   5735       6.8392      0.00000
   5736       6.8456      0.00000
   5737       6.8645      0.00000
   5738       6.8553      0.00000
   5739       6.8690      0.00000
   5740       6.8658      0.00000
   5741       6.8908      0.00000
   5742       6.8661      0.00000
   5743       6.8598      0.00000
   5744       6.8811      0.00000
   5745       6.8579      0.00000
   5746       6.8731      0.00000
   5747       6.8720      0.00000
   5748       6.8936      0.00000
   5749       6.8567      0.00000
   5750       6.8882      0.00000
   5751       6.8669      0.00000
   5752       6.9153      0.00000
   5753       6.9056      0.00000
   5754       6.9064      0.00000
   5755       6.8916      0.00000
   5756       6.9105      0.00000
   5757       6.9079      0.00000
   5758       6.9327      0.00000
   5759       6.9162      0.00000
   5760       6.9156      0.00000
   5761       6.9236      0.00000
   5762       6.9487      0.00000
   5763       6.9240      0.00000
   5764       6.9194      0.00000
   5765       6.9328      0.00000
   5766       6.9393      0.00000
   5767       6.9281      0.00000
   5768       6.9457      0.00000
   5769       6.9336      0.00000
   5770       6.9584      0.00000
   5771       6.9444      0.00000
   5772       6.9578      0.00000
   5773       6.9390      0.00000
   5774       6.9670      0.00000
   5775       6.9596      0.00000
   5776       6.9687      0.00000
   5777       6.9616      0.00000
   5778       6.9650      0.00000
   5779       6.9709      0.00000
   5780       6.9771      0.00000
   5781       6.9747      0.00000
   5782       6.9553      0.00000
   5783       6.9920      0.00000
   5784       6.9946      0.00000
   5785       6.9855      0.00000
   5786       6.9927      0.00000
   5787       7.0041      0.00000
   5788       7.0096      0.00000
   5789       7.0036      0.00000
   5790       7.0178      0.00000
   5791       7.0214      0.00000
   5792       7.0264      0.00000
   5793       7.0082      0.00000
   5794       7.0216      0.00000
   5795       7.0240      0.00000
   5796       7.0179      0.00000
   5797       7.0369      0.00000
   5798       7.0280      0.00000
   5799       7.0324      0.00000
   5800       7.0281      0.00000
   5801       7.0347      0.00000
   5802       7.0419      0.00000
   5803       7.0295      0.00000
   5804       7.0385      0.00000
   5805       7.0234      0.00000
   5806       7.0478      0.00000
   5807       7.0525      0.00000
   5808       7.0533      0.00000
   5809       7.0472      0.00000
   5810       7.0398      0.00000
   5811       7.0350      0.00000
   5812       7.0518      0.00000
   5813       7.0480      0.00000
   5814       7.0598      0.00000
   5815       7.0425      0.00000
   5816       7.0491      0.00000
   5817       7.0607      0.00000
   5818       7.0586      0.00000
   5819       7.0588      0.00000
   5820       7.0640      0.00000
   5821       7.0684      0.00000
   5822       7.0647      0.00000
   5823       7.0746      0.00000
   5824       7.0767      0.00000
   5825       7.0744      0.00000
   5826       7.0925      0.00000
   5827       7.0804      0.00000
   5828       7.0862      0.00000
   5829       7.0736      0.00000
   5830       7.0887      0.00000
   5831       7.0900      0.00000
   5832       7.0936      0.00000
   5833       7.0773      0.00000
   5834       7.1031      0.00000
   5835       7.1089      0.00000
   5836       7.0858      0.00000
   5837       7.0932      0.00000
   5838       7.1069      0.00000
   5839       7.1056      0.00000
   5840       7.1020      0.00000
   5841       7.1098      0.00000
   5842       7.1081      0.00000
   5843       7.1183      0.00000
   5844       7.1256      0.00000
   5845       7.1157      0.00000
   5846       7.1235      0.00000
   5847       7.1294      0.00000
   5848       7.1153      0.00000
   5849       7.1125      0.00000
   5850       7.1222      0.00000
   5851       7.1210      0.00000
   5852       7.1184      0.00000
   5853       7.1147      0.00000
   5854       7.1012      0.00000
   5855       7.1385      0.00000
   5856       7.1237      0.00000
   5857       7.1208      0.00000
   5858       7.1441      0.00000
   5859       7.1436      0.00000
   5860       7.1474      0.00000
   5861       7.1476      0.00000
   5862       7.1500      0.00000
   5863       7.1469      0.00000
   5864       7.1588      0.00000
   5865       7.1418      0.00000
   5866       7.1513      0.00000
   5867       7.1675      0.00000
   5868       7.1634      0.00000
   5869       7.1619      0.00000
   5870       7.1607      0.00000
   5871       7.1740      0.00000
   5872       7.1641      0.00000
   5873       7.1673      0.00000
   5874       7.1511      0.00000
   5875       7.1951      0.00000
   5876       7.1752      0.00000
   5877       7.1817      0.00000
   5878       7.1902      0.00000
   5879       7.1788      0.00000
   5880       7.1910      0.00000
   5881       7.1771      0.00000
   5882       7.1807      0.00000
   5883       7.1887      0.00000
   5884       7.1913      0.00000
   5885       7.1803      0.00000
   5886       7.1900      0.00000
   5887       7.1849      0.00000
   5888       7.1927      0.00000
   5889       7.1921      0.00000
   5890       7.1972      0.00000
   5891       7.2004      0.00000
   5892       7.1948      0.00000
   5893       7.1851      0.00000
   5894       7.2050      0.00000
   5895       7.2140      0.00000
   5896       7.1833      0.00000
   5897       7.2025      0.00000
   5898       7.2114      0.00000
   5899       7.2183      0.00000
   5900       7.2098      0.00000
   5901       7.2084      0.00000
   5902       7.2152      0.00000
   5903       7.2088      0.00000
   5904       7.2221      0.00000
   5905       7.2203      0.00000
   5906       7.2032      0.00000
   5907       7.2249      0.00000
   5908       7.2193      0.00000
   5909       7.2275      0.00000
   5910       7.2199      0.00000
   5911       7.2247      0.00000
   5912       7.2293      0.00000
   5913       7.2175      0.00000
   5914       7.2270      0.00000
   5915       7.2382      0.00000
   5916       7.2321      0.00000
   5917       7.2327      0.00000
   5918       7.2465      0.00000
   5919       7.2449      0.00000
   5920       7.2324      0.00000
   5921       7.2422      0.00000
   5922       7.2403      0.00000
   5923       7.2471      0.00000
   5924       7.2508      0.00000
   5925       7.2542      0.00000
   5926       7.2417      0.00000
   5927       7.2558      0.00000
   5928       7.2715      0.00000
   5929       7.2745      0.00000
   5930       7.2547      0.00000
   5931       7.2622      0.00000
   5932       7.2591      0.00000
   5933       7.2636      0.00000
   5934       7.2746      0.00000
   5935       7.2664      0.00000
   5936       7.2743      0.00000
   5937       7.2604      0.00000
   5938       7.2907      0.00000
   5939       7.2696      0.00000
   5940       7.2856      0.00000
   5941       7.2654      0.00000
   5942       7.2675      0.00000
   5943       7.2785      0.00000
   5944       7.2844      0.00000
   5945       7.2983      0.00000
   5946       7.2892      0.00000
   5947       7.3016      0.00000
   5948       7.2812      0.00000
   5949       7.3077      0.00000
   5950       7.2853      0.00000
   5951       7.3045      0.00000
   5952       7.2769      0.00000
   5953       7.2995      0.00000
   5954       7.3173      0.00000
   5955       7.3153      0.00000
   5956       7.3231      0.00000
   5957       7.3158      0.00000
   5958       7.3105      0.00000
   5959       7.2920      0.00000
   5960       7.3060      0.00000
   5961       7.3197      0.00000
   5962       7.3184      0.00000
   5963       7.3208      0.00000
   5964       7.3260      0.00000
   5965       7.3360      0.00000
   5966       7.3259      0.00000
   5967       7.3268      0.00000
   5968       7.3429      0.00000
   5969       7.3378      0.00000
   5970       7.3388      0.00000
   5971       7.3514      0.00000
   5972       7.3275      0.00000
   5973       7.3561      0.00000
   5974       7.3044      0.00000
   5975       7.3266      0.00000
   5976       7.3303      0.00000
   5977       7.3384      0.00000
   5978       7.3589      0.00000
   5979       7.3537      0.00000
   5980       7.3663      0.00000
   5981       7.3488      0.00000
   5982       7.3543      0.00000
   5983       7.3526      0.00000
   5984       7.3632      0.00000
   5985       7.3616      0.00000
   5986       7.3657      0.00000
   5987       7.3570      0.00000
   5988       7.3681      0.00000
   5989       7.3610      0.00000
   5990       7.3992      0.00000
   5991       7.3904      0.00000
   5992       7.3788      0.00000
   5993       7.3825      0.00000
   5994       7.3911      0.00000
   5995       7.4012      0.00000
   5996       7.3897      0.00000
   5997       7.3990      0.00000
   5998       7.3968      0.00000
   5999       7.4130      0.00000
   6000       7.3961      0.00000
   6001       7.4023      0.00000
   6002       7.4009      0.00000
   6003       7.4216      0.00000
   6004       7.4162      0.00000
   6005       7.4350      0.00000
   6006       7.4299      0.00000
   6007       7.4298      0.00000
   6008       7.4122      0.00000
   6009       7.4318      0.00000
   6010       7.4058      0.00000
   6011       7.4106      0.00000
   6012       7.4307      0.00000
   6013       7.4261      0.00000
   6014       7.4353      0.00000
   6015       7.4462      0.00000
   6016       7.4507      0.00000
   6017       7.4378      0.00000
   6018       7.4593      0.00000
   6019       7.4438      0.00000
   6020       7.4614      0.00000
   6021       7.4564      0.00000
   6022       7.4519      0.00000
   6023       7.4775      0.00000
   6024       7.4559      0.00000
   6025       7.4865      0.00000
   6026       7.4603      0.00000
   6027       7.5172      0.00000
   6028       7.4706      0.00000
   6029       7.4929      0.00000
   6030       7.5300      0.00000
   6031       7.5062      0.00000
   6032       7.5188      0.00000
   6033       7.4849      0.00000
   6034       7.4949      0.00000
   6035       7.4874      0.00000
   6036       7.5181      0.00000
   6037       7.5184      0.00000
   6038       7.4951      0.00000
   6039       7.5217      0.00000
   6040       7.5466      0.00000
   6041       7.5092      0.00000
   6042       7.5410      0.00000
   6043       7.5319      0.00000
   6044       7.5550      0.00000
   6045       7.5633      0.00000
   6046       7.5396      0.00000
   6047       7.5619      0.00000
   6048       7.5278      0.00000
   6049       7.5903      0.00000
   6050       7.5554      0.00000
   6051       7.5761      0.00000
   6052       7.5753      0.00000
   6053       7.5729      0.00000
   6054       7.5707      0.00000
   6055       7.5854      0.00000
   6056       7.5968      0.00000
   6057       7.5889      0.00000
   6058       7.5726      0.00000
   6059       7.5928      0.00000
   6060       7.5727      0.00000
   6061       7.5920      0.00000
   6062       7.6049      0.00000
   6063       7.6231      0.00000
   6064       7.6099      0.00000
   6065       7.6135      0.00000
   6066       7.5985      0.00000
   6067       7.5853      0.00000
   6068       7.6174      0.00000
   6069       7.5942      0.00000
   6070       7.6363      0.00000
   6071       7.6008      0.00000
   6072       7.6494      0.00000
   6073       7.5931      0.00000
   6074       7.6361      0.00000
   6075       7.6498      0.00000
   6076       7.6302      0.00000
   6077       7.6314      0.00000
   6078       7.6683      0.00000
   6079       7.6595      0.00000
   6080       7.6288      0.00000
   6081       7.6404      0.00000
   6082       7.6541      0.00000
   6083       7.6647      0.00000
   6084       7.6627      0.00000
   6085       7.6604      0.00000
   6086       7.6569      0.00000
   6087       7.6559      0.00000
   6088       7.6705      0.00000
   6089       7.6951      0.00000
   6090       7.6604      0.00000
   6091       7.6793      0.00000
   6092       7.6623      0.00000
   6093       7.6783      0.00000
   6094       7.6683      0.00000
   6095       7.6903      0.00000
   6096       7.6828      0.00000
   6097       7.6616      0.00000
   6098       7.6807      0.00000
   6099       7.6969      0.00000
   6100       7.6931      0.00000
   6101       7.7037      0.00000
   6102       7.7053      0.00000
   6103       7.6988      0.00000
   6104       7.6984      0.00000
   6105       7.6889      0.00000
   6106       7.6868      0.00000
   6107       7.7153      0.00000
   6108       7.7126      0.00000
   6109       7.7471      0.00000
   6110       7.6992      0.00000
   6111       7.7059      0.00000
   6112       7.7027      0.00000
   6113       7.7110      0.00000
   6114       7.7195      0.00000
   6115       7.7172      0.00000
   6116       7.7012      0.00000
   6117       7.7265      0.00000
   6118       7.7336      0.00000
   6119       7.7379      0.00000
   6120       7.7258      0.00000
   6121       7.7356      0.00000
   6122       7.7395      0.00000
   6123       7.7349      0.00000
   6124       7.7712      0.00000
   6125       7.7451      0.00000
   6126       7.7595      0.00000
   6127       7.7896      0.00000
   6128       7.7565      0.00000
   6129       7.7535      0.00000
   6130       7.7720      0.00000
   6131       7.7615      0.00000
   6132       7.7791      0.00000
   6133       7.7847      0.00000
   6134       7.7831      0.00000
   6135       7.7921      0.00000
   6136       7.8105      0.00000
   6137       7.8015      0.00000
   6138       7.8272      0.00000
   6139       7.8342      0.00000
   6140       7.8567      0.00000
   6141       7.8589      0.00000
   6142       7.8366      0.00000
   6143       7.8641      0.00000
   6144       7.9116      0.00000
   6145       7.8734      0.00000
   6146       7.8429      0.00000
   6147       7.8421      0.00000
   6148       7.8550      0.00000
   6149       7.8637      0.00000
   6150       7.8875      0.00000
   6151       7.9168      0.00000
   6152       7.9052      0.00000
   6153       7.9131      0.00000
   6154       7.9156      0.00000
   6155       7.9254      0.00000
   6156       7.9014      0.00000
   6157       7.9120      0.00000
   6158       7.9201      0.00000
   6159       7.9343      0.00000
   6160       7.9373      0.00000
   6161       7.9176      0.00000
   6162       7.9248      0.00000
   6163       7.9293      0.00000
   6164       7.9554      0.00000
   6165       7.9420      0.00000
   6166       7.9345      0.00000
   6167       7.9349      0.00000
   6168       7.9560      0.00000
   6169       7.9720      0.00000
   6170       7.9418      0.00000
   6171       7.9931      0.00000
   6172       7.9784      0.00000
   6173       7.9724      0.00000
   6174       8.0165      0.00000
   6175       7.9857      0.00000
   6176       8.0267      0.00000
   6177       7.9905      0.00000
   6178       8.0058      0.00000
   6179       8.0381      0.00000
   6180       8.0056      0.00000
   6181       8.0542      0.00000
   6182       8.0434      0.00000
   6183       8.0670      0.00000
   6184       8.0605      0.00000
   6185       8.0484      0.00000
   6186       8.0614      0.00000
   6187       8.0831      0.00000
   6188       8.0700      0.00000
   6189       8.0824      0.00000
   6190       8.1064      0.00000
   6191       8.0946      0.00000
   6192       8.0845      0.00000
   6193       8.1037      0.00000
   6194       8.1180      0.00000
   6195       8.1122      0.00000
   6196       8.1334      0.00000
   6197       8.1496      0.00000
   6198       8.1396      0.00000
   6199       8.1525      0.00000
   6200       8.1767      0.00000
   6201       8.1469      0.00000
   6202       8.1995      0.00000
   6203       8.1760      0.00000
   6204       8.2177      0.00000
   6205       8.2332      0.00000
   6206       8.2075      0.00000
   6207       8.2021      0.00000
   6208       8.2193      0.00000
   6209       8.2480      0.00000
   6210       8.2485      0.00000
   6211       8.2647      0.00000
   6212       8.2667      0.00000
   6213       8.2483      0.00000
   6214       8.2799      0.00000
   6215       8.2914      0.00000
   6216       8.3078      0.00000
   6217       8.2596      0.00000
   6218       8.3052      0.00000
   6219       8.2878      0.00000
   6220       8.2688      0.00000
   6221       8.3164      0.00000
   6222       8.3054      0.00000
   6223       8.3203      0.00000
   6224       8.3278      0.00000
   6225       8.3224      0.00000
   6226       8.3710      0.00000
   6227       8.3628      0.00000
   6228       8.3688      0.00000
   6229       8.3834      0.00000
   6230       8.3656      0.00000
   6231       8.3529      0.00000
   6232       8.3969      0.00000
   6233       8.3722      0.00000
   6234       8.3868      0.00000
   6235       8.3917      0.00000
   6236       8.3918      0.00000
   6237       8.4230      0.00000
   6238       8.3936      0.00000
   6239       8.4375      0.00000
   6240       8.4380      0.00000
   6241       8.4391      0.00000
   6242       8.4188      0.00000
   6243       8.4038      0.00000
   6244       8.4490      0.00000
   6245       8.4454      0.00000
   6246       8.4427      0.00000
   6247       8.4816      0.00000
   6248       8.4844      0.00000
   6249       8.4942      0.00000
   6250       8.5247      0.00000
   6251       8.4908      0.00000
   6252       8.5084      0.00000
   6253       8.5154      0.00000
   6254       8.5439      0.00000
   6255       8.5320      0.00000
   6256       8.5278      0.00000
   6257       8.5380      0.00000
   6258       8.5735      0.00000
   6259       8.5728      0.00000
   6260       8.5806      0.00000
   6261       8.5997      0.00000
   6262       8.5638      0.00000
   6263       8.5571      0.00000
   6264       8.6058      0.00000
   6265       8.6169      0.00000
   6266       8.6602      0.00000
   6267       8.6096      0.00000
   6268       8.6428      0.00000
   6269       8.6825      0.00000
   6270       8.6436      0.00000
   6271       8.6758      0.00000
   6272       8.6714      0.00000
   6273       8.6529      0.00000
   6274       8.6753      0.00000
   6275       8.7043      0.00000
   6276       8.7124      0.00000
   6277       8.7138      0.00000
   6278       8.6895      0.00000
   6279       8.7274      0.00000
   6280       8.7357      0.00000
   6281       8.7286      0.00000
   6282       8.7630      0.00000
   6283       8.7337      0.00000
   6284       8.7632      0.00000
   6285       8.7728      0.00000
   6286       8.7622      0.00000
   6287       8.7756      0.00000
   6288       8.7779      0.00000
   6289       8.8287      0.00000
   6290       8.8284      0.00000
   6291       8.8148      0.00000
   6292       8.8473      0.00000
   6293       8.8209      0.00000
   6294       8.8485      0.00000
   6295       8.8851      0.00000
   6296       8.8615      0.00000
   6297       8.8451      0.00000
   6298       8.8261      0.00000
   6299       8.8679      0.00000
   6300       8.9199      0.00000
   6301       8.9149      0.00000
   6302       8.9052      0.00000
   6303       8.9427      0.00000
   6304       8.9553      0.00000
   6305       8.9458      0.00000
   6306       8.9615      0.00000
   6307       8.9445      0.00000
   6308       8.9305      0.00000
   6309       8.9898      0.00000
   6310       8.9473      0.00000
   6311       8.9744      0.00000
   6312       8.9820      0.00000
   6313       8.9972      0.00000
   6314       8.9496      0.00000
   6315       9.0552      0.00000
   6316       9.0219      0.00000
   6317       9.0300      0.00000
   6318       9.0399      0.00000
   6319       9.0826      0.00000
   6320       9.0268      0.00000
   6321       9.0547      0.00000
   6322       9.0918      0.00000
   6323       9.0842      0.00000
   6324       9.0920      0.00000
   6325       9.0899      0.00000
   6326       9.1166      0.00000
   6327       9.1390      0.00000
   6328       9.1356      0.00000
   6329       9.1312      0.00000
   6330       9.1597      0.00000
   6331       9.1155      0.00000
   6332       9.0997      0.00000
   6333       9.1236      0.00000
   6334       9.1586      0.00000
   6335       9.1713      0.00000
   6336       9.1719      0.00000
   6337       9.1619      0.00000
   6338       9.1954      0.00000
   6339       9.2058      0.00000
   6340       9.1944      0.00000
   6341       9.2032      0.00000
   6342       9.2177      0.00000
   6343       9.2744      0.00000
   6344       9.2411      0.00000
   6345       9.2969      0.00000
   6346       9.2624      0.00000
   6347       9.2745      0.00000
   6348       9.2988      0.00000
   6349       9.3170      0.00000
   6350       9.2911      0.00000
   6351       9.2650      0.00000
   6352       9.3330      0.00000
   6353       9.3389      0.00000
   6354       9.3423      0.00000
   6355       9.3273      0.00000
   6356       9.3655      0.00000
   6357       9.3324      0.00000
   6358       9.3597      0.00000
   6359       9.3368      0.00000
   6360       9.3340      0.00000
   6361       9.3899      0.00000
   6362       9.4033      0.00000
   6363       9.4053      0.00000
   6364       9.4013      0.00000
   6365       9.4391      0.00000
   6366       9.4683      0.00000
   6367       9.4589      0.00000
   6368       9.4311      0.00000
   6369       9.4206      0.00000
   6370       9.4608      0.00000
   6371       9.4911      0.00000
   6372       9.4738      0.00000
   6373       9.4636      0.00000
   6374       9.4550      0.00000
   6375       9.4948      0.00000
   6376       9.5001      0.00000
   6377       9.5216      0.00000
   6378       9.5454      0.00000
   6379       9.5201      0.00000
   6380       9.5617      0.00000
   6381       9.5634      0.00000
   6382       9.5779      0.00000
   6383       9.5664      0.00000
   6384       9.6123      0.00000
   6385       9.5631      0.00000
   6386       9.6164      0.00000
   6387       9.6146      0.00000
   6388       9.6577      0.00000
   6389       9.6757      0.00000
   6390       9.6497      0.00000
   6391       9.6622      0.00000
   6392       9.6500      0.00000
   6393       9.6384      0.00000
   6394       9.6584      0.00000
   6395       9.6769      0.00000
   6396       9.6542      0.00000
   6397       9.6997      0.00000
   6398       9.7077      0.00000
   6399       9.7314      0.00000
   6400       9.7311      0.00000
   6401       9.7306      0.00000
   6402       9.7068      0.00000
   6403       9.7768      0.00000
   6404       9.7521      0.00000
   6405       9.7808      0.00000
   6406       9.7961      0.00000
   6407       9.8233      0.00000
   6408       9.8220      0.00000
   6409       9.8479      0.00000
   6410       9.8475      0.00000
   6411       9.8505      0.00000
   6412       9.8612      0.00000
   6413       9.8860      0.00000
   6414       9.8757      0.00000
   6415       9.8617      0.00000
   6416       9.8648      0.00000
   6417       9.9039      0.00000
   6418       9.8988      0.00000
   6419       9.8994      0.00000
   6420       9.9302      0.00000
   6421       9.9240      0.00000
   6422       9.9383      0.00000
   6423       9.9285      0.00000
   6424       9.9199      0.00000
   6425       9.9620      0.00000
   6426       9.9547      0.00000
   6427       9.9750      0.00000
   6428       9.9916      0.00000
   6429       9.9635      0.00000
   6430       9.9889      0.00000
   6431       9.9993      0.00000
   6432       9.9903      0.00000
   6433      10.0092      0.00000
   6434      10.0735      0.00000
   6435      10.0630      0.00000
   6436      10.0667      0.00000
   6437      10.0756      0.00000
   6438      10.0660      0.00000
   6439      10.0728      0.00000
   6440      10.0678      0.00000
   6441      10.0960      0.00000
   6442      10.1347      0.00000
   6443      10.1482      0.00000
   6444      10.1961      0.00000
   6445      10.1570      0.00000
   6446      10.1690      0.00000
   6447      10.2081      0.00000
   6448      10.2192      0.00000
   6449      10.2002      0.00000
   6450      10.2329      0.00000
   6451      10.1655      0.00000
   6452      10.2422      0.00000
   6453      10.2557      0.00000
   6454      10.2398      0.00000
   6455      10.2670      0.00000
   6456      10.2510      0.00000
   6457      10.2869      0.00000
   6458      10.2942      0.00000
   6459      10.3052      0.00000
   6460      10.3376      0.00000
   6461      10.3179      0.00000
   6462      10.3334      0.00000
   6463      10.3162      0.00000
   6464      10.3447      0.00000
   6465      10.3569      0.00000
   6466      10.3902      0.00000
   6467      10.3541      0.00000
   6468      10.3726      0.00000
   6469      10.3987      0.00000
   6470      10.3856      0.00000
   6471      10.3741      0.00000
   6472      10.4113      0.00000
   6473      10.4137      0.00000
   6474      10.4318      0.00000
   6475      10.4394      0.00000
   6476      10.4659      0.00000
   6477      10.4692      0.00000
   6478      10.4720      0.00000
   6479      10.4726      0.00000
   6480      10.4854      0.00000
   6481      10.5166      0.00000
   6482      10.5039      0.00000
   6483      10.5452      0.00000
   6484      10.5543      0.00000
   6485      10.5803      0.00000
   6486      10.5471      0.00000
   6487      10.5663      0.00000
   6488      10.5915      0.00000
   6489      10.6290      0.00000
   6490      10.6003      0.00000
   6491      10.6493      0.00000
   6492      10.6436      0.00000
   6493      10.6206      0.00000
   6494      10.6639      0.00000
   6495      10.6501      0.00000
   6496      10.6590      0.00000
   6497      10.6694      0.00000
   6498      10.6761      0.00000
   6499      10.6792      0.00000
   6500      10.6931      0.00000
   6501      10.7151      0.00000
   6502      10.7030      0.00000
   6503      10.7850      0.00000
   6504      10.7600      0.00000
   6505      10.7607      0.00000
   6506      10.7556      0.00000
   6507      10.7640      0.00000
   6508      10.7568      0.00000
   6509      10.7949      0.00000
   6510      10.8014      0.00000
   6511      10.8216      0.00000
   6512      10.8286      0.00000
   6513      10.8356      0.00000
   6514      10.8698      0.00000
   6515      10.8568      0.00000
   6516      10.8561      0.00000
   6517      10.8704      0.00000
   6518      10.8721      0.00000
   6519      10.9013      0.00000
   6520      10.9338      0.00000
   6521      10.9147      0.00000
   6522      10.9456      0.00000
   6523      10.9414      0.00000
   6524      10.9900      0.00000
   6525      10.9778      0.00000
   6526      10.9797      0.00000
   6527      10.9958      0.00000
   6528      10.9752      0.00000
   6529      11.0251      0.00000
   6530      11.0411      0.00000
   6531      11.0297      0.00000
   6532      11.0486      0.00000
   6533      11.0493      0.00000
   6534      11.0701      0.00000
   6535      11.0739      0.00000
   6536      11.0660      0.00000
   6537      11.0731      0.00000
   6538      11.1009      0.00000
   6539      11.0967      0.00000
   6540      11.1026      0.00000
   6541      11.1050      0.00000
   6542      11.1269      0.00000
   6543      11.1514      0.00000
   6544      11.1556      0.00000
   6545      11.1378      0.00000
   6546      11.1497      0.00000
   6547      11.1416      0.00000
   6548      11.1852      0.00000
   6549      11.1871      0.00000
   6550      11.2158      0.00000
   6551      11.2185      0.00000
   6552      11.1971      0.00000
   6553      11.2385      0.00000
   6554      11.2267      0.00000
   6555      11.2342      0.00000
   6556      11.2544      0.00000
   6557      11.2675      0.00000
   6558      11.2677      0.00000
   6559      11.2845      0.00000
   6560      11.3079      0.00000
   6561      11.3255      0.00000
   6562      11.3067      0.00000
   6563      11.3333      0.00000
   6564      11.3580      0.00000
   6565      11.3237      0.00000
   6566      11.3507      0.00000
   6567      11.3560      0.00000
   6568      11.3748      0.00000
   6569      11.3795      0.00000
   6570      11.3873      0.00000
   6571      11.4067      0.00000
   6572      11.4317      0.00000
   6573      11.4440      0.00000
   6574      11.4295      0.00000
   6575      11.4384      0.00000
   6576      11.4671      0.00000
   6577      11.4367      0.00000
   6578      11.4982      0.00000
   6579      11.4817      0.00000
   6580      11.4742      0.00000
   6581      11.5321      0.00000
   6582      11.5036      0.00000
   6583      11.5461      0.00000
   6584      11.5412      0.00000
   6585      11.5381      0.00000
   6586      11.5337      0.00000
   6587      11.5525      0.00000
   6588      11.5704      0.00000
   6589      11.5650      0.00000
   6590      11.5904      0.00000
   6591      11.5973      0.00000
   6592      11.5768      0.00000
   6593      11.6090      0.00000
   6594      11.6011      0.00000
   6595      11.6326      0.00000
   6596      11.6236      0.00000
   6597      11.6814      0.00000
   6598      11.6351      0.00000
   6599      11.6710      0.00000
   6600      11.6714      0.00000
   6601      11.6479      0.00000
   6602      11.6978      0.00000
   6603      11.7036      0.00000
   6604      11.7126      0.00000
   6605      11.7090      0.00000
   6606      11.6980      0.00000
   6607      11.7387      0.00000
   6608      11.7211      0.00000
   6609      11.7517      0.00000
   6610      11.7369      0.00000
   6611      11.7696      0.00000
   6612      11.7419      0.00000
   6613      11.7597      0.00000
   6614      11.7858      0.00000
   6615      11.7952      0.00000
   6616      11.7863      0.00000
   6617      11.8218      0.00000
   6618      11.8167      0.00000
   6619      11.8304      0.00000
   6620      11.8465      0.00000
   6621      11.8326      0.00000
   6622      11.8618      0.00000
   6623      11.8523      0.00000
   6624      11.9003      0.00000
   6625      11.8835      0.00000
   6626      11.8932      0.00000
   6627      11.8772      0.00000
   6628      11.8735      0.00000
   6629      11.9055      0.00000
   6630      11.9220      0.00000
   6631      11.9278      0.00000
   6632      11.9407      0.00000
   6633      11.9281      0.00000
   6634      11.9562      0.00000
   6635      11.9872      0.00000
   6636      11.9794      0.00000
   6637      11.9763      0.00000
   6638      11.9915      0.00000
   6639      11.9886      0.00000
   6640      12.0125      0.00000
   6641      12.0165      0.00000
   6642      12.0255      0.00000
   6643      12.0344      0.00000
   6644      12.0437      0.00000
   6645      12.0493      0.00000
   6646      12.0459      0.00000
   6647      12.0594      0.00000
   6648      12.0871      0.00000
   6649      12.1149      0.00000
   6650      12.1091      0.00000
   6651      12.0931      0.00000
   6652      12.1591      0.00000
   6653      12.1364      0.00000
   6654      12.1153      0.00000
   6655      12.1345      0.00000
   6656      12.1790      0.00000
   6657      12.1661      0.00000
   6658      12.1516      0.00000
   6659      12.1668      0.00000
   6660      12.1904      0.00000
   6661      12.2233      0.00000
   6662      12.2070      0.00000
   6663      12.2334      0.00000
   6664      12.2270      0.00000
   6665      12.2546      0.00000
   6666      12.2651      0.00000
   6667      12.2291      0.00000
   6668      12.2834      0.00000
   6669      12.2710      0.00000
   6670      12.2756      0.00000
   6671      12.2976      0.00000
   6672      12.2951      0.00000
   6673      12.3200      0.00000
   6674      12.3403      0.00000
   6675      12.3108      0.00000
   6676      12.3430      0.00000
   6677      12.3324      0.00000
   6678      12.3272      0.00000
   6679      12.3851      0.00000
   6680      12.3409      0.00000
   6681      12.3758      0.00000
   6682      12.3761      0.00000
   6683      12.3860      0.00000
   6684      12.4146      0.00000
   6685      12.4037      0.00000
   6686      12.4259      0.00000
   6687      12.4091      0.00000
   6688      12.4619      0.00000
   6689      12.4384      0.00000
   6690      12.4193      0.00000
   6691      12.4634      0.00000
   6692      12.4575      0.00000
   6693      12.4909      0.00000
   6694      12.5151      0.00000
   6695      12.5375      0.00000
   6696      12.5394      0.00000
   6697      12.5383      0.00000
   6698      12.5393      0.00000
   6699      12.5585      0.00000
   6700      12.5328      0.00000
   6701      12.5440      0.00000
   6702      12.5981      0.00000
   6703      12.5710      0.00000
   6704      12.5858      0.00000
   6705      12.5616      0.00000
   6706      12.6167      0.00000
   6707      12.6132      0.00000
   6708      12.6241      0.00000
   6709      12.6194      0.00000
   6710      12.6564      0.00000
   6711      12.6898      0.00000
   6712      12.6395      0.00000
   6713      12.6619      0.00000
   6714      12.6950      0.00000
   6715      12.7056      0.00000
   6716      12.7122      0.00000
   6717      12.7136      0.00000
   6718      12.7277      0.00000
   6719      12.7175      0.00000
   6720      12.7198      0.00000
   6721      12.7462      0.00000
   6722      12.7417      0.00000
   6723      12.7597      0.00000
   6724      12.7692      0.00000
   6725      12.7287      0.00000
   6726      12.7874      0.00000
   6727      12.8058      0.00000
   6728      12.8149      0.00000
   6729      12.8010      0.00000
   6730      12.8228      0.00000
   6731      12.8305      0.00000
   6732      12.8216      0.00000
   6733      12.8361      0.00000
   6734      12.8203      0.00000
   6735      12.8891      0.00000
   6736      12.8489      0.00000
   6737      12.8915      0.00000
   6738      12.9018      0.00000
   6739      12.8966      0.00000
   6740      12.8916      0.00000
   6741      12.9221      0.00000
   6742      12.9250      0.00000
   6743      12.9446      0.00000
   6744      12.9490      0.00000
   6745      12.9697      0.00000
   6746      12.9473      0.00000
   6747      12.9968      0.00000
   6748      13.0125      0.00000
   6749      12.9776      0.00000
   6750      13.0178      0.00000
   6751      13.0396      0.00000
   6752      13.0268      0.00000
   6753      13.0596      0.00000
   6754      13.0665      0.00000
   6755      13.1118      0.00000
   6756      13.0869      0.00000
   6757      13.0732      0.00000
   6758      13.1256      0.00000
   6759      13.0888      0.00000
   6760      13.1217      0.00000
   6761      13.1222      0.00000
   6762      13.1260      0.00000
   6763      13.1381      0.00000
   6764      13.1434      0.00000
   6765      13.1363      0.00000
   6766      13.1588      0.00000
   6767      13.1666      0.00000
   6768      13.1665      0.00000
   6769      13.2087      0.00000
   6770      13.1908      0.00000
   6771      13.1800      0.00000
   6772      13.2452      0.00000
   6773      13.2474      0.00000
   6774      13.2404      0.00000
   6775      13.2889      0.00000
   6776      13.2699      0.00000
   6777      13.2555      0.00000
   6778      13.2777      0.00000
   6779      13.2812      0.00000
   6780      13.2919      0.00000
   6781      13.2905      0.00000
   6782      13.2866      0.00000
   6783      13.3485      0.00000
   6784      13.3374      0.00000
   6785      13.3329      0.00000
   6786      13.3555      0.00000
   6787      13.3595      0.00000
   6788      13.3949      0.00000
   6789      13.4274      0.00000
   6790      13.4314      0.00000
   6791      13.4159      0.00000
   6792      13.4353      0.00000
   6793      13.4407      0.00000
   6794      13.4211      0.00000
   6795      13.4305      0.00000
   6796      13.4752      0.00000
   6797      13.4795      0.00000
   6798      13.5113      0.00000
   6799      13.5514      0.00000
   6800      13.4868      0.00000
   6801      13.5055      0.00000
   6802      13.5766      0.00000
   6803      13.5142      0.00000
   6804      13.5312      0.00000
   6805      13.5800      0.00000
   6806      13.5521      0.00000
   6807      13.5886      0.00000
   6808      13.5904      0.00000
   6809      13.5925      0.00000
   6810      13.5961      0.00000
   6811      13.6438      0.00000
   6812      13.6469      0.00000
   6813      13.6009      0.00000
   6814      13.6566      0.00000
   6815      13.6731      0.00000
   6816      13.6972      0.00000
   6817      13.6832      0.00000
   6818      13.6978      0.00000
   6819      13.7008      0.00000
   6820      13.7436      0.00000
   6821      13.7249      0.00000
   6822      13.8005      0.00000
   6823      13.7875      0.00000
   6824      13.7681      0.00000
   6825      13.8139      0.00000
   6826      13.8154      0.00000
   6827      13.8036      0.00000
   6828      13.8259      0.00000
   6829      13.8257      0.00000
   6830      13.8443      0.00000
   6831      13.8655      0.00000
   6832      13.8445      0.00000
   6833      13.9036      0.00000
   6834      13.9225      0.00000
   6835      13.8634      0.00000
   6836      13.9007      0.00000
   6837      13.9459      0.00000
   6838      13.9453      0.00000
   6839      13.9801      0.00000
   6840      13.9492      0.00000
   6841      13.9960      0.00000
   6842      13.9867      0.00000
   6843      14.0276      0.00000
   6844      13.9989      0.00000
   6845      14.0386      0.00000
   6846      14.0274      0.00000
   6847      14.0532      0.00000
   6848      14.0672      0.00000
   6849      14.0358      0.00000
   6850      14.0579      0.00000
   6851      14.0701      0.00000
   6852      14.1040      0.00000
   6853      14.1709      0.00000
   6854      14.1448      0.00000
   6855      14.1798      0.00000
   6856      14.2205      0.00000
   6857      14.1901      0.00000
   6858      14.2407      0.00000
   6859      14.2780      0.00000
   6860      14.2616      0.00000
   6861      14.3227      0.00000
   6862      14.2904      0.00000
   6863      14.2768      0.00000
   6864      14.3537      0.00000
   6865      14.3699      0.00000
   6866      14.3062      0.00000
   6867      14.3492      0.00000
   6868      14.3507      0.00000
   6869      14.4120      0.00000
   6870      14.3643      0.00000
   6871      14.4227      0.00000
   6872      14.4126      0.00000
   6873      14.4140      0.00000
   6874      14.5088      0.00000
   6875      14.4967      0.00000
   6876      14.4606      0.00000
   6877      14.5146      0.00000
   6878      14.5082      0.00000
   6879      14.5308      0.00000
   6880      14.5676      0.00000
   6881      14.5513      0.00000
   6882      14.5663      0.00000
   6883      14.6078      0.00000
   6884      14.6540      0.00000
   6885      14.7109      0.00000
   6886      14.6733      0.00000
   6887      14.7111      0.00000
   6888      14.7057      0.00000
   6889      14.7608      0.00000
   6890      14.7707      0.00000
   6891      14.7808      0.00000
   6892      14.7863      0.00000
   6893      14.8148      0.00000
   6894      14.8406      0.00000
   6895      14.8742      0.00000
   6896      14.9143      0.00000
   6897      14.9219      0.00000
   6898      15.0096      0.00000
   6899      14.9988      0.00000
   6900      14.9403      0.00000
   6901      15.0466      0.00000
   6902      15.0285      0.00000
   6903      15.0870      0.00000
   6904      15.0730      0.00000
   6905      15.1511      0.00000
   6906      15.1766      0.00000
   6907      15.1165      0.00000
   6908      15.2049      0.00000
   6909      15.2352      0.00000
   6910      15.3079      0.00000
   6911      15.3814      0.00000
   6912      15.4618      0.00000


--------------------------------------------------------------------------------------------------------


 soft charge-density along one line, spin component           1
         0         1         2         3         4         5         6         7         8         9
 total charge-density along one line

 pseudopotential strength for first ion, spin component:           1
-27.838 -20.125   0.000  -0.051  -0.000  -0.000   0.064   0.000
-20.125 -16.415   0.000  -0.047  -0.000  -0.000   0.036   0.000
  0.000   0.000 -30.382  -0.000  -0.000  16.381   0.000   0.000
 -0.051  -0.047  -0.000 -30.382   0.000   0.000  16.380  -0.000
 -0.000  -0.000  -0.000   0.000 -30.447   0.000  -0.000  16.438
 -0.000  -0.000  16.381   0.000   0.000  -1.996  -0.000  -0.000
  0.064   0.036   0.000  16.380  -0.000  -0.000  -1.996   0.000
  0.000   0.000   0.000  -0.000  16.438  -0.000   0.000  -2.030
 -0.000  -0.000  -0.000   0.000   0.000   0.000  -0.000  -0.000
 -0.000  -0.000  -0.029   0.000   0.000   0.026  -0.000  -0.000
  0.013   0.012  -0.000  -0.080   0.000   0.000   0.071  -0.000
  0.000   0.000   0.000  -0.000  -0.027  -0.000   0.000   0.024
 -0.022  -0.021  -0.000   0.001  -0.000   0.000  -0.001   0.000
 -0.000  -0.000  -0.000   0.000   0.000   0.000  -0.000  -0.000
 -0.000  -0.000  -0.005   0.000   0.000   0.004  -0.000  -0.000
  0.002   0.002  -0.000  -0.012   0.000   0.000   0.008  -0.000
  0.000   0.000   0.000  -0.000  -0.004  -0.000   0.000   0.004
 -0.004  -0.003  -0.000   0.000  -0.000   0.000  -0.000   0.000
 total augmentation occupancy for first ion, spin component:           1
  2.507  -0.874   0.000   0.000   0.000   0.000   0.000   0.000   0.000   0.000   0.000   0.000   0.000   0.000   0.000   0.000
 -0.874   1.507   0.000   0.000   0.000   0.000   0.000   0.000   0.000   0.000   0.000   0.000   0.000   0.000   0.000   0.000
  0.000   0.000   2.000   0.000   0.000   0.000   0.000   0.000   0.000   0.000   0.000   0.000   0.000   0.000   0.000   0.000
  0.000   0.000   0.000   2.000   0.000   0.000   0.000   0.000   0.000   0.000   0.000   0.000   0.000   0.000   0.000   0.000
  0.000   0.000   0.000   0.000   2.000   0.000   0.000   0.000   0.000   0.000   0.000   0.000   0.000   0.000   0.000   0.000
  0.000   0.000   0.000   0.000   0.000   0.000   0.000   0.000   0.000   0.000   0.000   0.000   0.000   0.000   0.000   0.000
  0.000   0.000   0.000   0.000   0.000   0.000   0.000   0.000   0.000   0.000   0.000   0.000   0.000   0.000   0.000   0.000
  0.000   0.000   0.000   0.000   0.000   0.000   0.000   0.000   0.000   0.000   0.000   0.000   0.000   0.000   0.000   0.000
  0.000   0.000   0.000   0.000   0.000   0.000   0.000   0.000   0.600   0.000   0.000   0.000   0.000   0.000   0.000   0.000
  0.000   0.000   0.000   0.000   0.000   0.000   0.000   0.000   0.000   0.600   0.000   0.000   0.000   0.000   0.000   0.000
  0.000   0.000   0.000   0.000   0.000   0.000   0.000   0.000   0.000   0.000   0.600   0.000   0.000   0.000   0.000   0.000
  0.000   0.000   0.000   0.000   0.000   0.000   0.000   0.000   0.000   0.000   0.000   0.600   0.000   0.000   0.000   0.000
  0.000   0.000   0.000   0.000   0.000   0.000   0.000   0.000   0.000   0.000   0.000   0.000   0.600   0.000   0.000   0.000
  0.000   0.000   0.000   0.000   0.000   0.000   0.000   0.000   0.000   0.000   0.000   0.000   0.000   0.000   0.000   0.000
  0.000   0.000   0.000   0.000   0.000   0.000   0.000   0.000   0.000   0.000   0.000   0.000   0.000   0.000   0.000   0.000
  0.000   0.000   0.000   0.000   0.000   0.000   0.000   0.000   0.000   0.000   0.000   0.000   0.000   0.000   0.000   0.000
  0.000   0.000   0.000   0.000   0.000   0.000   0.000   0.000   0.000   0.000   0.000   0.000   0.000   0.000   0.000   0.000
  0.000   0.000   0.000   0.000   0.000   0.000   0.000   0.000   0.000   0.000   0.000   0.000   0.000   0.000   0.000   0.000


------------------------ aborting loop EDIFF was not reached (unconverged)  ----------------------------


 -----------------------------------------------------------------------------
|                                                                             |
|           W    W    AA    RRRRR   N    N  II  N    N   GGGG   !!!           |
|           W    W   A  A   R    R  NN   N  II  NN   N  G    G  !!!           |
|           W    W  A    A  R    R  N N  N  II  N N  N  G       !!!           |
|           W WW W  AAAAAA  RRRRR   N  N N  II  N  N N  G  GGG   !            |
|           WW  WW  A    A  R   R   N   NN  II  N   NN  G    G                |
|           W    W  A    A  R    R  N    N  II  N    N   GGGG   !!!           |
|                                                                             |
|     The electronic self-consistency was not achieved in the given           |
|     number of steps (NELM). The forces and other quantities evaluated       |
|     might not be reliable so examine the results carefully. If you find     |
|     spurious results, we suggest increasing NELM, if you were close to      |
|     convergence or switching to a different ALGO or adjusting the           |
|     density mixing parameters otherwise.                                    |
|                                                                             |
 -----------------------------------------------------------------------------

    CHARGE:  cpu time      3.4523: real time      2.9677
    FORLOC:  cpu time      0.0850: real time      0.0433
    FORNL :  cpu time      6.7666: real time      4.3757
    STRESS:  cpu time     19.7031: real time     12.8487
    FORCOR:  cpu time      0.3640: real time      0.2366
    FORHAR:  cpu time      0.1880: real time      0.1139
    MIXING:  cpu time      0.0839: real time      0.0612
    OFIELD:  cpu time      0.0002: real time      0.0002

  FORCE on cell =-STRESS in cart. coord.  units (eV):
  Direction    XX          YY          ZZ          XY          YZ          ZX
  --------------------------------------------------------------------------------------
  Alpha Z 27744.81068 27744.81068 27744.81068
  Ewald  ************************************    -0.00000     0.00000    -0.00000
  Hartree************************************     0.06382     0.21763    -0.21640
  E(xc)  -44158.27625-44254.61981-44287.24735    -0.00000    -0.00000     0.00000
  Local  ************************************    -0.20036    -0.45952     0.39980
  n-local-33034.08438-32627.24149-32707.69981    -0.18739    -0.31223     0.30836
  augment 19787.72827 19961.36256 19980.40077     0.02721     0.03755    -0.02684
  Kinetic160528.05650160403.99416160778.80753     0.05393     0.39304    -0.28897
  Fock        0.00000     0.00000     0.00000     0.00000     0.00000     0.00000
  -------------------------------------------------------------------------------------
  Total   10044.83916  7512.58342  7807.12182    -0.24279    -0.12353     0.17595
  in kB     824.13906   616.37756   640.54327    -0.01992    -0.01014     0.01444
  external pressure =      693.69 kB  Pullay stress =        0.00 kB


 VOLUME and BASIS-vectors are now :
 -----------------------------------------------------------------------------
  energy-cutoff  :      750.00
  volume of cell :    19527.79
      direct lattice vectors                 reciprocal lattice vectors
    35.655696000  0.000000000  0.000000000     0.028046010  0.000000000  0.000000000
     0.000000000 19.745271000  0.000000000     0.000000000  0.050645038  0.000000000
     0.000000000  0.000000000 27.737100000     0.000000000  0.000000000  0.036052796

  length of vectors
    35.655696000 19.745271000 27.737100000     0.028046010  0.050645038  0.036052796


 FORCES acting on ions
    electron-ion (+dipol)            ewald-force                    non-local-force                 convergence-correction
 -----------------------------------------------------------------------------------------------
   -.106E-01 0.179E-01 0.426E+04   -.478E-03 -.260E-12 -.426E+04   0.305E-01 -.147E-01 -.630E-01   0.933E-02 -.285E-01 -.741E+01
   -.533E-01 -.246E-01 0.426E+04   0.641E-01 0.835E-12 -.426E+04   0.148E-01 -.149E-01 -.538E-01   0.111E-02 0.156E-01 -.740E+01
   -.346E-01 0.106E-01 0.426E+04   -.252E-02 0.185E-11 -.426E+04   0.111E-01 -.173E-01 -.644E-01   0.325E-01 -.163E-01 -.740E+01
   0.788E-01 0.305E-01 0.426E+04   -.587E-01 0.161E-12 -.426E+04   0.411E-02 -.449E-02 -.693E-01   -.168E-01 -.227E-01 -.742E+01
   0.276E-01 -.106E-01 0.418E+04   -.654E-02 0.982E-10 -.421E+04   0.260E-01 0.462E-02 0.189E+01   -.120E-01 0.121E-01 0.287E+02
   -.137E-01 0.222E-01 0.418E+04   0.233E-03 0.982E-10 -.421E+04   0.722E-02 0.134E-01 0.183E+01   0.117E-01 -.130E-01 0.287E+02
   0.959E-02 0.401E-01 0.418E+04   -.210E-02 0.978E-10 -.421E+04   0.838E-02 0.756E-02 0.190E+01   -.141E-01 -.272E-01 0.287E+02
   -.515E-01 0.338E-01 0.418E+04   0.904E-02 0.980E-10 -.421E+04   0.826E-02 0.539E-02 0.184E+01   0.334E-01 -.248E-01 0.287E+02
   0.173E-01 -.593E-01 0.218E+04   0.248E-02 0.133E-09 -.218E+04   -.107E-01 0.976E-02 0.570E+00   -.114E-01 0.501E-01 0.491E+01
   -.926E-01 0.369E-02 0.218E+04   0.686E-01 0.133E-09 -.218E+04   0.406E-02 -.533E-03 0.545E+00   0.285E-01 -.487E-02 0.489E+01
   -.166E-01 -.592E-01 0.218E+04   -.330E-02 0.133E-09 -.218E+04   0.755E-03 -.109E-01 0.562E+00   0.161E-01 0.478E-01 0.486E+01
   0.109E+00 -.555E-01 0.218E+04   -.616E-01 0.133E-09 -.218E+04   0.111E-01 -.172E-01 0.559E+00   -.423E-01 0.419E-01 0.488E+01
   0.129E-01 0.690E-01 0.212E+04   -.680E-02 0.348E-14 -.212E+04   -.633E-02 0.425E-02 -.390E+00   -.839E-02 -.595E-01 -.506E+01
   0.500E-01 0.308E-01 0.212E+04   0.114E-02 0.195E-12 -.212E+04   -.553E-02 -.203E-02 -.380E+00   -.419E-01 -.214E-01 -.502E+01
   0.520E-01 -.929E-02 0.212E+04   -.314E-02 0.670E-12 -.212E+04   -.248E-02 -.128E-01 -.381E+00   -.397E-01 0.560E-02 -.508E+01
   -.934E-02 0.262E-01 0.212E+04   0.262E-02 0.886E-13 -.212E+04   -.140E-02 -.984E-02 -.388E+00   0.988E-02 -.308E-01 -.506E+01
   -.213E-01 -.218E-01 -.703E-02   0.220E-02 0.485E-12 -.143E-05   0.442E-02 0.217E-02 -.811E-02   0.146E-01 0.168E-01 0.263E-02
   -.882E-01 -.691E-01 0.938E-03   0.705E-01 0.203E-12 -.143E-05   -.385E-02 0.194E-02 -.633E-02   0.224E-01 0.493E-01 -.832E-03
   -.197E-01 0.952E-03 -.776E-02   -.356E-02 -.438E-12 -.143E-05   0.228E-01 -.815E-02 -.151E-01   0.321E-01 -.206E-02 0.104E-02
   0.986E-01 0.258E-01 -.847E-02   -.639E-01 0.736E-12 -.143E-05   0.238E-01 0.301E-02 -.290E-02   -.235E-01 -.201E-01 0.318E-02
   -.164E-02 -.395E-01 0.282E-01   -.672E-02 0.128E-09 -.100E-05   0.201E-01 -.748E-02 0.946E-03   0.981E-02 0.352E-01 -.221E-01
   -.447E-02 0.851E-02 -.202E-01   0.104E-02 0.129E-09 -.100E-05   0.505E-02 -.776E-02 0.956E-02   0.545E-02 -.112E-01 0.138E-01
   0.181E-01 -.413E-02 -.177E-03   -.336E-02 0.128E-09 -.100E-05   0.730E-02 0.895E-02 -.129E-02   -.741E-02 0.200E-02 -.474E-02
   0.181E-02 0.214E-01 -.183E-01   0.131E-02 0.128E-09 -.100E-05   0.102E-01 -.702E-02 -.556E-02   0.218E-02 -.192E-01 0.775E-02
   -.146E-01 -.128E-01 -.218E+04   0.248E-02 0.133E-09 0.218E+04   0.139E-02 -.447E-02 -.545E+00   0.122E-02 0.111E-01 -.491E+01
   -.748E-01 0.101E-02 -.218E+04   0.686E-01 0.133E-09 0.218E+04   -.877E-02 0.142E-01 -.555E+00   0.331E-02 -.417E-02 -.489E+01
   -.261E-01 -.360E-01 -.218E+04   -.330E-02 0.133E-09 0.218E+04   -.411E-02 -.430E-02 -.567E+00   0.223E-01 0.307E-01 -.491E+01
   0.104E+00 -.130E-02 -.218E+04   -.616E-01 0.133E-09 0.218E+04   0.996E-02 0.129E-01 -.558E+00   -.325E-01 -.391E-02 -.489E+01
   0.426E-01 -.181E-01 -.212E+04   -.680E-02 -.125E-11 0.212E+04   0.155E-01 -.509E-02 0.383E+00   -.278E-01 0.160E-01 0.506E+01
   -.281E-01 0.120E-01 -.212E+04   0.114E-02 0.496E-12 0.212E+04   -.293E-02 0.126E-01 0.393E+00   0.162E-01 -.564E-02 0.503E+01
   0.336E-01 -.343E-01 -.212E+04   -.314E-02 -.305E-12 0.212E+04   0.943E-02 -.693E-02 0.386E+00   -.206E-01 0.231E-01 0.503E+01
   0.306E-01 0.831E-02 -.212E+04   0.262E-02 -.383E-12 0.212E+04   0.120E-01 0.793E-03 0.371E+00   -.251E-01 -.409E-02 0.505E+01
   0.958E-03 -.235E-01 -.426E+04   -.478E-03 -.905E-13 0.426E+04   -.181E-01 -.134E-02 0.836E-01   -.744E-02 0.170E-01 0.740E+01
   -.321E-01 -.211E-01 -.426E+04   0.641E-01 0.379E-12 0.426E+04   -.426E-02 0.139E-01 0.642E-01   -.225E-01 0.237E-01 0.742E+01
   0.943E-02 0.357E-02 -.426E+04   -.252E-02 -.166E-12 0.426E+04   0.635E-02 0.553E-02 0.486E-01   0.453E-04 -.405E-02 0.745E+01
   0.560E-01 -.607E-02 -.426E+04   -.587E-01 0.207E-11 0.426E+04   -.200E-01 0.621E-02 0.651E-01   -.572E-02 0.135E-01 0.741E+01
   0.702E-03 0.312E-01 -.418E+04   -.654E-02 0.981E-10 0.421E+04   -.191E-01 -.195E-01 -.184E+01   0.352E-02 -.218E-01 -.287E+02
   -.803E-02 0.211E-01 -.418E+04   0.233E-03 0.979E-10 0.421E+04   0.298E-01 0.234E-02 -.185E+01   0.831E-02 -.156E-01 -.287E+02
   0.521E-01 0.254E-01 -.418E+04   -.210E-02 0.977E-10 0.421E+04   0.841E-02 -.107E-01 -.186E+01   -.358E-01 -.215E-01 -.287E+02
   0.881E-02 0.320E-01 -.418E+04   0.904E-02 0.978E-10 0.421E+04   -.127E-01 0.823E-02 -.185E+01   -.188E-01 -.203E-01 -.287E+02
   0.133E-01 0.475E-01 0.426E+04   -.196E-02 -.984E-12 -.426E+04   0.379E-02 0.132E-01 -.738E-01   -.638E-02 -.303E-01 -.741E+01
   0.199E-01 -.158E-01 0.426E+04   -.406E-01 0.345E-12 -.426E+04   -.311E-02 -.171E-02 -.636E-01   0.239E-01 0.115E-01 -.742E+01
   0.193E-01 -.183E-01 0.426E+04   -.185E-02 -.867E-12 -.426E+04   0.105E-01 -.111E-01 -.100E+00   -.170E-01 0.181E-01 -.742E+01
   -.168E-01 -.281E-01 0.426E+04   -.314E-01 -.256E-11 -.426E+04   -.139E-01 -.135E-03 -.733E-01   0.276E-01 0.166E-01 -.742E+01
   0.263E-01 0.441E-01 0.418E+04   -.177E-02 0.982E-10 -.421E+04   -.895E-02 -.131E-01 0.182E+01   -.168E-01 -.433E-01 0.287E+02
   -.243E-01 0.172E-01 0.418E+04   0.183E-01 0.983E-10 -.421E+04   -.180E-01 0.643E-02 0.185E+01   0.492E-02 -.253E-01 0.287E+02
   -.270E-02 -.468E-02 0.418E+04   -.181E-02 0.979E-10 -.421E+04   0.446E-02 -.484E-02 0.183E+01   -.562E-02 0.442E-02 0.286E+02
   -.329E-01 0.216E-01 0.418E+04   0.266E-01 0.980E-10 -.421E+04   -.221E-01 0.112E-01 0.185E+01   0.126E-02 -.140E-01 0.287E+02
   0.273E-01 0.484E-02 0.218E+04   -.275E-02 0.134E-09 -.218E+04   -.154E-01 0.402E-02 0.571E+00   -.251E-01 0.135E-02 0.490E+01
   0.174E-01 -.135E-01 0.218E+04   -.419E-01 0.132E-09 -.218E+04   -.895E-02 0.718E-02 0.573E+00   0.140E-01 0.125E-01 0.491E+01
   0.401E-01 0.103E-01 0.218E+04   -.248E-02 0.133E-09 -.218E+04   0.164E-01 0.174E-01 0.558E+00   -.298E-01 0.391E-04 0.487E+01
   0.851E-01 0.204E-01 0.218E+04   -.304E-01 0.133E-09 -.218E+04   -.163E-01 -.411E-02 0.546E+00   -.546E-01 -.171E-01 0.491E+01
   0.309E-01 0.521E-02 0.212E+04   -.259E-02 -.195E-12 -.212E+04   0.177E-01 0.431E-02 -.392E+00   -.143E-01 0.804E-03 -.506E+01
   0.268E-01 0.587E-03 0.212E+04   0.147E-01 -.447E-12 -.212E+04   -.153E-02 0.173E-02 -.397E+00   -.333E-01 0.527E-02 -.504E+01
   0.240E-02 0.119E-01 0.212E+04   -.252E-02 -.286E-12 -.212E+04   0.214E-01 -.827E-02 -.363E+00   0.132E-02 -.103E-01 -.509E+01
   -.497E-01 0.243E-01 0.212E+04   0.256E-01 0.533E-12 -.212E+04   0.174E-02 0.551E-02 -.385E+00   0.165E-01 -.203E-01 -.507E+01
   -.134E-01 -.395E-01 -.373E-01   -.302E-02 -.361E-13 -.143E-05   0.109E-01 -.164E-01 -.451E-02   0.136E-01 0.330E-01 0.359E-01
   0.224E-01 0.904E-03 0.332E-01   -.448E-01 0.202E-11 -.143E-05   -.734E-02 0.144E-01 -.137E-02   0.991E-02 0.194E-02 -.259E-01
   -.268E-01 -.222E-01 -.292E-01   -.270E-02 0.826E-12 -.143E-05   -.105E-01 0.523E-02 -.118E-01   0.213E-01 0.197E-01 0.340E-01
   0.555E-02 0.357E-01 -.164E-01   -.328E-01 0.689E-12 -.143E-05   -.283E-02 -.291E-02 -.957E-02   0.139E-01 -.271E-01 0.119E-01
   -.134E-01 0.426E-01 0.235E-02   -.281E-02 0.128E-09 -.100E-05   -.277E-02 -.360E-02 0.138E-01   0.103E-01 -.473E-01 0.491E-04
   0.554E-01 -.913E-02 0.327E-01   0.133E-01 0.128E-09 -.100E-05   0.282E-02 0.404E-02 -.928E-02   -.559E-01 0.483E-02 -.282E-01
   0.124E-01 0.133E-01 -.524E-01   -.265E-02 0.128E-09 -.100E-05   0.659E-02 -.138E-01 -.983E-02   -.612E-02 -.152E-01 0.419E-01
   0.123E-01 -.120E-01 -.292E-01   0.248E-01 0.128E-09 -.100E-05   0.894E-02 -.457E-02 -.603E-02   -.251E-01 0.652E-02 0.265E-01
   -.212E-01 0.362E-01 -.218E+04   -.275E-02 0.134E-09 0.218E+04   -.192E-01 0.898E-02 -.572E+00   0.185E-01 -.272E-01 -.490E+01
   0.493E-01 0.664E-02 -.218E+04   -.419E-01 0.132E-09 0.218E+04   -.101E-01 -.281E-03 -.572E+00   -.101E-01 -.129E-01 -.491E+01
   -.665E-02 -.502E-02 -.218E+04   -.248E-02 0.134E-09 0.218E+04   -.241E-01 -.911E-02 -.572E+00   0.599E-02 -.663E-02 -.493E+01
   -.780E-02 0.296E-01 -.218E+04   -.304E-01 0.133E-09 0.218E+04   -.893E-02 -.286E-02 -.553E+00   0.271E-01 -.252E-01 -.491E+01
   -.428E-01 0.723E-02 -.212E+04   -.259E-02 0.206E-11 0.212E+04   -.167E-01 -.200E-02 0.397E+00   0.421E-01 -.575E-02 0.501E+01
   -.320E-01 0.101E-01 -.212E+04   0.147E-01 -.192E-12 0.212E+04   -.214E-01 0.415E-02 0.387E+00   0.150E-01 -.244E-02 0.504E+01
   0.173E-01 -.236E-02 -.212E+04   -.252E-02 -.140E-12 0.212E+04   0.187E-01 0.105E-01 0.384E+00   -.123E-01 0.781E-03 0.503E+01
   0.480E-01 0.732E-01 -.212E+04   0.256E-01 -.218E-12 0.212E+04   0.835E-02 0.155E-01 0.366E+00   -.502E-01 -.542E-01 0.509E+01
   0.145E-01 0.277E-01 -.426E+04   -.196E-02 -.124E-12 0.426E+04   -.917E-02 0.597E-03 0.534E-01   -.138E-01 -.220E-01 0.745E+01
   -.143E-01 0.492E-02 -.426E+04   -.406E-01 -.439E-12 0.426E+04   0.430E-02 -.771E-03 0.611E-01   0.372E-01 0.101E-02 0.739E+01
   -.220E-01 0.320E-01 -.426E+04   -.185E-02 -.511E-13 0.426E+04   0.116E-01 0.686E-02 0.863E-01   0.203E-01 -.292E-01 0.739E+01
   0.285E-01 0.124E-01 -.426E+04   -.314E-01 -.106E-11 0.426E+04   -.592E-02 -.385E-02 0.823E-01   0.598E-03 -.695E-02 0.739E+01
   0.115E-01 0.541E-01 -.418E+04   -.177E-02 0.982E-10 0.421E+04   -.416E-02 0.118E-01 -.184E+01   -.577E-02 -.398E-01 -.287E+02
   0.121E-01 0.617E-01 -.418E+04   0.183E-01 0.982E-10 0.421E+04   0.138E-01 0.212E-01 -.185E+01   -.225E-01 -.503E-01 -.287E+02
   -.145E-01 -.845E-02 -.418E+04   -.181E-02 0.981E-10 0.421E+04   -.775E-02 -.540E-02 -.183E+01   0.175E-01 0.158E-01 -.287E+02
   -.537E-01 -.138E-01 -.418E+04   0.266E-01 0.979E-10 0.421E+04   -.320E-02 -.666E-02 -.184E+01   0.212E-01 0.727E-02 -.287E+02
   -.306E-01 0.180E-01 0.426E+04   -.211E-02 -.528E-12 -.426E+04   0.234E-03 0.512E-02 -.505E-01   0.190E-01 -.174E-01 -.739E+01
   0.187E-01 0.713E-01 0.426E+04   -.229E-01 -.230E-11 -.426E+04   -.115E-01 0.221E-01 -.773E-01   -.231E-02 -.625E-01 -.742E+01
   0.150E-01 -.224E-01 0.426E+04   -.612E-02 -.956E-12 -.426E+04   0.130E-01 0.594E-02 -.670E-01   -.610E-03 0.162E-01 -.737E+01
   0.454E-01 0.112E-01 0.426E+04   -.142E-01 -.103E-11 -.426E+04   -.111E-01 -.296E-02 -.702E-01   -.268E-01 -.149E-01 -.745E+01
   -.305E-01 -.103E-01 0.418E+04   -.220E-02 0.984E-10 -.421E+04   0.390E-02 0.947E-02 0.183E+01   0.226E-01 0.141E-01 0.287E+02
   -.555E-01 0.631E-02 0.418E+04   0.351E-01 0.984E-10 -.421E+04   -.172E-01 0.118E-02 0.187E+01   0.184E-01 -.385E-02 0.287E+02
   0.430E-01 -.755E-02 0.418E+04   -.151E-02 0.979E-10 -.421E+04   0.129E-01 0.913E-02 0.186E+01   -.242E-01 0.610E-02 0.287E+02
   -.194E-01 -.134E-01 0.418E+04   0.488E-01 0.974E-10 -.421E+04   -.104E-01 -.741E-02 0.185E+01   -.180E-01 0.135E-01 0.287E+02
   0.193E-01 -.468E-01 0.218E+04   -.267E-02 0.133E-09 -.218E+04   0.199E-02 -.230E-01 0.551E+00   -.768E-02 0.349E-01 0.492E+01
   0.508E-01 0.238E-01 0.218E+04   -.198E-01 0.133E-09 -.218E+04   0.735E-02 0.586E-02 0.553E+00   -.183E-01 -.175E-01 0.490E+01
   0.170E-02 0.265E-02 0.218E+04   -.597E-02 0.133E-09 -.218E+04   -.137E-02 -.154E-01 0.561E+00   0.203E-02 -.704E-02 0.490E+01
   0.290E-03 0.712E-02 0.218E+04   -.914E-02 0.133E-09 -.218E+04   -.107E-01 0.509E-02 0.576E+00   0.668E-02 -.166E-02 0.494E+01
   0.393E-01 -.374E-01 0.212E+04   -.267E-02 -.571E-12 -.212E+04   0.876E-02 0.127E-01 -.391E+00   -.192E-01 0.317E-01 -.508E+01
   -.425E-01 -.584E-02 0.212E+04   0.364E-01 0.898E-12 -.212E+04   -.580E-03 -.214E-02 -.391E+00   0.789E-02 0.167E-02 -.502E+01
   0.139E-01 0.335E-01 0.212E+04   0.323E-02 0.108E-12 -.212E+04   -.760E-02 -.107E-01 -.397E+00   -.867E-02 -.225E-01 -.503E+01
   -.825E-01 0.112E-01 0.212E+04   0.521E-01 -.303E-12 -.212E+04   -.129E-03 0.143E-01 -.373E+00   0.327E-01 -.859E-02 -.505E+01
   -.118E-01 -.175E-02 -.254E-01   -.270E-02 0.870E-12 -.143E-05   0.834E-03 0.594E-02 -.856E-02   0.774E-02 0.100E-01 0.292E-01
   0.584E-01 -.340E-01 0.348E-02   -.214E-01 0.120E-11 -.143E-05   0.395E-03 0.187E-02 -.741E-02   -.286E-01 0.246E-01 -.202E-02
   0.261E-01 -.121E-01 0.149E-01   -.548E-02 0.140E-11 -.143E-05   -.175E-01 -.584E-02 -.928E-02   -.231E-01 0.117E-01 -.959E-02
   0.528E-01 -.281E-01 0.148E-01   -.100E-01 0.514E-12 -.143E-05   -.150E-01 -.142E-01 -.214E-02   -.434E-01 0.240E-01 -.133E-01
   -.504E-01 0.106E-01 -.934E-02   -.244E-02 0.128E-09 -.100E-05   -.321E-02 -.193E-01 0.304E-02   0.361E-01 -.165E-01 0.121E-01
   -.650E-01 0.192E-01 0.128E-01   0.363E-01 0.128E-09 -.100E-05   -.346E-02 -.484E-02 0.292E-02   0.371E-01 -.126E-01 -.121E-01
   0.241E-01 -.217E-01 -.246E-01   0.389E-02 0.129E-09 -.100E-05   -.131E-01 -.147E-01 -.133E-01   -.292E-01 0.145E-01 0.228E-01
   0.239E-01 -.133E-01 0.505E-01   0.522E-01 0.129E-09 -.100E-05   -.322E-02 -.644E-03 0.181E-01   -.664E-01 0.151E-01 -.451E-01
   -.279E-01 -.273E-01 -.218E+04   -.267E-02 0.133E-09 0.218E+04   0.578E-02 -.109E-01 -.554E+00   0.302E-01 0.145E-01 -.494E+01
   0.222E-01 -.233E-01 -.218E+04   -.198E-01 0.132E-09 0.218E+04   0.207E-02 -.107E-01 -.545E+00   -.454E-02 0.166E-01 -.485E+01
   0.378E-01 0.170E-01 -.218E+04   -.597E-02 0.133E-09 0.218E+04   -.156E-01 -.703E-02 -.555E+00   -.265E-01 -.168E-01 -.488E+01
   0.344E-01 -.252E-01 -.218E+04   -.914E-02 0.132E-09 0.218E+04   -.139E-01 -.118E-02 -.565E+00   -.187E-01 0.209E-01 -.486E+01
   -.607E-02 -.219E-01 -.212E+04   -.267E-02 -.385E-12 0.212E+04   -.115E-02 0.547E-02 0.398E+00   0.760E-02 0.239E-01 0.505E+01
   -.317E-01 0.219E-01 -.212E+04   0.364E-01 -.567E-12 0.212E+04   0.169E-01 0.125E-03 0.388E+00   0.205E-02 -.191E-01 0.510E+01
   -.426E-03 -.256E-01 -.212E+04   0.323E-02 -.169E-12 0.212E+04   0.508E-02 0.112E-01 0.390E+00   0.338E-02 0.266E-01 0.499E+01
   -.980E-01 0.316E-01 -.212E+04   0.521E-01 0.146E-11 0.212E+04   0.362E-02 -.250E-03 0.391E+00   0.330E-01 -.216E-01 0.507E+01
   0.171E-01 0.387E-01 -.426E+04   -.211E-02 -.658E-12 0.426E+04   -.923E-02 0.113E-01 0.653E-01   -.135E-01 -.352E-01 0.741E+01
   -.981E-02 0.108E-01 -.426E+04   -.229E-01 -.165E-11 0.426E+04   0.121E-02 0.629E-02 0.913E-01   0.272E-01 -.385E-02 0.736E+01
   0.978E-02 0.370E-01 -.426E+04   -.612E-02 -.473E-12 0.426E+04   -.887E-02 0.342E-03 0.733E-01   -.101E-02 -.247E-01 0.742E+01
   0.811E-03 -.278E-01 -.426E+04   -.142E-01 -.196E-11 0.426E+04   -.493E-02 0.285E-02 0.557E-01   0.727E-02 0.152E-01 0.739E+01
   0.670E-01 -.364E-01 -.418E+04   -.220E-02 0.984E-10 0.421E+04   0.224E-02 0.688E-02 -.184E+01   -.441E-01 0.365E-01 -.287E+02
   -.156E+00 0.589E-02 -.418E+04   0.351E-01 0.977E-10 0.421E+04   0.162E-01 0.597E-02 -.186E+01   0.992E-01 -.648E-02 -.287E+02
   0.151E-01 0.324E-01 -.418E+04   -.151E-02 0.978E-10 0.421E+04   -.302E-01 -.575E-02 -.183E+01   -.941E-02 -.249E-01 -.287E+02
   0.140E-01 -.424E-01 -.418E+04   0.488E-01 0.974E-10 0.421E+04   -.809E-02 0.740E-02 -.184E+01   -.530E-01 0.303E-01 -.287E+02
   0.248E-01 0.290E-01 0.426E+04   -.478E-03 -.104E-09 -.426E+04   -.103E-01 0.731E-02 -.665E-01   -.214E-01 -.242E-01 -.736E+01
   -.893E-01 -.374E-01 0.426E+04   0.641E-01 -.104E-09 -.426E+04   -.813E-02 -.162E-02 -.286E-01   0.224E-01 0.210E-01 -.741E+01
   -.672E-01 -.125E-01 0.426E+04   -.252E-02 -.106E-09 -.426E+04   0.504E-02 0.181E-01 -.611E-01   0.566E-01 0.522E-02 -.739E+01
   0.509E-01 -.363E-02 0.426E+04   -.587E-01 -.105E-09 -.426E+04   0.892E-02 0.310E-02 -.676E-01   0.565E-03 0.172E-02 -.739E+01
   0.403E-01 -.335E-01 0.418E+04   -.654E-02 -.663E-12 -.421E+04   0.708E-02 -.203E-01 0.184E+01   -.250E-01 0.261E-01 0.287E+02
   -.334E-01 -.479E-01 0.418E+04   0.233E-03 -.195E-11 -.421E+04   0.280E-02 -.196E-02 0.185E+01   0.268E-01 0.374E-01 0.287E+02
   -.314E-01 -.407E-01 0.418E+04   -.210E-02 -.434E-12 -.421E+04   -.151E-01 -.372E-02 0.183E+01   0.231E-01 0.302E-01 0.287E+02
   0.881E-02 -.285E-02 0.418E+04   0.904E-02 -.197E-12 -.421E+04   -.105E-01 -.113E-01 0.185E+01   -.128E-01 -.324E-02 0.287E+02
   0.120E-01 0.319E-01 0.218E+04   0.248E-02 -.304E-13 -.218E+04   0.166E-01 -.726E-02 0.556E+00   -.878E-02 -.303E-01 0.496E+01
   -.789E-01 -.558E-01 0.218E+04   0.686E-01 -.513E-12 -.218E+04   -.867E-02 0.194E-02 0.553E+00   0.154E-01 0.455E-01 0.496E+01
   0.110E-01 0.675E-01 0.218E+04   -.330E-02 -.407E-13 -.218E+04   -.205E-02 -.160E-02 0.548E+00   -.131E-01 -.595E-01 0.493E+01
   0.714E-01 -.501E-01 0.218E+04   -.616E-01 0.114E-12 -.218E+04   0.218E-02 -.545E-02 0.547E+00   -.130E-01 0.395E-01 0.492E+01
   -.552E-01 -.959E-02 0.212E+04   -.680E-02 -.182E-09 -.212E+04   0.271E-02 -.100E-01 -.376E+00   0.502E-01 0.875E-02 -.505E+01
   -.461E-01 -.142E-01 0.212E+04   0.114E-02 -.182E-09 -.212E+04   -.156E-01 -.151E-01 -.389E+00   0.370E-01 0.432E-02 -.504E+01
   0.526E-01 0.278E-01 0.212E+04   -.314E-02 -.182E-09 -.212E+04   -.616E-02 0.183E-01 -.374E+00   -.407E-01 -.251E-01 -.503E+01
   0.458E-01 -.579E-01 0.212E+04   0.262E-02 -.181E-09 -.212E+04   0.128E-01 -.127E-01 -.387E+00   -.483E-01 0.376E-01 -.511E+01
   -.849E-02 -.410E-01 0.540E-01   0.220E-02 -.117E-09 -.143E-05   -.401E-02 -.237E-01 -.435E-02   0.472E-02 0.265E-01 -.456E-01
   -.330E-01 0.173E-01 -.281E-01   0.705E-01 -.116E-09 -.143E-05   -.196E-02 -.527E-02 -.218E-02   -.329E-01 -.966E-02 0.227E-01
   0.684E-01 -.209E-01 0.530E-01   -.356E-02 -.117E-09 -.143E-05   0.131E-02 -.145E-01 0.233E-02   -.528E-01 0.163E-01 -.506E-01
   0.118E+00 0.544E-01 -.649E-01   -.639E-01 -.119E-09 -.143E-05   0.126E-01 0.141E-01 0.357E-02   -.430E-01 -.440E-01 0.467E-01
   0.453E-01 -.826E-02 0.124E-01   -.672E-02 0.559E-12 -.100E-05   -.732E-01 0.318E-02 -.173E-02   -.311E-01 0.134E-02 -.148E-01
   0.635E-01 -.258E-01 0.133E-01   0.104E-02 -.709E-12 -.100E-05   -.554E-01 0.146E-01 0.100E-01   -.539E-01 0.321E-01 -.349E-02
   0.610E-01 0.507E-01 0.179E-01   -.336E-02 0.125E-11 -.100E-05   -.569E-02 -.950E-02 0.886E-02   -.470E-01 -.419E-01 -.142E-01
   -.345E-01 -.103E-01 -.518E-01   0.131E-02 0.155E-11 -.100E-05   -.207E-01 0.817E-02 0.348E-02   0.175E-01 0.155E-01 0.415E-01
   0.112E-01 -.787E-02 -.218E+04   0.248E-02 0.806E-13 0.218E+04   -.124E-02 -.769E-02 -.564E+00   -.118E-01 0.971E-02 -.490E+01
   -.524E-01 -.103E-02 -.218E+04   0.686E-01 -.170E-12 0.218E+04   0.111E-02 0.674E-02 -.551E+00   -.108E-01 -.368E-02 -.494E+01
   0.174E-01 -.323E-01 -.218E+04   -.330E-02 0.796E-13 0.218E+04   0.163E-01 -.309E-01 -.566E+00   -.369E-02 0.202E-01 -.491E+01
   0.844E-01 0.271E-01 -.218E+04   -.616E-01 0.151E-12 0.218E+04   0.716E-03 -.879E-02 -.570E+00   -.190E-01 -.268E-01 -.494E+01
   -.315E-02 0.176E-02 -.212E+04   -.680E-02 -.181E-09 0.212E+04   0.125E-01 -.123E-01 0.371E+00   0.470E-02 -.593E-02 0.503E+01
   -.363E-03 -.801E-01 -.212E+04   0.114E-02 -.181E-09 0.212E+04   -.150E-02 -.314E-02 0.393E+00   -.155E-02 0.630E-01 0.507E+01
   -.244E-02 0.332E-01 -.212E+04   -.314E-02 -.182E-09 0.212E+04   -.167E-01 0.206E-01 0.384E+00   0.128E-02 -.227E-01 0.508E+01
   -.455E-01 0.129E-01 -.212E+04   0.262E-02 -.181E-09 0.212E+04   0.718E-02 0.193E-01 0.398E+00   0.370E-01 -.665E-02 0.506E+01
   -.116E-01 -.739E-02 -.426E+04   -.478E-03 -.105E-09 0.426E+04   -.641E-02 -.568E-02 0.651E-01   0.360E-02 0.564E-02 0.741E+01
   -.243E-01 0.374E-01 -.426E+04   0.641E-01 -.103E-09 0.426E+04   -.385E-02 -.225E-02 0.634E-01   -.326E-01 -.340E-01 0.742E+01
   -.412E-01 -.116E-01 -.426E+04   -.252E-02 -.104E-09 0.426E+04   0.984E-02 0.427E-02 0.319E-01   0.347E-01 0.940E-02 0.742E+01
   0.531E-01 0.343E-01 -.426E+04   -.587E-01 -.105E-09 0.426E+04   -.624E-02 -.227E-02 0.501E-01   0.317E-02 -.313E-01 0.741E+01
   -.721E-01 0.204E-01 -.418E+04   -.654E-02 0.114E-11 0.421E+04   -.106E-01 -.877E-02 -.185E+01   0.586E-01 -.116E-01 -.287E+02
   -.414E-01 0.417E-01 -.418E+04   0.233E-03 -.945E-12 0.421E+04   0.228E-02 -.146E-01 -.184E+01   0.256E-01 -.383E-01 -.287E+02
   0.904E-02 -.152E-01 -.418E+04   -.210E-02 -.906E-12 0.421E+04   -.550E-02 -.899E-02 -.185E+01   -.107E-01 0.787E-02 -.287E+02
   -.257E-01 -.411E-01 -.418E+04   0.904E-02 -.683E-12 0.421E+04   0.258E-02 -.542E-02 -.183E+01   0.224E-01 0.305E-01 -.287E+02
   0.435E-01 0.307E-01 0.426E+04   -.196E-02 -.105E-09 -.426E+04   -.153E-01 -.128E-01 -.616E-01   -.379E-01 -.242E-01 -.741E+01
   0.849E-01 -.303E-01 0.426E+04   -.406E-01 -.104E-09 -.426E+04   -.115E-01 0.114E-01 -.583E-01   -.427E-01 0.309E-01 -.740E+01
   -.100E+00 0.632E-02 0.426E+04   -.185E-02 -.104E-09 -.426E+04   0.182E-03 0.206E-03 -.692E-01   0.846E-01 -.648E-02 -.739E+01
   0.926E-01 -.703E-02 0.426E+04   -.314E-01 -.102E-09 -.426E+04   -.861E-02 0.636E-02 -.671E-01   -.478E-01 0.251E-02 -.740E+01
   0.323E-01 0.104E-01 0.418E+04   -.177E-02 0.477E-12 -.421E+04   0.143E-01 -.397E-02 0.182E+01   -.227E-01 -.653E-02 0.287E+02
   -.177E-01 -.400E-02 0.418E+04   0.183E-01 0.565E-14 -.421E+04   0.171E-01 0.269E-02 0.186E+01   0.646E-03 0.312E-02 0.286E+02
   -.341E-01 0.388E-01 0.418E+04   -.181E-02 -.118E-12 -.421E+04   -.517E-02 -.151E-02 0.185E+01   0.322E-01 -.392E-01 0.287E+02
   0.299E-01 0.133E-01 0.418E+04   0.266E-01 0.125E-12 -.421E+04   -.330E-02 0.196E-01 0.186E+01   -.475E-01 -.244E-02 0.287E+02
   -.669E-02 0.178E-01 0.218E+04   -.275E-02 0.662E-12 -.218E+04   -.911E-02 0.638E-02 0.559E+00   0.204E-02 -.166E-01 0.493E+01
   0.913E-01 0.131E-01 0.218E+04   -.419E-01 -.108E-11 -.218E+04   0.107E-01 -.612E-02 0.562E+00   -.404E-01 -.818E-02 0.493E+01
   -.463E-01 -.288E-02 0.218E+04   -.248E-02 -.107E-11 -.218E+04   -.293E-02 -.683E-02 0.582E+00   0.435E-01 0.513E-02 0.490E+01
   -.104E-01 -.348E-01 0.218E+04   -.304E-01 -.849E-12 -.218E+04   -.128E-01 -.111E-01 0.573E+00   0.332E-01 0.281E-01 0.492E+01
   0.803E-01 0.320E-01 0.212E+04   -.259E-02 -.182E-09 -.212E+04   0.400E-02 0.353E-02 -.389E+00   -.644E-01 -.273E-01 -.506E+01
   -.604E-01 0.567E-02 0.212E+04   0.147E-01 -.183E-09 -.212E+04   -.890E-02 0.113E-01 -.386E+00   0.362E-01 -.630E-02 -.508E+01
   -.196E-01 -.426E-01 0.212E+04   -.252E-02 -.181E-09 -.212E+04   -.468E-02 0.803E-02 -.382E+00   0.190E-01 0.355E-01 -.505E+01
   0.542E-02 0.255E-01 0.212E+04   0.256E-01 -.183E-09 -.212E+04   0.631E-02 -.389E-03 -.403E+00   -.227E-01 -.172E-01 -.506E+01
   -.415E-01 -.162E-01 0.158E-01   -.302E-02 -.118E-09 -.143E-05   -.196E-01 0.165E-02 -.959E-02   0.257E-01 0.117E-01 -.191E-01
   0.724E-01 0.220E-01 -.143E-01   -.448E-01 -.118E-09 -.143E-05   -.109E-01 0.160E-02 0.179E-01   -.247E-01 -.240E-01 0.186E-01
   -.880E-01 0.125E-01 0.466E-01   -.270E-02 -.116E-09 -.143E-05   -.104E-01 0.450E-02 0.581E-02   0.737E-01 -.974E-02 -.309E-01
   -.530E-03 -.215E-01 -.462E-01   -.328E-01 -.119E-09 -.143E-05   0.138E-03 -.202E-01 -.131E-01   0.295E-01 0.852E-02 0.412E-01
   0.576E-01 -.518E-01 0.328E-01   -.281E-02 0.812E-13 -.100E-05   0.117E-01 -.602E-02 0.114E-01   -.361E-01 0.393E-01 -.235E-01
   -.677E-03 -.496E-01 -.512E-01   0.133E-01 -.275E-12 -.100E-05   0.547E-02 0.626E-03 -.320E-02   -.869E-02 0.380E-01 0.472E-01
   -.902E-03 -.107E-01 0.932E-02   -.265E-02 0.127E-11 -.100E-05   -.603E-02 -.240E-02 -.321E-02   0.811E-02 0.101E-01 -.112E-01
   0.743E-02 -.780E-02 -.897E-02   0.248E-01 -.166E-12 -.100E-05   0.118E-01 -.542E-02 -.108E-01   -.176E-01 0.487E-02 0.106E-01
   0.205E-01 0.183E-01 -.218E+04   -.275E-02 -.826E-12 0.218E+04   -.824E-02 0.495E-02 -.559E+00   -.162E-01 -.200E-01 -.492E+01
   0.397E-01 0.492E-01 -.218E+04   -.419E-01 0.178E-12 0.218E+04   0.656E-02 0.262E-02 -.547E+00   0.846E-02 -.381E-01 -.489E+01
   -.132E-01 0.352E-01 -.218E+04   -.248E-02 -.598E-12 0.218E+04   -.747E-03 -.682E-02 -.550E+00   0.132E-01 -.335E-01 -.491E+01
   0.675E-01 -.329E-01 -.218E+04   -.304E-01 -.126E-12 0.218E+04   0.120E-01 -.901E-02 -.555E+00   -.363E-01 0.259E-01 -.495E+01
   -.766E-04 -.196E-01 -.212E+04   -.259E-02 -.183E-09 0.212E+04   -.947E-02 -.160E-02 0.372E+00   0.477E-02 0.159E-01 0.508E+01
   0.405E-01 -.513E-01 -.212E+04   0.147E-01 -.183E-09 0.212E+04   0.951E-02 0.547E-02 0.383E+00   -.428E-01 0.480E-01 0.505E+01
   -.498E-01 -.594E-03 -.212E+04   -.252E-02 -.182E-09 0.212E+04   -.105E-01 -.133E-01 0.392E+00   0.418E-01 -.190E-02 0.502E+01
   -.542E-02 0.260E-02 -.212E+04   0.256E-01 -.184E-09 0.212E+04   0.868E-02 -.553E-02 0.376E+00   -.173E-01 -.428E-02 0.508E+01
   -.147E-01 0.237E-01 -.426E+04   -.196E-02 -.105E-09 0.426E+04   -.459E-02 -.426E-02 0.391E-01   0.164E-01 -.178E-01 0.743E+01
   0.112E+00 0.420E-01 -.426E+04   -.406E-01 -.105E-09 0.426E+04   -.627E-03 0.155E-01 0.570E-01   -.596E-01 -.314E-01 0.740E+01
   0.412E-02 0.653E-02 -.426E+04   -.185E-02 -.104E-09 0.426E+04   -.215E-01 -.719E-02 0.532E-01   0.322E-02 -.707E-02 0.744E+01
   -.196E-01 0.165E-01 -.426E+04   -.314E-01 -.104E-09 0.426E+04   0.472E-02 0.111E-01 0.462E-01   0.417E-01 -.668E-02 0.742E+01
   -.213E-01 0.565E-01 -.418E+04   -.177E-02 0.751E-12 0.421E+04   0.637E-02 -.342E-02 -.185E+01   0.195E-01 -.472E-01 -.287E+02
   0.215E-01 -.971E-02 -.418E+04   0.183E-01 -.923E-13 0.421E+04   0.386E-02 0.141E-01 -.184E+01   -.226E-01 0.143E-01 -.287E+02
   -.147E-01 0.257E-01 -.418E+04   -.181E-02 0.120E-11 0.421E+04   -.196E-01 0.157E-02 -.185E+01   0.174E-01 -.185E-01 -.287E+02
   -.249E-01 0.625E-01 -.418E+04   0.266E-01 0.116E-11 0.421E+04   -.103E-01 0.866E-02 -.185E+01   -.426E-02 -.509E-01 -.286E+02
   -.285E-01 -.545E-01 0.426E+04   -.211E-02 -.103E-09 -.426E+04   -.135E-02 0.296E-02 -.569E-01   0.239E-01 0.408E-01 -.739E+01
   0.432E-01 0.174E-01 0.426E+04   -.229E-01 -.103E-09 -.426E+04   0.145E-02 0.283E-02 -.607E-01   -.108E-01 -.172E-01 -.739E+01
   0.106E+00 -.608E-02 0.426E+04   -.612E-02 -.102E-09 -.426E+04   -.625E-02 0.919E-02 -.837E-01   -.836E-01 0.878E-03 -.739E+01
   -.425E-01 -.113E-01 0.426E+04   -.142E-01 -.104E-09 -.426E+04   -.146E-01 0.154E-01 -.746E-01   0.442E-01 0.584E-02 -.743E+01
   0.434E-01 -.879E-02 0.418E+04   -.220E-02 -.116E-12 -.421E+04   -.133E-01 -.124E-01 0.182E+01   -.326E-01 0.271E-02 0.287E+02
   -.765E-01 -.233E-01 0.418E+04   0.351E-01 -.262E-12 -.421E+04   -.102E-01 0.249E-02 0.185E+01   0.369E-01 0.198E-01 0.287E+02
   -.461E-01 0.289E-01 0.418E+04   -.151E-02 -.139E-12 -.421E+04   -.284E-04 0.207E-01 0.183E+01   0.334E-01 -.199E-01 0.287E+02
   -.418E-01 0.139E-01 0.418E+04   0.488E-01 0.773E-12 -.421E+04   -.548E-02 -.835E-02 0.185E+01   -.795E-02 -.165E-01 0.287E+02
   0.493E-01 -.356E-02 0.218E+04   -.267E-02 -.433E-12 -.218E+04   0.234E-02 -.327E-02 0.569E+00   -.367E-01 0.155E-02 0.490E+01
   0.481E-01 0.225E-01 0.218E+04   -.198E-01 -.328E-12 -.218E+04   0.134E-01 0.383E-02 0.563E+00   -.191E-01 -.144E-01 0.492E+01
   0.384E-02 -.441E-01 0.218E+04   -.597E-02 -.556E-12 -.218E+04   0.111E-01 0.333E-02 0.555E+00   0.179E-02 0.367E-01 0.492E+01
   0.656E-02 -.455E-01 0.218E+04   -.914E-02 -.688E-12 -.218E+04   -.823E-02 -.974E-02 0.549E+00   0.397E-02 0.274E-01 0.491E+01
   0.622E-01 0.253E-01 0.212E+04   -.267E-02 -.181E-09 -.212E+04   0.341E-02 0.365E-02 -.393E+00   -.498E-01 -.219E-01 -.507E+01
   -.432E-01 -.710E-01 0.212E+04   0.364E-01 -.183E-09 -.212E+04   -.226E-01 -.587E-02 -.397E+00   0.133E-01 0.562E-01 -.501E+01
   0.260E-01 -.287E-01 0.212E+04   0.323E-02 -.182E-09 -.212E+04   -.311E-02 -.692E-02 -.390E+00   -.191E-01 0.187E-01 -.505E+01
   -.582E-01 0.986E-02 0.212E+04   0.521E-01 -.182E-09 -.212E+04   0.109E-01 0.140E-02 -.385E+00   0.976E-02 -.243E-02 -.505E+01
   0.300E-01 0.192E-01 -.267E-02   -.270E-02 -.117E-09 -.143E-05   -.559E-03 0.504E-02 0.724E-02   -.254E-01 -.175E-01 0.264E-02
   0.505E-01 0.548E-02 -.121E-01   -.214E-01 -.117E-09 -.143E-05   -.573E-02 -.228E-02 -.251E-02   -.274E-01 -.166E-03 0.896E-02
   -.238E-01 0.464E-02 -.329E-01   -.548E-02 -.117E-09 -.143E-05   0.565E-02 0.624E-03 -.841E-04   0.267E-01 0.707E-03 0.308E-01
   0.322E-01 -.178E-01 -.192E-01   -.100E-01 -.118E-09 -.143E-05   0.445E-02 -.763E-02 0.513E-02   -.115E-01 0.103E-01 0.155E-01
   0.316E-01 -.548E-02 0.174E-01   -.244E-02 -.108E-12 -.100E-05   -.517E-02 0.371E-02 0.116E-02   -.233E-01 0.573E-02 -.203E-01
   -.655E-01 0.260E-02 0.324E-02   0.363E-01 0.864E-12 -.100E-05   0.912E-02 -.417E-02 -.138E-01   0.226E-01 -.551E-02 -.540E-02
   -.656E-01 0.311E-01 0.377E-01   0.389E-02 -.171E-12 -.100E-05   0.689E-01 0.766E-02 0.103E-01   0.585E-01 -.213E-01 -.248E-01
   -.685E-01 -.101E-01 0.104E-01   0.522E-01 0.126E-12 -.100E-05   0.437E-01 -.118E-01 -.466E-02   0.122E-01 0.302E-02 -.106E-01
   0.177E-01 -.775E-02 -.218E+04   -.267E-02 0.122E-11 0.218E+04   0.130E-01 0.149E-02 -.561E+00   -.598E-03 0.138E-01 -.489E+01
   0.270E-01 -.522E-01 -.218E+04   -.198E-01 0.287E-12 0.218E+04   0.138E-01 -.143E-02 -.557E+00   -.376E-02 0.439E-01 -.487E+01
   0.198E-01 0.974E-02 -.218E+04   -.597E-02 0.200E-12 0.218E+04   0.529E-02 0.354E-02 -.565E+00   -.696E-02 -.523E-02 -.489E+01
   0.210E-01 -.952E-02 -.218E+04   -.914E-02 -.664E-13 0.218E+04   -.830E-02 -.203E-02 -.558E+00   -.134E-01 0.119E-01 -.487E+01
   -.112E-01 0.122E-01 -.212E+04   -.267E-02 -.181E-09 0.212E+04   0.974E-02 0.803E-03 0.382E+00   0.107E-01 -.960E-02 0.505E+01
   -.634E-01 0.217E-02 -.212E+04   0.364E-01 -.182E-09 0.212E+04   -.119E-02 0.307E-02 0.381E+00   0.251E-01 -.335E-02 0.506E+01
   0.193E-01 -.194E-01 -.212E+04   0.323E-02 -.182E-09 0.212E+04   -.105E-02 0.765E-02 0.382E+00   -.205E-01 0.196E-01 0.503E+01
   -.993E-01 0.586E-01 -.212E+04   0.521E-01 -.182E-09 0.212E+04   -.777E-03 0.957E-02 0.381E+00   0.336E-01 -.451E-01 0.507E+01
   0.230E-01 -.821E-02 -.426E+04   -.211E-02 -.105E-09 0.426E+04   0.673E-02 0.112E-02 0.816E-01   -.202E-01 -.627E-03 0.744E+01
   0.782E-02 -.140E-01 -.426E+04   -.229E-01 -.103E-09 0.426E+04   -.515E-02 0.813E-02 0.607E-01   0.784E-02 0.110E-01 0.739E+01
   0.136E-01 0.396E-01 -.426E+04   -.612E-02 -.104E-09 0.426E+04   0.640E-02 -.308E-02 0.621E-01   -.625E-02 -.378E-01 0.743E+01
   0.236E-01 0.568E-02 -.426E+04   -.142E-01 -.103E-09 0.426E+04   0.278E-03 -.826E-02 0.656E-01   -.930E-02 -.150E-01 0.740E+01
   0.130E-01 -.377E-01 -.418E+04   -.220E-02 0.594E-12 0.421E+04   0.470E-02 -.404E-02 -.182E+01   -.691E-02 0.354E-01 -.287E+02
   -.658E-01 -.635E-01 -.418E+04   0.351E-01 -.670E-12 0.421E+04   0.557E-02 -.103E-01 -.183E+01   0.290E-01 0.510E-01 -.287E+02
   0.809E-02 -.365E-01 -.418E+04   -.151E-02 -.683E-12 0.421E+04   0.200E-03 -.373E-02 -.186E+01   -.885E-02 0.338E-01 -.287E+02
   -.145E-01 -.928E-01 -.418E+04   0.488E-01 0.426E-12 0.421E+04   -.176E-02 0.115E-01 -.184E+01   -.295E-01 0.796E-01 -.287E+02
   -.169E-01 -.342E-01 0.426E+04   -.478E-03 0.104E-09 -.426E+04   0.995E-02 -.203E-02 -.707E-01   0.234E-01 0.297E-01 -.743E+01
   -.792E-01 0.425E-03 0.426E+04   0.641E-01 0.103E-09 -.426E+04   0.487E-02 0.298E-02 -.755E-01   0.201E-01 0.192E-02 -.742E+01
   -.202E-01 -.526E-01 0.426E+04   -.252E-02 0.104E-09 -.426E+04   0.211E-03 -.173E-01 -.668E-01   0.145E-01 0.397E-01 -.742E+01
   0.704E-01 -.310E-01 0.426E+04   -.587E-01 0.104E-09 -.426E+04   0.126E-01 0.646E-02 -.723E-01   -.126E-01 0.323E-01 -.739E+01
   -.126E-01 -.151E-01 0.418E+04   -.654E-02 -.978E-10 -.421E+04   0.138E-01 -.443E-02 0.185E+01   0.127E-01 0.125E-01 0.287E+02
   -.518E-01 0.292E-01 0.418E+04   0.233E-03 -.975E-10 -.421E+04   0.176E-01 0.102E-01 0.184E+01   0.384E-01 -.232E-01 0.287E+02
   -.769E-02 0.485E-03 0.418E+04   -.210E-02 -.968E-10 -.421E+04   -.295E-01 -.390E-03 0.187E+01   -.968E-03 0.433E-02 0.287E+02
   0.454E-01 0.623E-02 0.418E+04   0.904E-02 -.986E-10 -.421E+04   0.166E-01 -.110E-01 0.184E+01   -.416E-01 -.145E-01 0.287E+02
   -.430E-01 0.205E-01 0.218E+04   0.248E-02 -.135E-09 -.218E+04   -.498E-02 0.353E-02 0.551E+00   0.370E-01 -.932E-02 0.485E+01
   -.156E+00 -.987E-02 0.218E+04   0.686E-01 -.132E-09 -.218E+04   -.258E-02 -.763E-02 0.562E+00   0.719E-01 0.116E-01 0.489E+01
   0.168E-01 -.269E-01 0.218E+04   -.330E-02 -.133E-09 -.218E+04   -.605E-02 0.368E-02 0.564E+00   -.178E-01 0.242E-01 0.490E+01
   0.653E-01 0.152E-01 0.218E+04   -.616E-01 -.133E-09 -.218E+04   0.165E-01 0.295E-02 0.564E+00   0.276E-03 -.408E-02 0.496E+01
   0.908E-02 0.272E-01 0.212E+04   -.680E-02 0.182E-09 -.212E+04   -.692E-02 -.117E-02 -.388E+00   -.888E-02 -.197E-01 -.502E+01
   -.851E-01 0.769E-02 0.212E+04   0.114E-02 0.182E-09 -.212E+04   -.529E-02 -.903E-02 -.383E+00   0.701E-01 -.969E-02 -.501E+01
   0.223E-01 0.423E-01 0.212E+04   -.314E-02 0.181E-09 -.212E+04   0.158E-02 -.902E-02 -.399E+00   -.204E-01 -.277E-01 -.509E+01
   0.471E-01 -.270E-01 0.212E+04   0.262E-02 0.182E-09 -.212E+04   0.396E-02 0.214E-01 -.395E+00   -.413E-01 0.224E-01 -.502E+01
   -.121E-01 -.235E-01 -.103E-01   0.220E-02 0.116E-09 -.143E-05   0.451E-02 0.560E-02 0.111E-01   0.511E-02 0.125E-01 0.719E-02
   -.861E-01 0.249E-01 0.374E-01   0.705E-01 0.117E-09 -.143E-05   -.100E-01 0.132E-02 0.353E-02   0.180E-01 -.189E-01 -.290E-01
   0.205E-01 0.199E-01 -.382E-01   -.356E-02 0.117E-09 -.143E-05   0.139E-01 0.887E-03 -.322E-02   -.161E-01 -.209E-01 0.299E-01
   0.802E-01 0.144E-01 0.293E-01   -.639E-01 0.117E-09 -.143E-05   0.604E-02 0.666E-02 0.400E-02   -.230E-01 -.135E-01 -.258E-01
   0.101E-01 0.509E-02 -.104E-01   -.672E-02 -.129E-09 -.100E-05   0.354E-02 0.175E-02 -.290E-02   -.571E-02 -.800E-02 0.123E-01
   -.171E-01 0.140E-01 0.448E-01   0.104E-02 -.129E-09 -.100E-05   0.882E-02 -.123E-01 0.431E-02   0.193E-01 -.167E-01 -.393E-01
   0.271E-01 -.344E-01 -.336E-01   -.336E-02 -.129E-09 -.100E-05   0.146E-01 0.730E-04 -.522E-03   -.175E-01 0.317E-01 0.269E-01
   -.337E-01 -.521E-01 0.681E-01   0.131E-02 -.129E-09 -.100E-05   -.174E-02 -.120E-01 -.293E-02   0.261E-01 0.407E-01 -.559E-01
   0.253E-01 0.259E-01 -.218E+04   0.248E-02 -.133E-09 0.218E+04   0.127E-01 -.549E-02 -.542E+00   -.261E-01 -.275E-01 -.496E+01
   -.618E-01 0.615E-02 -.218E+04   0.686E-01 -.133E-09 0.218E+04   0.116E-01 0.856E-02 -.556E+00   0.917E-02 -.999E-02 -.491E+01
   0.410E-01 -.119E-01 -.218E+04   -.330E-02 -.132E-09 0.218E+04   0.349E-02 0.443E-02 -.536E+00   -.367E-01 0.535E-02 -.496E+01
   0.564E-01 -.169E-01 -.218E+04   -.616E-01 -.133E-09 0.218E+04   0.102E-01 0.130E-02 -.569E+00   -.116E-02 0.116E-01 -.491E+01
   0.803E-01 -.137E-01 -.212E+04   -.680E-02 0.182E-09 0.212E+04   0.718E-02 0.291E-02 0.384E+00   -.602E-01 0.143E-01 0.502E+01
   -.298E-01 -.550E-01 -.212E+04   0.114E-02 0.182E-09 0.212E+04   -.331E-02 0.768E-02 0.384E+00   0.224E-01 0.487E-01 0.503E+01
   0.440E-02 0.307E-01 -.212E+04   -.314E-02 0.182E-09 0.212E+04   0.242E-01 -.111E-01 0.375E+00   -.104E-02 -.280E-01 0.502E+01
   -.156E-01 -.101E-01 -.212E+04   0.262E-02 0.181E-09 0.212E+04   -.183E-02 0.285E-02 0.385E+00   0.161E-01 0.134E-01 0.501E+01
   0.686E-02 0.250E-01 -.426E+04   -.478E-03 0.103E-09 0.426E+04   0.485E-02 0.432E-02 0.496E-01   -.105E-01 -.171E-01 0.744E+01
   -.310E-01 -.142E-02 -.426E+04   0.641E-01 0.103E-09 0.426E+04   -.275E-02 -.425E-02 0.509E-01   -.307E-01 0.588E-03 0.739E+01
   0.358E-02 -.732E-02 -.426E+04   -.252E-02 0.104E-09 0.426E+04   0.270E-02 -.278E-02 0.825E-01   -.568E-02 0.647E-02 0.746E+01
   0.271E-01 0.467E-01 -.426E+04   -.587E-01 0.104E-09 0.426E+04   -.116E-01 -.870E-03 0.653E-01   0.219E-01 -.340E-01 0.741E+01
   -.379E-01 -.638E-02 -.418E+04   -.654E-02 -.973E-10 0.421E+04   -.116E-02 -.550E-02 -.185E+01   0.272E-01 -.126E-02 -.287E+02
   0.253E-01 0.339E-03 -.418E+04   0.233E-03 -.976E-10 0.421E+04   0.275E-01 -.280E-02 -.186E+01   -.216E-01 0.430E-02 -.287E+02
   -.805E-02 0.766E-02 -.418E+04   -.210E-02 -.968E-10 0.421E+04   0.811E-02 0.147E-01 -.185E+01   0.163E-01 -.451E-02 -.287E+02
   -.265E-01 0.483E-01 -.418E+04   0.904E-02 -.979E-10 0.421E+04   -.824E-02 0.177E-01 -.184E+01   0.136E-01 -.366E-01 -.287E+02
   0.822E-02 0.197E-01 0.426E+04   -.196E-02 0.103E-09 -.426E+04   -.990E-02 -.180E-01 -.363E-01   -.835E-02 -.158E-01 -.740E+01
   0.587E-01 -.772E-01 0.426E+04   -.406E-01 0.103E-09 -.426E+04   -.133E-01 -.586E-02 -.932E-01   -.169E-01 0.655E-01 -.742E+01
   0.279E-01 0.950E-02 0.426E+04   -.185E-02 0.104E-09 -.426E+04   -.489E-03 -.302E-02 -.663E-01   -.168E-01 -.606E-02 -.739E+01
   0.642E-01 -.428E-01 0.426E+04   -.314E-01 0.105E-09 -.426E+04   0.195E-01 -.157E-01 -.712E-01   -.307E-01 0.360E-01 -.743E+01
   0.160E-02 0.164E-01 0.418E+04   -.177E-02 -.986E-10 -.421E+04   0.537E-03 -.372E-02 0.183E+01   0.202E-02 -.902E-02 0.286E+02
   0.411E-02 -.287E-02 0.418E+04   0.183E-01 -.988E-10 -.421E+04   -.653E-02 0.113E-01 0.184E+01   -.179E-01 0.224E-02 0.287E+02
   0.322E-01 0.300E-01 0.418E+04   -.181E-02 -.976E-10 -.421E+04   0.278E-01 -.121E-01 0.184E+01   -.229E-01 -.181E-01 0.287E+02
   0.450E-01 -.467E-01 0.418E+04   0.266E-01 -.988E-10 -.421E+04   0.422E-03 0.121E-01 0.183E+01   -.516E-01 0.435E-01 0.287E+02
   0.157E-01 -.207E-01 0.218E+04   -.275E-02 -.132E-09 -.218E+04   0.140E-02 0.725E-02 0.555E+00   -.204E-01 0.214E-01 0.489E+01
   0.727E-01 -.683E-01 0.218E+04   -.419E-01 -.132E-09 -.218E+04   -.332E-02 -.136E-01 0.560E+00   -.362E-01 0.530E-01 0.491E+01
   -.112E+00 -.661E-01 0.218E+04   -.248E-02 -.131E-09 -.218E+04   0.490E-02 -.203E-01 0.571E+00   0.903E-01 0.495E-01 0.490E+01
   0.301E-01 0.849E-02 0.218E+04   -.304E-01 -.132E-09 -.218E+04   -.972E-02 -.510E-02 0.565E+00   -.187E-02 -.552E-02 0.490E+01
   0.257E-01 -.175E-01 0.212E+04   -.259E-02 0.181E-09 -.212E+04   -.732E-02 -.318E-02 -.391E+00   -.158E-01 0.109E-01 -.507E+01
   -.431E-01 0.232E-01 0.212E+04   0.147E-01 0.183E-09 -.212E+04   0.115E-01 0.112E-02 -.367E+00   0.288E-01 -.199E-01 -.509E+01
   0.427E-01 0.313E-01 0.212E+04   -.252E-02 0.182E-09 -.212E+04   0.786E-02 -.677E-03 -.379E+00   -.141E-01 -.264E-01 -.507E+01
   0.229E-01 -.244E-01 0.212E+04   0.256E-01 0.181E-09 -.212E+04   0.247E-02 -.660E-02 -.379E+00   -.439E-01 0.154E-01 -.505E+01
   0.823E-02 -.135E-01 -.418E-01   -.302E-02 0.117E-09 -.143E-05   -.113E-01 -.220E-02 -.933E-03   -.677E-02 0.849E-02 0.329E-01
   0.443E-01 0.147E-01 -.361E-01   -.448E-01 0.118E-09 -.143E-05   -.126E-02 -.698E-02 0.136E-02   -.443E-02 -.280E-02 0.341E-01
   -.216E-01 0.132E-01 -.519E-01   -.270E-02 0.117E-09 -.143E-05   -.118E-01 -.111E-01 0.146E-02   0.189E-01 -.113E-01 0.358E-01
   0.155E-03 0.188E-01 -.392E-03   -.328E-01 0.117E-09 -.143E-05   -.619E-02 0.125E-02 0.141E-01   0.190E-01 -.137E-01 0.480E-02
   -.801E-02 -.306E-01 -.329E-01   -.281E-02 -.127E-09 -.100E-05   0.767E-02 -.115E-01 -.711E-02   0.142E-01 0.229E-01 0.239E-01
   0.459E-01 -.119E-02 -.353E-01   0.133E-01 -.127E-09 -.100E-05   -.255E-02 0.156E-01 -.245E-02   -.509E-01 0.210E-02 0.258E-01
   -.733E-02 0.533E-02 -.180E-01   -.265E-02 -.129E-09 -.100E-05   0.552E-02 -.510E-03 0.160E-01   0.156E-01 0.143E-03 0.195E-01
   -.865E-01 -.262E-01 0.175E-01   0.248E-01 -.128E-09 -.100E-05   -.633E-02 0.972E-02 0.487E-02   0.546E-01 0.253E-01 -.973E-02
   -.298E-02 -.365E-01 -.218E+04   -.275E-02 -.132E-09 0.218E+04   -.382E-03 -.124E-01 -.553E+00   0.108E-01 0.330E-01 -.492E+01
   0.808E-01 -.186E-01 -.218E+04   -.419E-01 -.132E-09 0.218E+04   0.424E-02 -.355E-04 -.567E+00   -.348E-01 0.110E-01 -.490E+01
   0.579E-01 -.878E-01 -.218E+04   -.248E-02 -.132E-09 0.218E+04   0.136E-01 0.913E-02 -.556E+00   -.370E-01 0.797E-01 -.490E+01
   0.586E-01 0.472E-01 -.218E+04   -.304E-01 -.132E-09 0.218E+04   -.102E-01 0.570E-02 -.543E+00   -.210E-01 -.325E-01 -.496E+01
   0.383E-01 0.237E-01 -.212E+04   -.259E-02 0.181E-09 0.212E+04   -.106E-01 0.158E-02 0.390E+00   -.286E-01 -.204E-01 0.504E+01
   -.395E-01 0.996E-02 -.212E+04   0.147E-01 0.180E-09 0.212E+04   -.155E-01 0.521E-02 0.377E+00   0.187E-01 -.911E-02 0.505E+01
   -.634E-01 -.599E-02 -.212E+04   -.252E-02 0.181E-09 0.212E+04   -.583E-02 -.113E-01 0.372E+00   0.567E-01 0.408E-02 0.504E+01
   0.127E-01 0.263E-01 -.212E+04   0.256E-01 0.183E-09 0.212E+04   0.209E-02 0.142E-01 0.376E+00   -.289E-01 -.189E-01 0.505E+01
   -.155E-01 0.233E-01 -.426E+04   -.196E-02 0.104E-09 0.426E+04   -.363E-02 -.421E-02 0.431E-01   0.128E-01 -.143E-01 0.743E+01
   0.451E-01 0.359E-01 -.426E+04   -.406E-01 0.103E-09 0.426E+04   -.254E-02 0.688E-02 0.574E-01   -.573E-02 -.278E-01 0.741E+01
   -.414E-01 0.466E-01 -.426E+04   -.185E-02 0.103E-09 0.426E+04   0.174E-02 0.744E-02 0.706E-01   0.436E-01 -.314E-01 0.738E+01
   -.534E-02 -.386E-03 -.426E+04   -.314E-01 0.103E-09 0.426E+04   -.169E-01 -.231E-02 0.481E-01   0.202E-01 0.290E-02 0.743E+01
   -.190E-01 -.306E-02 -.418E+04   -.177E-02 -.997E-10 0.421E+04   -.104E-01 -.307E-02 -.184E+01   0.144E-01 0.679E-02 -.287E+02
   -.181E-01 0.319E-01 -.418E+04   0.183E-01 -.982E-10 0.421E+04   -.165E-01 0.193E-02 -.183E+01   0.272E-02 -.296E-01 -.287E+02
   -.311E-01 -.395E-01 -.418E+04   -.181E-02 -.983E-10 0.421E+04   0.945E-02 -.511E-02 -.186E+01   0.299E-01 0.292E-01 -.287E+02
   -.524E-01 0.412E-01 -.418E+04   0.266E-01 -.987E-10 0.421E+04   -.288E-02 -.350E-02 -.182E+01   0.216E-01 -.331E-01 -.287E+02
   0.139E-01 -.135E-02 0.426E+04   -.211E-02 0.104E-09 -.426E+04   0.125E-01 -.113E-01 -.874E-01   -.337E-02 0.142E-02 -.736E+01
   0.117E-01 0.544E-01 0.426E+04   -.229E-01 0.105E-09 -.426E+04   -.294E-02 0.894E-02 -.637E-01   0.312E-02 -.362E-01 -.743E+01
   0.302E-01 0.112E-02 0.426E+04   -.612E-02 0.104E-09 -.426E+04   -.786E-02 -.816E-02 -.567E-01   -.301E-01 -.266E-02 -.741E+01
   0.168E-01 -.226E-01 0.426E+04   -.142E-01 0.105E-09 -.426E+04   -.242E-01 -.189E-01 -.763E-01   -.791E-02 0.188E-01 -.740E+01
   0.187E-01 0.376E-01 0.418E+04   -.220E-02 -.981E-10 -.421E+04   0.175E-01 0.157E-01 0.186E+01   -.102E-01 -.339E-01 0.287E+02
   -.283E-01 0.667E-02 0.418E+04   0.351E-01 -.980E-10 -.421E+04   -.321E-02 0.596E-02 0.184E+01   0.363E-02 0.212E-02 0.287E+02
   -.579E-01 0.561E-02 0.418E+04   -.151E-02 -.975E-10 -.421E+04   -.228E-01 0.115E-02 0.188E+01   0.466E-01 -.368E-02 0.287E+02
   -.242E-01 -.181E-01 0.418E+04   0.488E-01 -.985E-10 -.421E+04   0.832E-02 0.168E-02 0.185E+01   -.123E-01 0.169E-01 0.287E+02
   0.143E-01 0.157E-02 0.218E+04   -.267E-02 -.133E-09 -.218E+04   0.535E-02 0.855E-02 0.589E+00   -.545E-02 0.253E-02 0.491E+01
   0.344E-01 0.277E-01 0.218E+04   -.198E-01 -.132E-09 -.218E+04   0.792E-02 -.418E-02 0.565E+00   -.131E-01 -.211E-01 0.490E+01
   0.107E-01 -.963E-02 0.218E+04   -.597E-02 -.132E-09 -.218E+04   -.254E-02 -.754E-02 0.564E+00   -.662E-02 0.128E-01 0.493E+01
   -.334E-01 0.382E-02 0.218E+04   -.914E-02 -.133E-09 -.218E+04   -.311E-02 -.473E-02 0.544E+00   0.356E-01 -.157E-02 0.485E+01
   -.229E-01 0.365E-01 0.212E+04   -.267E-02 0.183E-09 -.212E+04   -.885E-02 -.545E-02 -.364E+00   0.165E-01 -.325E-01 -.505E+01
   -.419E-01 0.367E-01 0.212E+04   0.364E-01 0.182E-09 -.212E+04   0.219E-01 0.907E-02 -.379E+00   0.110E-01 -.288E-01 -.504E+01
   -.112E-01 0.179E-02 0.212E+04   0.323E-02 0.182E-09 -.212E+04   -.163E-02 0.686E-02 -.386E+00   0.136E-02 -.800E-02 -.502E+01
   -.653E-01 0.206E-01 0.212E+04   0.521E-01 0.182E-09 -.212E+04   -.127E-02 -.218E-02 -.388E+00   0.161E-01 -.171E-01 -.504E+01
   -.230E-01 -.295E-01 0.131E-01   -.270E-02 0.118E-09 -.143E-05   0.403E-02 -.193E-02 -.550E-02   0.261E-01 0.242E-01 -.978E-02
   0.197E-01 -.142E-01 -.552E-01   -.214E-01 0.116E-09 -.143E-05   0.499E-02 0.842E-02 0.304E-02   -.379E-02 0.893E-02 0.463E-01
   -.309E-01 0.118E-01 -.332E-01   -.548E-02 0.118E-09 -.143E-05   -.840E-02 0.674E-02 -.986E-02   0.311E-01 0.988E-03 0.217E-01
   -.344E-03 0.134E-01 0.214E-01   -.100E-01 0.117E-09 -.143E-05   -.619E-02 -.121E-01 -.492E-02   0.708E-02 -.141E-01 -.147E-01
   0.244E-01 0.338E-01 -.170E-01   -.244E-02 -.129E-09 -.100E-05   0.103E-02 0.189E-02 -.991E-02   -.783E-02 -.276E-01 0.134E-01
   0.162E-01 -.116E-01 -.664E-01   0.363E-01 -.128E-09 -.100E-05   0.887E-02 0.480E-02 0.218E-02   -.475E-01 0.655E-02 0.545E-01
   0.394E-01 0.672E-02 0.274E-01   0.389E-02 -.130E-09 -.100E-05   0.392E-02 0.612E-02 0.179E-02   -.387E-01 -.113E-01 -.238E-01
   -.267E-01 0.288E-01 -.659E-01   0.522E-01 -.128E-09 -.100E-05   -.139E-01 -.121E-02 -.233E-02   -.180E-01 -.301E-01 0.549E-01
   -.237E-01 -.351E-01 -.218E+04   -.267E-02 -.133E-09 0.218E+04   -.144E-03 -.588E-02 -.558E+00   0.220E-01 0.286E-01 -.492E+01
   0.126E-01 -.235E-01 -.218E+04   -.198E-01 -.132E-09 0.218E+04   0.181E-01 -.185E-01 -.568E+00   0.124E-01 0.161E-01 -.495E+01
   0.417E-01 0.253E-01 -.218E+04   -.597E-02 -.132E-09 0.218E+04   0.607E-02 0.609E-02 -.553E+00   -.280E-01 -.243E-01 -.493E+01
   -.445E-02 -.139E-01 -.218E+04   -.914E-02 -.133E-09 0.218E+04   -.115E-01 -.905E-02 -.545E+00   0.944E-02 0.902E-02 -.492E+01
   -.205E-01 -.812E-02 -.212E+04   -.267E-02 0.182E-09 0.212E+04   -.160E-01 -.202E-01 0.374E+00   0.214E-01 0.132E-02 0.503E+01
   0.812E-02 0.157E-01 -.212E+04   0.364E-01 0.182E-09 0.212E+04   0.230E-01 -.686E-02 0.377E+00   -.277E-01 -.975E-02 0.508E+01
   0.200E-01 -.564E-02 -.212E+04   0.323E-02 0.181E-09 0.212E+04   0.428E-02 0.186E-02 0.379E+00   -.233E-01 0.468E-02 0.507E+01
   -.542E-01 0.253E-01 -.212E+04   0.521E-01 0.181E-09 0.212E+04   0.177E-02 0.263E-02 0.383E+00   0.796E-02 -.149E-01 0.506E+01
   -.214E-01 -.131E-02 -.426E+04   -.211E-02 0.105E-09 0.426E+04   0.113E-01 0.689E-02 0.594E-01   0.193E-01 0.420E-02 0.744E+01
   -.343E-01 0.277E-01 -.426E+04   -.229E-01 0.105E-09 0.426E+04   0.670E-02 0.758E-02 0.624E-01   0.395E-01 -.189E-01 0.741E+01
   -.127E-01 0.422E-01 -.426E+04   -.612E-02 0.105E-09 0.426E+04   -.112E-01 0.149E-02 0.658E-01   0.122E-01 -.326E-01 0.743E+01
   -.329E-01 -.919E-02 -.426E+04   -.142E-01 0.105E-09 0.426E+04   -.164E-01 -.124E-01 0.680E-01   0.343E-01 0.740E-02 0.742E+01
   -.254E-01 -.134E-02 -.418E+04   -.220E-02 -.978E-10 0.421E+04   0.586E-03 -.223E-02 -.184E+01   0.137E-01 -.484E-02 -.286E+02
   -.404E-01 0.257E-01 -.418E+04   0.351E-01 -.997E-10 0.421E+04   0.429E-02 0.550E-02 -.189E+01   0.114E-01 -.170E-01 -.287E+02
   -.329E-01 0.265E-01 -.418E+04   -.151E-02 -.984E-10 0.421E+04   0.457E-02 -.107E-02 -.183E+01   0.281E-01 -.197E-01 -.287E+02
   0.717E-02 0.225E-01 -.418E+04   0.488E-01 -.992E-10 0.421E+04   -.161E-01 -.506E-02 -.188E+01   -.509E-01 -.196E-01 -.288E+02
   -.345E-01 -.149E-02 0.255E+04   -.406E-02 0.351E-10 -.260E+04   0.670E-02 -.685E-02 0.194E+02   0.355E-01 0.440E-02 0.252E+02
   0.203E-02 -.481E-01 0.255E+04   0.294E-01 0.348E-10 -.260E+04   -.381E-01 0.423E-01 0.194E+02   -.867E-02 0.150E-01 0.251E+02
   0.177E-01 -.222E-02 0.255E+04   -.956E-03 0.350E-10 -.260E+04   -.317E-01 0.273E-02 0.194E+02   -.443E-02 0.807E-03 0.252E+02
   0.394E-01 -.308E-01 0.255E+04   -.295E-01 0.350E-10 -.260E+04   0.496E-01 0.253E-01 0.194E+02   -.142E-01 0.109E-01 0.251E+02
   0.329E-02 -.226E+02 0.221E+04   -.195E-02 0.410E+02 -.222E+04   -.135E-01 -.429E+01 0.540E+01   -.141E-02 -.129E+02 0.970E+01
   0.609E-02 -.225E+02 0.221E+04   0.393E-03 0.410E+02 -.222E+04   0.333E-01 -.430E+01 0.536E+01   -.128E-01 -.129E+02 0.968E+01
   -.340E-01 -.226E+02 0.221E+04   -.102E-02 0.410E+02 -.222E+04   0.213E-01 -.431E+01 0.539E+01   0.169E-01 -.129E+02 0.969E+01
   0.145E-01 -.226E+02 0.221E+04   0.489E-02 0.410E+02 -.222E+04   0.101E-01 -.432E+01 0.540E+01   -.369E-02 -.129E+02 0.969E+01
   -.429E-01 0.226E+02 0.221E+04   -.195E-02 -.410E+02 -.222E+04   0.358E-01 0.433E+01 0.537E+01   0.144E-01 0.128E+02 0.969E+01
   -.444E-01 0.225E+02 0.221E+04   0.393E-03 -.410E+02 -.222E+04   -.152E-01 0.431E+01 0.537E+01   0.342E-01 0.129E+02 0.969E+01
   -.181E-01 0.226E+02 0.221E+04   -.102E-02 -.410E+02 -.222E+04   -.493E-02 0.430E+01 0.537E+01   0.101E-01 0.129E+02 0.968E+01
   0.461E-01 0.225E+02 0.221E+04   0.489E-02 -.410E+02 -.222E+04   0.113E-01 0.431E+01 0.539E+01   -.362E-01 0.129E+02 0.970E+01
   -.154E-01 -.932E-02 0.169E+04   0.131E-02 0.606E-10 -.170E+04   0.488E-02 0.580E-02 -.696E+00   0.158E-01 0.774E-02 0.517E+01
   -.327E-01 -.188E-01 0.169E+04   0.278E-01 0.607E-10 -.170E+04   -.485E-01 0.211E-01 -.781E+00   0.144E-01 0.432E-02 0.519E+01
   -.211E-01 0.578E-01 0.169E+04   -.158E-02 0.607E-10 -.170E+04   0.303E-01 -.447E-01 -.762E+00   0.888E-02 -.198E-01 0.518E+01
   -.746E-02 0.303E-02 0.169E+04   -.254E-01 0.610E-10 -.170E+04   0.594E-01 -.675E-02 -.746E+00   0.299E-02 0.365E-02 0.520E+01
   -.370E-01 0.850E-02 0.152E+04   0.508E-03 0.262E-12 -.151E+04   -.124E-01 0.822E-02 0.718E+00   0.254E-01 -.144E-01 -.164E+01
   -.518E-01 0.315E-01 0.152E+04   0.307E-01 0.467E-12 -.151E+04   0.478E-03 -.197E-01 0.751E+00   0.751E-02 -.134E-01 -.163E+01
   0.269E-01 -.212E-01 0.152E+04   -.168E-02 0.753E-12 -.151E+04   -.176E-01 0.186E-01 0.730E+00   -.111E-01 0.493E-03 -.162E+01
   0.513E-01 -.112E-01 0.152E+04   -.283E-01 0.521E-12 -.151E+04   0.333E-02 0.299E-01 0.733E+00   -.144E-01 -.330E-02 -.160E+01
   -.283E-02 -.350E+02 0.107E+04   -.210E-02 0.406E+02 -.107E+04   -.822E-02 -.354E+01 -.651E+00   0.146E-01 -.216E+01 -.152E+01
   0.203E-01 -.350E+02 0.107E+04   0.859E-03 0.406E+02 -.107E+04   -.446E-01 -.347E+01 -.685E+00   0.144E-02 -.215E+01 -.154E+01
   0.134E-02 -.350E+02 0.107E+04   -.154E-02 0.406E+02 -.107E+04   0.291E-01 -.349E+01 -.689E+00   -.122E-01 -.216E+01 -.153E+01
   -.521E-02 -.349E+02 0.107E+04   0.183E-02 0.406E+02 -.107E+04   0.266E-01 -.348E+01 -.643E+00   -.737E-02 -.218E+01 -.153E+01
   -.426E-01 0.349E+02 0.107E+04   -.210E-02 -.406E+02 -.107E+04   0.866E-02 0.352E+01 -.659E+00   0.237E-01 0.219E+01 -.154E+01
   -.206E-01 0.349E+02 0.107E+04   0.859E-03 -.406E+02 -.107E+04   0.118E-01 0.350E+01 -.713E+00   0.468E-02 0.218E+01 -.153E+01
   0.339E-01 0.350E+02 0.107E+04   -.154E-02 -.406E+02 -.107E+04   -.269E-01 0.348E+01 -.600E+00   -.171E-01 0.217E+01 -.152E+01
   0.332E-01 0.349E+02 0.107E+04   0.183E-02 -.406E+02 -.107E+04   -.263E-01 0.355E+01 -.597E+00   -.112E-01 0.218E+01 -.149E+01
   -.126E-01 0.142E-01 0.585E+03   -.834E-03 -.548E-12 -.573E+03   0.247E-01 -.237E-02 -.473E+01   0.617E-02 -.124E-01 -.573E+01
   -.652E-01 0.517E-01 0.585E+03   0.345E-01 0.585E-12 -.573E+03   0.162E-01 -.506E-01 -.477E+01   0.139E-01 -.176E-01 -.572E+01
   -.108E-01 0.187E-01 0.585E+03   -.188E-02 0.854E-14 -.573E+03   0.227E-01 -.184E-01 -.478E+01   0.816E-03 -.115E-01 -.568E+01
   0.474E-01 0.306E-01 0.585E+03   -.326E-01 -.331E-12 -.573E+03   -.435E-02 0.116E-01 -.477E+01   -.858E-02 -.246E-01 -.563E+01
   -.106E-01 0.403E-02 0.503E+03   0.145E-03 0.655E-10 -.516E+03   -.191E-01 -.693E-01 0.592E+01   0.767E-02 0.201E-01 0.614E+01
   -.460E-01 -.474E-01 0.502E+03   0.321E-01 0.652E-10 -.516E+03   -.202E-01 0.470E-01 0.596E+01   0.176E-01 0.149E-01 0.614E+01
   -.144E-01 0.153E-01 0.502E+03   -.187E-02 0.649E-10 -.516E+03   0.505E-02 -.301E-01 0.592E+01   0.910E-02 0.512E-02 0.615E+01
   0.302E-02 0.283E-01 0.502E+03   -.301E-01 0.656E-10 -.516E+03   -.138E-02 -.466E-01 0.594E+01   0.141E-01 -.575E-02 0.616E+01
   -.120E-01 -.673E+02 -.234E-02   -.213E-02 0.798E+02 -.425E-06   -.754E-01 -.452E+01 -.146E-02   0.533E-01 -.749E+01 0.142E-03
   0.200E-01 -.672E+02 0.525E-01   0.817E-03 0.798E+02 -.425E-06   -.677E-01 -.454E+01 -.653E-01   0.282E-01 -.751E+01 -.142E-01
   -.173E-01 -.672E+02 -.376E-01   -.166E-02 0.798E+02 -.425E-06   0.213E-01 -.454E+01 0.218E-01   0.124E-01 -.755E+01 0.173E-01
   0.405E-01 -.672E+02 -.470E-01   0.222E-02 0.798E+02 -.425E-06   -.369E-01 -.454E+01 0.594E-01   -.193E-01 -.754E+01 0.157E-01
   0.290E-01 0.672E+02 -.432E-02   -.213E-02 -.798E+02 -.425E-06   -.502E-01 0.450E+01 0.205E-01   -.628E-02 0.754E+01 -.966E-02
   -.365E-01 0.672E+02 -.183E-01   0.817E-03 -.798E+02 -.425E-06   -.144E-02 0.452E+01 -.114E-01   0.175E-01 0.753E+01 0.998E-02
   0.299E-01 0.673E+02 0.646E-02   -.166E-02 -.798E+02 -.425E-06   -.579E-03 0.453E+01 0.316E-01   -.165E-01 0.751E+01 -.165E-01
   0.387E-01 0.672E+02 -.157E-01   0.222E-02 -.798E+02 -.425E-06   -.505E-01 0.453E+01 0.438E-01   -.108E-01 0.754E+01 0.563E-02
   -.325E-01 -.445E-01 -.503E+03   0.145E-03 0.658E-10 0.516E+03   0.184E-01 -.481E-02 -.593E+01   0.140E-01 0.274E-01 -.614E+01
   0.101E-01 -.265E-01 -.503E+03   0.321E-01 0.650E-10 0.516E+03   -.180E-01 0.145E-01 -.591E+01   -.114E-01 0.114E-01 -.613E+01
   -.431E-01 -.389E-01 -.502E+03   -.187E-02 0.651E-10 0.516E+03   0.113E-01 0.386E-01 -.595E+01   0.237E-01 0.155E-01 -.617E+01
   0.763E-01 -.223E-01 -.502E+03   -.301E-01 0.657E-10 0.516E+03   -.490E-01 0.171E-01 -.593E+01   -.150E-01 0.700E-02 -.615E+01
   -.112E-01 -.110E-01 -.585E+03   -.834E-03 0.186E-12 0.573E+03   0.879E-02 0.313E-02 0.473E+01   0.625E-02 0.632E-02 0.572E+01
   -.365E-01 0.628E-01 -.585E+03   0.345E-01 -.241E-12 0.573E+03   0.130E-01 -.628E-01 0.474E+01   0.105E-02 -.155E-01 0.570E+01
   -.194E-02 0.132E-01 -.585E+03   -.188E-02 -.196E-12 0.573E+03   -.294E-01 -.112E-01 0.477E+01   0.130E-01 -.122E-02 0.565E+01
   0.580E-01 0.333E-01 -.585E+03   -.326E-01 -.182E-12 0.573E+03   -.514E-02 -.208E-01 0.481E+01   -.143E-01 -.130E-01 0.565E+01
   -.709E-01 -.350E+02 -.107E+04   -.210E-02 0.406E+02 0.107E+04   0.559E-01 -.347E+01 0.672E+00   0.276E-01 -.214E+01 0.152E+01
   0.424E-01 -.350E+02 -.107E+04   0.859E-03 0.406E+02 0.107E+04   -.321E-01 -.344E+01 0.698E+00   -.115E-01 -.218E+01 0.154E+01
   -.163E-01 -.349E+02 -.107E+04   -.154E-02 0.406E+02 0.107E+04   0.399E-01 -.353E+01 0.600E+00   -.111E-03 -.218E+01 0.151E+01
   0.112E-01 -.349E+02 -.107E+04   0.183E-02 0.406E+02 0.107E+04   -.259E-01 -.353E+01 0.640E+00   -.694E-02 -.216E+01 0.153E+01
   -.359E-01 0.350E+02 -.107E+04   -.210E-02 -.406E+02 0.107E+04   0.315E-01 0.348E+01 0.651E+00   0.146E-01 0.216E+01 0.153E+01
   0.573E-03 0.349E+02 -.107E+04   0.859E-03 -.406E+02 0.107E+04   0.380E-02 0.348E+01 0.637E+00   -.906E-03 0.218E+01 0.152E+01
   0.476E-02 0.349E+02 -.107E+04   -.154E-02 -.406E+02 0.107E+04   -.117E-01 0.353E+01 0.690E+00   0.456E-02 0.218E+01 0.154E+01
   0.281E-01 0.349E+02 -.107E+04   0.183E-02 -.406E+02 0.107E+04   -.129E-01 0.353E+01 0.610E+00   -.206E-01 0.217E+01 0.151E+01
   -.147E-01 -.461E-01 -.152E+04   0.508E-03 -.102E-11 0.151E+04   0.169E-01 0.230E-01 -.756E+00   -.891E-03 0.162E-01 0.164E+01
   -.437E-01 -.998E-02 -.152E+04   0.307E-01 -.210E-12 0.151E+04   -.105E-02 0.206E-02 -.755E+00   0.682E-02 0.130E-01 0.160E+01
   -.143E-01 0.367E-01 -.152E+04   -.168E-02 0.762E-12 0.151E+04   -.790E-02 -.311E-01 -.699E+00   0.105E-01 -.879E-02 0.164E+01
   0.554E-02 0.176E-01 -.152E+04   -.283E-01 -.217E-12 0.151E+04   0.320E-01 -.367E-01 -.706E+00   0.939E-02 0.855E-03 0.161E+01
   -.258E-01 0.435E-01 -.169E+04   0.131E-02 0.608E-10 0.170E+04   0.311E-02 -.296E-01 0.732E+00   0.519E-02 -.158E-01 -.517E+01
   -.722E-01 0.262E-01 -.169E+04   0.278E-01 0.608E-10 0.170E+04   0.114E-01 -.245E-01 0.748E+00   0.295E-01 -.123E-01 -.517E+01
   -.123E-01 -.563E-02 -.169E+04   -.158E-02 0.606E-10 0.170E+04   -.274E-01 -.802E-02 0.740E+00   0.203E-01 0.657E-02 -.517E+01
   0.366E-01 0.493E-01 -.169E+04   -.254E-01 0.611E-10 0.170E+04   0.221E-02 -.347E-01 0.737E+00   -.127E-01 -.209E-01 -.515E+01
   0.138E-01 -.226E+02 -.221E+04   -.195E-02 0.410E+02 0.222E+04   -.166E-01 -.427E+01 -.540E+01   -.497E-02 -.129E+02 -.969E+01
   -.119E-01 -.226E+02 -.221E+04   0.393E-03 0.410E+02 0.222E+04   -.151E-01 -.435E+01 -.542E+01   0.114E-01 -.128E+02 -.971E+01
   -.961E-02 -.226E+02 -.221E+04   -.102E-02 0.410E+02 0.222E+04   -.197E-01 -.432E+01 -.543E+01   0.125E-01 -.129E+02 -.970E+01
   -.940E-02 -.226E+02 -.221E+04   0.489E-02 0.410E+02 0.222E+04   0.249E-01 -.433E+01 -.539E+01   -.917E-02 -.128E+02 -.973E+01
   -.573E-01 0.225E+02 -.221E+04   -.195E-02 -.410E+02 0.222E+04   0.465E-01 0.427E+01 -.538E+01   0.238E-01 0.129E+02 -.969E+01
   0.498E-01 0.226E+02 -.221E+04   0.393E-03 -.410E+02 0.222E+04   -.270E-01 0.430E+01 -.538E+01   -.186E-01 0.128E+02 -.969E+01
   -.245E-02 0.225E+02 -.221E+04   -.102E-02 -.410E+02 0.222E+04   0.100E-01 0.429E+01 -.539E+01   -.924E-03 0.129E+02 -.969E+01
   -.390E-02 0.225E+02 -.221E+04   0.489E-02 -.410E+02 0.222E+04   0.129E-01 0.430E+01 -.539E+01   -.305E-02 0.129E+02 -.971E+01
   0.355E-01 -.163E-01 -.255E+04   -.406E-02 0.351E-10 0.260E+04   -.117E-01 0.343E-01 -.194E+02   -.201E-01 0.131E-02 -.251E+02
   -.237E-01 -.117E-01 -.255E+04   0.294E-01 0.352E-10 0.260E+04   -.350E-01 0.707E-02 -.193E+02   0.180E-01 0.194E-02 -.251E+02
   -.160E-01 0.236E-01 -.255E+04   -.956E-03 0.350E-10 0.260E+04   -.349E-01 -.129E-01 -.194E+02   0.220E-01 -.117E-01 -.252E+02
   0.383E-01 -.208E-01 -.255E+04   -.295E-01 0.354E-10 0.260E+04   -.450E-02 0.157E-02 -.193E+02   -.150E-01 0.976E-02 -.252E+02
   -.472E-02 -.125E-01 0.255E+04   -.713E-03 0.351E-10 -.260E+04   0.753E-02 0.232E-01 0.193E+02   -.219E-01 -.316E-02 0.251E+02
   0.266E-01 0.624E-01 0.255E+04   -.251E-01 0.352E-10 -.260E+04   0.515E-02 -.342E-01 0.193E+02   -.372E-03 -.340E-01 0.251E+02
   -.109E-01 -.727E-02 0.255E+04   -.717E-03 0.349E-10 -.260E+04   -.285E-01 -.687E-02 0.194E+02   0.126E-01 0.122E-02 0.251E+02
   -.118E-01 0.376E-01 0.255E+04   -.215E-01 0.350E-10 -.260E+04   0.440E-01 -.792E-02 0.194E+02   0.394E-02 -.243E-01 0.251E+02
   0.265E-01 -.225E+02 0.221E+04   -.886E-03 0.410E+02 -.222E+04   -.352E-01 -.431E+01 0.537E+01   -.177E-02 -.129E+02 0.969E+01
   -.518E-01 -.225E+02 0.221E+04   0.974E-02 0.410E+02 -.222E+04   0.815E-02 -.434E+01 0.541E+01   0.208E-01 -.129E+02 0.969E+01
   0.188E-01 -.225E+02 0.221E+04   -.908E-03 0.410E+02 -.222E+04   0.332E-01 -.432E+01 0.540E+01   -.280E-01 -.129E+02 0.969E+01
   0.140E-01 -.226E+02 0.221E+04   0.139E-01 0.410E+02 -.222E+04   0.378E-01 -.425E+01 0.540E+01   -.322E-01 -.129E+02 0.971E+01
   0.385E-01 0.225E+02 0.221E+04   -.886E-03 -.410E+02 -.222E+04   0.155E-01 0.432E+01 0.535E+01   -.239E-01 0.129E+02 0.968E+01
   -.102E-01 0.226E+02 0.221E+04   0.974E-02 -.410E+02 -.222E+04   -.214E-01 0.430E+01 0.539E+01   -.216E-02 0.129E+02 0.970E+01
   -.122E-01 0.226E+02 0.221E+04   -.908E-03 -.410E+02 -.222E+04   0.744E-02 0.429E+01 0.541E+01   0.684E-02 0.129E+02 0.970E+01
   0.522E-01 0.226E+02 0.221E+04   0.139E-01 -.410E+02 -.222E+04   -.687E-01 0.431E+01 0.539E+01   -.232E-01 0.129E+02 0.970E+01
   -.414E-01 0.530E-02 0.169E+04   -.117E-02 0.609E-10 -.170E+04   0.277E-01 -.145E-01 -.706E+00   0.689E-02 -.411E-02 0.519E+01
   -.318E-01 -.105E-01 0.169E+04   -.180E-01 0.610E-10 -.170E+04   0.487E-01 0.224E-01 -.717E+00   0.145E-01 -.117E-02 0.520E+01
   -.262E-01 0.399E-04 0.169E+04   -.107E-02 0.605E-10 -.170E+04   0.226E-01 -.161E-01 -.765E+00   0.121E-01 0.625E-03 0.517E+01
   0.492E-01 -.297E-02 0.169E+04   -.129E-01 0.606E-10 -.170E+04   -.205E-01 0.159E-01 -.746E+00   -.147E-01 -.679E-02 0.518E+01
   0.308E-02 -.294E-01 0.152E+04   -.126E-02 -.377E-12 -.151E+04   0.185E-02 0.280E-01 0.754E+00   0.153E-02 0.141E-01 -.165E+01
   0.510E-02 0.243E-01 0.152E+04   -.209E-01 -.184E-12 -.151E+04   0.344E-02 -.196E-01 0.751E+00   0.556E-02 -.131E-01 -.163E+01
   -.595E-01 0.966E-03 0.152E+04   -.114E-02 -.165E-13 -.151E+04   0.152E-01 -.937E-02 0.736E+00   0.292E-01 0.282E-03 -.166E+01
   0.469E-01 -.379E-02 0.152E+04   -.155E-01 -.383E-12 -.151E+04   -.102E-01 0.109E-01 0.794E+00   -.109E-01 0.249E-02 -.164E+01
   -.387E-02 -.350E+02 0.107E+04   -.129E-02 0.406E+02 -.107E+04   0.167E-01 -.350E+01 -.678E+00   -.514E-02 -.216E+01 -.154E+01
   -.254E-01 -.349E+02 0.107E+04   0.810E-02 0.406E+02 -.107E+04   0.174E-01 -.350E+01 -.666E+00   0.323E-02 -.219E+01 -.153E+01
   0.345E-04 -.349E+02 0.107E+04   -.126E-02 0.406E+02 -.107E+04   -.438E-01 -.347E+01 -.645E+00   0.167E-01 -.218E+01 -.153E+01
   -.153E-01 -.350E+02 0.107E+04   0.135E-01 0.406E+02 -.107E+04   0.460E-01 -.354E+01 -.673E+00   -.154E-01 -.214E+01 -.155E+01
   0.377E-02 0.349E+02 0.107E+04   -.129E-02 -.406E+02 -.107E+04   0.214E-01 0.348E+01 -.640E+00   -.823E-02 0.218E+01 -.153E+01
   0.602E-01 0.350E+02 0.107E+04   0.810E-02 -.406E+02 -.107E+04   -.516E-01 0.348E+01 -.662E+00   -.305E-01 0.217E+01 -.152E+01
   -.290E-01 0.350E+02 0.107E+04   -.126E-02 -.406E+02 -.107E+04   -.179E-01 0.351E+01 -.639E+00   0.226E-01 0.218E+01 -.154E+01
   -.286E-01 0.350E+02 0.107E+04   0.135E-01 -.406E+02 -.107E+04   0.124E-01 0.348E+01 -.680E+00   -.495E-02 0.215E+01 -.155E+01
   0.574E-01 -.109E-03 0.585E+03   -.147E-02 -.426E-12 -.573E+03   -.389E-01 0.186E-02 -.480E+01   -.190E-01 0.382E-02 -.564E+01
   0.250E-01 -.981E-01 0.585E+03   -.258E-01 -.793E-12 -.573E+03   -.242E-01 0.814E-01 -.474E+01   -.890E-03 0.342E-01 -.564E+01
   -.445E-01 0.284E-01 0.585E+03   -.131E-02 -.423E-12 -.573E+03   0.452E-01 -.120E-01 -.481E+01   0.134E-01 -.159E-01 -.564E+01
   0.452E-01 0.868E-02 0.585E+03   -.199E-01 0.103E-11 -.573E+03   0.239E-03 0.532E-02 -.479E+01   -.173E-01 -.378E-02 -.565E+01
   0.118E-01 -.218E-01 0.502E+03   -.149E-02 0.653E-10 -.516E+03   -.669E-02 0.399E-01 0.594E+01   -.878E-02 0.872E-02 0.616E+01
   0.566E-01 -.438E-01 0.502E+03   -.236E-01 0.651E-10 -.516E+03   -.600E-01 0.522E-01 0.592E+01   -.643E-02 0.126E-01 0.616E+01
   -.272E-01 -.190E-01 0.502E+03   -.133E-02 0.653E-10 -.516E+03   0.509E-01 0.393E-01 0.591E+01   0.621E-02 0.312E-02 0.617E+01
   0.143E-01 0.341E-02 0.503E+03   -.177E-01 0.646E-10 -.516E+03   0.449E-01 0.237E-02 0.592E+01   -.220E-01 -.499E-02 0.614E+01
   -.486E-02 -.672E+02 0.910E-01   -.141E-02 0.798E+02 -.425E-06   0.142E-01 -.450E+01 -.976E-01   0.487E-02 -.754E+01 -.222E-01
   0.100E-01 -.673E+02 -.223E-01   0.852E-02 0.798E+02 -.425E-06   -.521E-04 -.450E+01 0.420E-01   -.131E-01 -.752E+01 0.349E-02
   0.161E-01 -.672E+02 -.399E-01   -.133E-02 0.798E+02 -.425E-06   -.240E-01 -.450E+01 -.588E-02   -.310E-02 -.754E+01 0.349E-01
   -.263E-01 -.672E+02 0.807E-03   0.143E-01 0.798E+02 -.425E-06   -.244E-02 -.453E+01 -.112E-02   0.298E-02 -.756E+01 0.446E-02
   -.236E-01 0.672E+02 0.321E-02   -.141E-02 -.798E+02 -.425E-06   0.314E-01 0.452E+01 -.332E-02   0.628E-02 0.753E+01 -.653E-02
   -.409E-01 0.672E+02 -.193E-01   0.852E-02 -.798E+02 -.425E-06   0.180E-03 0.456E+01 0.727E-02   0.108E-01 0.753E+01 0.774E-02
   -.787E-03 0.672E+02 0.213E-01   -.133E-02 -.798E+02 -.425E-06   -.397E-02 0.449E+01 -.433E-02   0.815E-02 0.754E+01 -.769E-02
   0.241E-01 0.672E+02 0.492E-01   0.143E-01 -.798E+02 -.425E-06   -.484E-01 0.449E+01 -.483E-01   -.133E-01 0.756E+01 -.110E-01
   0.285E-01 0.656E-01 -.502E+03   -.149E-02 0.651E-10 0.516E+03   -.148E-01 -.182E-01 -.593E+01   -.982E-02 -.384E-01 -.615E+01
   0.843E-02 -.160E-01 -.502E+03   -.236E-01 0.648E-10 0.516E+03   0.137E-01 0.876E-02 -.594E+01   0.224E-03 0.607E-02 -.618E+01
   0.759E-02 -.191E-01 -.502E+03   -.133E-02 0.654E-10 0.516E+03   -.416E-01 0.433E-01 -.595E+01   0.756E-02 -.589E-02 -.616E+01
   0.682E-01 -.291E-01 -.503E+03   -.177E-01 0.655E-10 0.516E+03   -.307E-01 0.248E-01 -.594E+01   -.279E-01 0.900E-02 -.613E+01
   -.514E-01 0.404E-01 -.585E+03   -.147E-02 -.103E-11 0.573E+03   0.155E-01 -.174E-01 0.483E+01   0.324E-01 -.110E-01 0.565E+01
   0.340E-01 -.154E-01 -.585E+03   -.258E-01 0.199E-12 0.573E+03   0.288E-02 -.684E-02 0.485E+01   -.536E-02 0.595E-02 0.568E+01
   0.653E-01 0.294E-01 -.585E+03   -.131E-02 0.787E-12 0.573E+03   -.438E-01 -.395E-01 0.476E+01   -.250E-01 -.581E-02 0.564E+01
   -.234E-01 -.807E-02 -.585E+03   -.199E-01 0.367E-12 0.573E+03   0.384E-01 0.197E-01 0.480E+01   0.134E-01 -.844E-03 0.565E+01
   -.471E-01 -.349E+02 -.107E+04   -.129E-02 0.406E+02 0.107E+04   0.485E-01 -.348E+01 0.655E+00   0.213E-01 -.218E+01 0.154E+01
   -.117E-01 -.350E+02 -.107E+04   0.810E-02 0.406E+02 0.107E+04   0.118E-01 -.351E+01 0.622E+00   -.283E-02 -.216E+01 0.152E+01
   -.572E-01 -.349E+02 -.107E+04   -.126E-02 0.406E+02 0.107E+04   0.306E-01 -.354E+01 0.678E+00   0.329E-01 -.217E+01 0.152E+01
   -.405E-01 -.349E+02 -.107E+04   0.135E-01 0.406E+02 0.107E+04   -.112E-01 -.349E+01 0.711E+00   0.167E-01 -.217E+01 0.155E+01
   -.181E-01 0.350E+02 -.107E+04   -.129E-02 -.406E+02 0.107E+04   0.146E-01 0.352E+01 0.700E+00   0.740E-02 0.216E+01 0.153E+01
   0.154E-01 0.349E+02 -.107E+04   0.810E-02 -.406E+02 0.107E+04   -.750E-03 0.355E+01 0.634E+00   -.972E-02 0.217E+01 0.151E+01
   0.112E-01 0.349E+02 -.107E+04   -.126E-02 -.406E+02 0.107E+04   -.189E-01 0.353E+01 0.625E+00   0.106E-02 0.216E+01 0.150E+01
   -.200E-01 0.350E+02 -.107E+04   0.135E-01 -.406E+02 0.107E+04   0.320E-01 0.347E+01 0.676E+00   -.648E-02 0.217E+01 0.154E+01
   0.212E-01 -.120E-04 -.152E+04   -.126E-02 0.508E-12 0.151E+04   -.429E-01 0.352E-02 -.712E+00   -.172E-02 -.187E-02 0.165E+01
   0.719E-01 0.936E-02 -.152E+04   -.209E-01 0.952E-12 0.151E+04   -.322E-01 0.187E-01 -.740E+00   -.197E-01 -.363E-02 0.161E+01
   0.439E-01 0.195E-01 -.152E+04   -.114E-02 -.399E-12 0.151E+04   -.407E-01 -.645E-03 -.711E+00   -.142E-01 -.132E-01 0.160E+01
   0.249E-01 -.164E-01 -.152E+04   -.155E-01 -.319E-12 0.151E+04   -.351E-01 -.130E-01 -.730E+00   0.143E-02 0.990E-02 0.165E+01
   -.559E-02 -.529E-03 -.169E+04   -.117E-02 0.606E-10 0.170E+04   0.664E-02 0.920E-02 0.741E+00   0.139E-02 -.392E-02 -.518E+01
   0.175E-01 -.384E-01 -.169E+04   -.180E-01 0.610E-10 0.170E+04   0.325E-01 0.302E-01 0.729E+00   -.735E-02 0.922E-02 -.516E+01
   0.446E-01 0.385E-02 -.169E+04   -.107E-02 0.606E-10 0.170E+04   -.395E-01 -.392E-03 0.699E+00   -.127E-01 -.329E-02 -.519E+01
   -.892E-02 0.257E-01 -.169E+04   -.129E-01 0.609E-10 0.170E+04   0.255E-01 0.332E-01 0.758E+00   0.151E-02 -.232E-01 -.518E+01
   0.736E-01 -.226E+02 -.221E+04   -.886E-03 0.410E+02 0.222E+04   -.123E-01 -.429E+01 -.536E+01   -.404E-01 -.128E+02 -.970E+01
   -.557E-01 -.225E+02 -.221E+04   0.974E-02 0.410E+02 0.222E+04   0.686E-02 -.433E+01 -.540E+01   0.312E-01 -.129E+02 -.972E+01
   0.539E-01 -.226E+02 -.221E+04   -.908E-03 0.410E+02 0.222E+04   -.380E-01 -.434E+01 -.543E+01   -.142E-01 -.129E+02 -.971E+01
   -.298E-01 -.225E+02 -.221E+04   0.139E-01 0.410E+02 0.222E+04   -.119E-01 -.430E+01 -.537E+01   0.502E-02 -.129E+02 -.971E+01
   0.102E-01 0.225E+02 -.221E+04   -.886E-03 -.410E+02 0.222E+04   -.416E-02 0.431E+01 -.540E+01   -.571E-02 0.129E+02 -.970E+01
   -.181E-01 0.225E+02 -.221E+04   0.974E-02 -.410E+02 0.222E+04   0.199E-01 0.431E+01 -.538E+01   -.370E-02 0.129E+02 -.970E+01
   -.138E-01 0.226E+02 -.221E+04   -.908E-03 -.410E+02 0.222E+04   -.198E-01 0.432E+01 -.539E+01   0.250E-01 0.129E+02 -.969E+01
   -.734E-02 0.225E+02 -.221E+04   0.139E-01 -.410E+02 0.222E+04   0.258E-01 0.433E+01 -.540E+01   -.101E-01 0.129E+02 -.970E+01
   0.364E-01 -.135E-01 -.255E+04   -.713E-03 0.351E-10 0.260E+04   -.141E-01 0.466E-02 -.194E+02   -.217E-01 0.177E-02 -.252E+02
   0.375E-01 -.236E-01 -.255E+04   -.251E-01 0.352E-10 0.260E+04   -.402E-02 0.852E-02 -.193E+02   -.585E-02 0.642E-02 -.252E+02
   0.118E-01 0.205E-01 -.255E+04   -.717E-03 0.350E-10 0.260E+04   -.304E-02 -.353E-02 -.194E+02   -.374E-02 -.690E-02 -.252E+02
   -.237E-01 -.147E-02 -.255E+04   -.215E-01 0.350E-10 0.260E+04   0.346E-01 -.918E-02 -.193E+02   0.782E-02 0.185E-02 -.251E+02
   -.200E-01 -.572E-01 0.255E+04   -.747E-03 0.350E-10 -.260E+04   0.633E-01 0.245E-01 0.193E+02   -.237E-02 0.292E-01 0.251E+02
   0.354E-02 -.331E-01 0.255E+04   -.179E-01 0.349E-10 -.260E+04   -.766E-02 0.171E-01 0.194E+02   0.171E-01 0.132E-01 0.251E+02
   -.235E-01 -.438E-01 0.255E+04   -.119E-02 0.350E-10 -.260E+04   0.497E-01 0.411E-01 0.193E+02   0.154E-01 0.144E-01 0.252E+02
   0.224E-01 -.351E-01 0.255E+04   -.141E-01 0.351E-10 -.260E+04   -.945E-02 0.317E-01 0.193E+02   -.951E-02 0.123E-01 0.251E+02
   -.452E-01 -.226E+02 0.221E+04   -.119E-02 0.410E+02 -.222E+04   0.213E-01 -.427E+01 0.536E+01   0.258E-01 -.129E+02 0.970E+01
   -.530E-01 -.225E+02 0.221E+04   0.181E-01 0.410E+02 -.222E+04   -.195E-01 -.430E+01 0.540E+01   0.249E-01 -.129E+02 0.969E+01
   -.358E-01 -.226E+02 0.221E+04   -.764E-03 0.410E+02 -.222E+04   0.208E-01 -.429E+01 0.538E+01   0.194E-01 -.129E+02 0.969E+01
   -.200E-01 -.226E+02 0.221E+04   0.234E-01 0.410E+02 -.222E+04   0.154E-02 -.428E+01 0.538E+01   -.209E-02 -.129E+02 0.968E+01
   0.539E-01 0.225E+02 0.221E+04   -.119E-02 -.410E+02 -.222E+04   -.367E-01 0.428E+01 0.538E+01   -.123E-01 0.129E+02 0.971E+01
   -.369E-01 0.225E+02 0.221E+04   0.181E-01 -.410E+02 -.222E+04   -.102E-01 0.435E+01 0.542E+01   0.229E-01 0.129E+02 0.969E+01
   -.122E-01 0.225E+02 0.221E+04   -.764E-03 -.410E+02 -.222E+04   0.861E-02 0.438E+01 0.539E+01   -.782E-02 0.129E+02 0.970E+01
   -.714E-01 0.225E+02 0.221E+04   0.234E-01 -.410E+02 -.222E+04   0.164E-01 0.431E+01 0.540E+01   0.138E-01 0.129E+02 0.971E+01
   0.303E-01 -.344E-01 0.169E+04   -.120E-02 0.609E-10 -.170E+04   0.118E-02 -.177E-01 -.764E+00   -.169E-01 0.233E-01 0.519E+01
   -.204E-01 -.143E-01 0.169E+04   -.814E-02 0.607E-10 -.170E+04   0.248E-01 0.186E-01 -.725E+00   0.894E-02 0.376E-02 0.515E+01
   0.630E-01 -.330E-01 0.169E+04   -.204E-02 0.611E-10 -.170E+04   -.422E-01 0.223E-01 -.715E+00   -.194E-01 0.141E-01 0.518E+01
   0.242E-01 0.373E-01 0.169E+04   -.308E-02 0.604E-10 -.170E+04   -.169E-01 -.310E-01 -.754E+00   -.423E-02 -.130E-01 0.517E+01
   -.294E-01 0.227E-01 0.152E+04   -.126E-02 -.198E-12 -.151E+04   -.656E-02 -.282E-01 0.727E+00   0.206E-01 -.453E-02 -.160E+01
   -.221E-01 0.259E-02 0.152E+04   -.105E-01 -.101E-12 -.151E+04   0.336E-01 0.122E-01 0.758E+00   0.217E-02 -.818E-02 -.165E+01
   0.922E-02 0.497E-01 0.152E+04   -.197E-02 0.109E-12 -.151E+04   -.115E-01 -.206E-01 0.759E+00   -.279E-02 -.241E-01 -.161E+01
   -.136E-01 -.190E-01 0.152E+04   -.519E-02 0.342E-12 -.151E+04   0.115E-01 0.260E-01 0.733E+00   0.138E-01 0.173E-02 -.164E+01
   0.651E-02 -.349E+02 0.107E+04   -.145E-02 0.406E+02 -.107E+04   0.316E-01 -.350E+01 -.660E+00   -.143E-01 -.217E+01 -.153E+01
   -.727E-01 -.349E+02 0.107E+04   0.189E-01 0.406E+02 -.107E+04   -.169E-01 -.352E+01 -.677E+00   0.363E-01 -.217E+01 -.152E+01
   0.429E-01 -.350E+02 0.107E+04   0.154E-02 0.406E+02 -.107E+04   -.305E-01 -.348E+01 -.671E+00   -.126E-01 -.216E+01 -.154E+01
   -.873E-01 -.350E+02 0.107E+04   0.252E-01 0.406E+02 -.107E+04   0.610E-02 -.348E+01 -.662E+00   0.336E-01 -.217E+01 -.150E+01
   -.273E-01 0.350E+02 0.107E+04   -.145E-02 -.406E+02 -.107E+04   0.350E-01 0.353E+01 -.689E+00   0.331E-02 0.215E+01 -.152E+01
   -.527E-01 0.350E+02 0.107E+04   0.189E-01 -.406E+02 -.107E+04   -.167E-01 0.351E+01 -.675E+00   0.266E-01 0.216E+01 -.151E+01
   -.358E-01 0.350E+02 0.107E+04   0.154E-02 -.406E+02 -.107E+04   0.224E-01 0.351E+01 -.662E+00   0.188E-01 0.216E+01 -.151E+01
   0.134E-01 0.349E+02 0.107E+04   0.252E-01 -.406E+02 -.107E+04   -.156E-01 0.351E+01 -.628E+00   -.173E-01 0.218E+01 -.151E+01
   -.408E-01 -.105E-01 0.585E+03   -.133E-02 -.324E-12 -.573E+03   0.124E-02 0.157E-01 -.481E+01   0.309E-01 0.480E-02 -.565E+01
   -.104E-01 0.214E-01 0.585E+03   -.144E-01 0.177E-12 -.573E+03   0.861E-02 0.125E-01 -.473E+01   0.112E-01 -.989E-02 -.563E+01
   -.397E-01 0.152E-01 0.585E+03   -.146E-02 0.809E-13 -.573E+03   0.137E-01 -.902E-02 -.479E+01   0.199E-01 -.782E-02 -.566E+01
   0.941E-02 0.349E-01 0.585E+03   -.853E-02 -.831E-12 -.573E+03   0.133E-01 -.351E-01 -.482E+01   -.462E-02 -.957E-02 -.566E+01
   -.415E-01 0.166E-01 0.502E+03   -.132E-02 0.654E-10 -.516E+03   0.345E-01 -.100E-01 0.593E+01   0.152E-01 -.458E-02 0.614E+01
   0.363E-02 0.826E-02 0.503E+03   -.121E-01 0.649E-10 -.516E+03   -.614E-01 0.361E-03 0.594E+01   0.251E-01 -.673E-02 0.615E+01
   0.253E-01 0.247E-01 0.503E+03   -.132E-02 0.650E-10 -.516E+03   -.318E-02 -.219E-01 0.590E+01   -.127E-01 -.110E-01 0.613E+01
   -.377E-01 0.281E-02 0.503E+03   -.618E-02 0.650E-10 -.516E+03   0.943E-02 -.239E-01 0.589E+01   0.178E-01 0.298E-02 0.614E+01
   -.126E-01 -.672E+02 -.230E-01   -.136E-02 0.798E+02 -.425E-06   0.298E-01 -.451E+01 -.142E-01   -.627E-03 -.755E+01 0.154E-01
   0.203E-01 -.672E+02 -.496E-01   0.200E-01 0.798E+02 -.425E-06   -.349E-01 -.450E+01 0.365E-01   -.127E-01 -.753E+01 0.153E-01
   -.269E-02 -.672E+02 -.225E-01   0.139E-02 0.798E+02 -.425E-06   0.338E-01 -.452E+01 0.210E-01   -.321E-01 -.753E+01 0.975E-02
   -.409E-02 -.673E+02 -.159E-01   0.265E-01 0.798E+02 -.425E-06   0.329E-01 -.453E+01 -.122E-03   -.557E-01 -.747E+01 0.873E-02
   -.266E-01 0.672E+02 0.450E-02   -.136E-02 -.798E+02 -.425E-06   0.330E-01 0.452E+01 -.243E-01   0.868E-02 0.754E+01 0.731E-02
   0.403E-02 0.672E+02 0.464E-02   0.200E-01 -.798E+02 -.425E-06   -.138E-01 0.448E+01 -.119E-01   -.558E-02 0.756E+01 -.201E-02
   0.267E-01 0.672E+02 0.477E-01   0.139E-02 -.798E+02 -.425E-06   -.102E-01 0.450E+01 -.582E-01   -.163E-01 0.754E+01 -.858E-02
   0.858E-02 0.673E+02 0.184E-01   0.265E-01 -.798E+02 -.425E-06   -.326E-01 0.449E+01 0.156E-01   -.119E-01 0.751E+01 -.169E-01
   0.132E-01 0.732E-02 -.503E+03   -.132E-02 0.656E-10 0.516E+03   0.311E-01 0.161E-02 -.596E+01   -.136E-01 -.808E-02 -.612E+01
   -.765E-02 0.135E-01 -.502E+03   -.121E-01 0.651E-10 0.516E+03   -.344E-01 -.172E-01 -.593E+01   0.162E-01 -.380E-02 -.615E+01
   0.338E-01 0.121E-01 -.503E+03   -.132E-02 0.654E-10 0.516E+03   0.701E-02 0.343E-02 -.589E+01   -.235E-01 -.467E-02 -.613E+01
   0.127E-01 0.978E-02 -.503E+03   -.618E-02 0.653E-10 0.516E+03   -.613E-02 0.217E-01 -.591E+01   -.284E-02 -.683E-02 -.615E+01
   0.327E-02 -.690E-01 -.585E+03   -.133E-02 0.449E-12 0.573E+03   0.208E-01 0.196E-01 0.480E+01   -.117E-01 0.327E-01 0.563E+01
   0.320E-01 0.445E-01 -.585E+03   -.144E-01 0.231E-12 0.573E+03   -.223E-01 -.252E-01 0.481E+01   -.316E-02 -.208E-01 0.565E+01
   0.952E-02 -.948E-02 -.585E+03   -.146E-02 -.549E-12 0.573E+03   -.388E-01 0.840E-02 0.478E+01   0.388E-03 0.952E-02 0.565E+01
   0.136E-01 0.161E-01 -.585E+03   -.853E-02 0.808E-13 0.573E+03   0.359E-01 -.330E-02 0.479E+01   -.992E-02 -.509E-02 0.564E+01
   0.235E-01 -.349E+02 -.107E+04   -.145E-02 0.406E+02 0.107E+04   0.123E-01 -.350E+01 0.673E+00   -.204E-01 -.218E+01 0.152E+01
   -.442E-01 -.350E+02 -.107E+04   0.189E-01 0.406E+02 0.107E+04   0.886E-02 -.349E+01 0.652E+00   0.164E-01 -.217E+01 0.154E+01
   -.186E-01 -.350E+02 -.107E+04   0.154E-02 0.406E+02 0.107E+04   0.351E-01 -.345E+01 0.687E+00   0.395E-02 -.216E+01 0.154E+01
   -.106E+00 -.349E+02 -.107E+04   0.252E-01 0.406E+02 0.107E+04   0.756E-01 -.355E+01 0.645E+00   0.255E-01 -.216E+01 0.153E+01
   -.120E-01 0.349E+02 -.107E+04   -.145E-02 -.406E+02 0.107E+04   -.326E-01 0.352E+01 0.635E+00   0.854E-02 0.221E+01 0.151E+01
   0.171E-01 0.349E+02 -.107E+04   0.189E-01 -.406E+02 0.107E+04   -.134E-01 0.351E+01 0.616E+00   -.115E-01 0.219E+01 0.153E+01
   -.275E-02 0.349E+02 -.107E+04   0.154E-02 -.406E+02 0.107E+04   -.207E-01 0.357E+01 0.652E+00   0.379E-02 0.218E+01 0.153E+01
   -.215E-01 0.350E+02 -.107E+04   0.252E-01 -.406E+02 0.107E+04   0.334E-01 0.350E+01 0.652E+00   -.923E-02 0.215E+01 0.152E+01
   0.169E-01 -.366E-02 -.152E+04   -.126E-02 -.671E-12 0.151E+04   0.341E-02 0.108E-01 -.737E+00   -.109E-01 -.389E-03 0.162E+01
   0.460E-01 -.129E-01 -.152E+04   -.105E-01 -.380E-13 0.151E+04   -.592E-01 0.288E-01 -.762E+00   -.412E-02 -.196E-03 0.165E+01
   0.683E-03 -.170E-01 -.152E+04   -.197E-02 0.364E-12 0.151E+04   0.108E-01 0.104E-01 -.718E+00   -.265E-02 0.135E-01 0.165E+01
   0.176E-01 -.843E-01 -.152E+04   -.519E-02 -.208E-12 0.151E+04   0.313E-02 0.470E-01 -.781E+00   -.996E-02 0.345E-01 0.164E+01
   0.732E-01 -.128E-01 -.169E+04   -.120E-02 0.606E-10 0.170E+04   -.458E-01 0.849E-02 0.724E+00   -.278E-01 0.691E-02 -.517E+01
   -.829E-02 0.103E-01 -.169E+04   -.814E-02 0.607E-10 0.170E+04   0.150E-01 0.138E-01 0.787E+00   0.100E-01 -.106E-01 -.518E+01
   0.363E-01 0.429E-02 -.169E+04   -.204E-02 0.609E-10 0.170E+04   -.486E-01 -.921E-02 0.790E+00   -.883E-02 -.129E-02 -.519E+01
   0.417E-01 0.209E-02 -.169E+04   -.308E-02 0.607E-10 0.170E+04   -.113E-01 -.987E-02 0.730E+00   -.242E-01 0.254E-02 -.517E+01
   -.240E-02 -.226E+02 -.221E+04   -.119E-02 0.410E+02 0.222E+04   0.276E-01 -.429E+01 -.537E+01   -.470E-02 -.129E+02 -.969E+01
   -.162E-01 -.225E+02 -.221E+04   0.181E-01 0.410E+02 0.222E+04   -.126E-01 -.433E+01 -.535E+01   0.536E-02 -.129E+02 -.969E+01
   0.199E-01 -.226E+02 -.221E+04   -.764E-03 0.410E+02 0.222E+04   -.124E-01 -.432E+01 -.546E+01   -.104E-01 -.129E+02 -.972E+01
   -.279E-02 -.225E+02 -.221E+04   0.234E-01 0.410E+02 0.222E+04   0.242E-01 -.427E+01 -.534E+01   -.176E-01 -.129E+02 -.968E+01
   0.183E-01 0.225E+02 -.221E+04   -.119E-02 -.410E+02 0.222E+04   -.255E-01 0.434E+01 -.542E+01   -.106E-01 0.129E+02 -.970E+01
   -.240E-01 0.225E+02 -.221E+04   0.181E-01 -.410E+02 0.222E+04   -.246E-01 0.434E+01 -.540E+01   0.198E-01 0.129E+02 -.968E+01
   -.234E-01 0.226E+02 -.221E+04   -.764E-03 -.410E+02 0.222E+04   0.119E-01 0.427E+01 -.537E+01   0.818E-02 0.129E+02 -.969E+01
   0.621E-01 0.225E+02 -.221E+04   0.234E-01 -.410E+02 0.222E+04   -.944E-02 0.434E+01 -.543E+01   -.479E-01 0.129E+02 -.972E+01
   0.285E-01 0.356E-02 -.255E+04   -.747E-03 0.351E-10 0.260E+04   -.372E-01 -.358E-01 -.193E+02   -.553E-02 0.792E-02 -.251E+02
   0.550E-01 0.304E-01 -.255E+04   -.179E-01 0.350E-10 0.260E+04   -.392E-01 -.341E-02 -.194E+02   -.698E-02 -.145E-01 -.251E+02
   0.304E-01 -.520E-02 -.255E+04   -.119E-02 0.350E-10 0.260E+04   -.300E-01 -.180E-02 -.194E+02   -.909E-02 0.313E-02 -.251E+02
   0.208E-01 -.235E-01 -.255E+04   -.141E-01 0.351E-10 0.260E+04   -.583E-02 0.112E-01 -.194E+02   -.471E-02 0.110E-01 -.252E+02
   -.100E-01 0.840E-02 0.255E+04   -.406E-02 0.128E-12 -.260E+04   -.212E-01 -.150E-01 0.194E+02   0.181E-01 -.852E-03 0.251E+02
   -.418E-01 -.394E-01 0.255E+04   0.294E-01 0.166E-12 -.260E+04   0.139E-01 0.133E-01 0.193E+02   0.105E-01 0.174E-01 0.251E+02
   0.206E-01 0.373E-01 0.255E+04   -.956E-03 0.345E-12 -.260E+04   0.819E-02 -.346E-01 0.194E+02   -.175E-01 -.826E-02 0.251E+02
   0.273E-01 -.211E-01 0.255E+04   -.295E-01 0.907E-13 -.260E+04   0.199E-01 0.180E-01 0.194E+02   0.562E-04 0.966E-02 0.251E+02
   -.127E-01 -.226E+02 0.221E+04   -.195E-02 0.410E+02 -.222E+04   0.292E-01 -.432E+01 0.540E+01   0.306E-02 -.129E+02 0.970E+01
   -.326E-01 -.225E+02 0.221E+04   0.393E-03 0.410E+02 -.222E+04   0.140E-01 -.431E+01 0.538E+01   0.208E-01 -.129E+02 0.970E+01
   -.122E-01 -.226E+02 0.221E+04   -.102E-02 0.410E+02 -.222E+04   0.183E-01 -.426E+01 0.534E+01   0.786E-02 -.129E+02 0.967E+01
   0.744E-02 -.225E+02 0.221E+04   0.489E-02 0.410E+02 -.222E+04   0.376E-01 -.429E+01 0.541E+01   -.182E-01 -.129E+02 0.970E+01
   -.288E-01 0.226E+02 0.221E+04   -.195E-02 -.410E+02 -.222E+04   -.121E-01 0.431E+01 0.542E+01   0.152E-01 0.129E+02 0.969E+01
   -.167E-01 0.225E+02 0.221E+04   0.393E-03 -.410E+02 -.222E+04   0.378E-02 0.431E+01 0.540E+01   0.638E-02 0.129E+02 0.969E+01
   -.790E-01 0.225E+02 0.221E+04   -.102E-02 -.410E+02 -.222E+04   0.212E-01 0.432E+01 0.533E+01   0.408E-01 0.129E+02 0.969E+01
   0.452E-01 0.225E+02 0.221E+04   0.489E-02 -.410E+02 -.222E+04   -.358E-02 0.435E+01 0.540E+01   -.255E-01 0.129E+02 0.970E+01
   -.461E-01 0.371E-01 0.169E+04   0.131E-02 0.832E-13 -.170E+04   0.322E-01 -.639E-02 -.710E+00   0.216E-01 -.235E-01 0.520E+01
   -.515E-01 -.722E-02 0.169E+04   0.278E-01 -.419E-12 -.170E+04   0.549E-01 -.216E-01 -.760E+00   0.269E-02 0.726E-02 0.515E+01
   -.810E-01 -.292E-02 0.169E+04   -.158E-02 -.693E-13 -.170E+04   0.616E-01 0.222E-01 -.755E+00   0.290E-01 -.813E-03 0.518E+01
   0.330E-01 -.202E-01 0.169E+04   -.254E-01 -.898E-13 -.170E+04   0.929E-02 0.147E-01 -.695E+00   -.434E-02 0.742E-02 0.520E+01
   -.307E-01 -.115E-01 0.152E+04   0.508E-03 -.603E-10 -.151E+04   -.977E-02 0.152E-01 0.768E+00   0.230E-01 0.447E-02 -.163E+01
   -.531E-01 -.307E-02 0.152E+04   0.307E-01 -.605E-10 -.151E+04   0.111E-01 -.572E-02 0.736E+00   0.158E-01 0.513E-02 -.160E+01
   0.440E-01 -.279E-01 0.152E+04   -.168E-02 -.615E-10 -.151E+04   -.881E-02 0.207E-01 0.746E+00   -.214E-01 0.860E-02 -.159E+01
   -.756E-02 0.970E-03 0.152E+04   -.283E-01 -.609E-10 -.151E+04   0.254E-01 -.146E-01 0.706E+00   0.767E-02 0.987E-03 -.164E+01
   -.444E-01 -.350E+02 0.107E+04   -.210E-02 0.406E+02 -.107E+04   0.555E-01 -.353E+01 -.681E+00   0.144E-01 -.216E+01 -.152E+01
   0.146E-01 -.349E+02 0.107E+04   0.859E-03 0.406E+02 -.107E+04   -.459E-01 -.350E+01 -.687E+00   0.515E-02 -.219E+01 -.152E+01
   -.329E-01 -.350E+02 0.107E+04   -.154E-02 0.406E+02 -.107E+04   0.299E-01 -.350E+01 -.619E+00   0.912E-02 -.217E+01 -.153E+01
   -.144E-01 -.350E+02 0.107E+04   0.183E-02 0.406E+02 -.107E+04   0.372E-01 -.350E+01 -.655E+00   -.136E-01 -.216E+01 -.152E+01
   -.193E-01 0.350E+02 0.107E+04   -.210E-02 -.406E+02 -.107E+04   0.583E-02 0.353E+01 -.672E+00   0.127E-01 0.215E+01 -.152E+01
   -.172E-01 0.349E+02 0.107E+04   0.859E-03 -.406E+02 -.107E+04   -.771E-02 0.353E+01 -.631E+00   0.938E-02 0.216E+01 -.152E+01
   -.270E-01 0.349E+02 0.107E+04   -.154E-02 -.406E+02 -.107E+04   0.314E-01 0.352E+01 -.685E+00   0.310E-02 0.217E+01 -.152E+01
   0.244E-01 0.350E+02 0.107E+04   0.183E-02 -.406E+02 -.107E+04   0.766E-02 0.351E+01 -.662E+00   -.233E-01 0.215E+01 -.153E+01
   -.345E-01 0.226E-01 0.585E+03   -.834E-03 -.619E-10 -.573E+03   0.581E-02 -.283E-01 -.482E+01   0.257E-01 -.615E-02 -.565E+01
   -.680E-01 -.324E-01 0.585E+03   0.345E-01 -.615E-10 -.573E+03   -.135E-01 0.258E-02 -.481E+01   0.214E-01 0.175E-01 -.567E+01
   0.557E-01 0.349E-01 0.585E+03   -.188E-02 -.613E-10 -.573E+03   -.945E-02 -.460E-02 -.473E+01   -.351E-01 -.182E-01 -.565E+01
   0.349E-01 -.452E-02 0.585E+03   -.326E-01 -.618E-10 -.573E+03   0.286E-01 0.249E-01 -.478E+01   -.124E-01 -.714E-02 -.571E+01
   0.215E-01 -.139E-01 0.502E+03   0.145E-03 -.629E-13 -.516E+03   -.466E-01 -.177E-01 0.605E+01   -.338E-02 0.894E-02 0.622E+01
   -.666E-01 -.679E-02 0.502E+03   0.321E-01 0.391E-12 -.516E+03   0.242E-01 -.858E-03 0.601E+01   0.153E-01 0.882E-02 0.620E+01
   0.570E-01 0.863E-02 0.503E+03   -.187E-02 -.201E-12 -.516E+03   -.315E-01 0.267E-01 0.594E+01   -.322E-01 -.136E-01 0.613E+01
   0.393E-01 -.273E-02 0.502E+03   -.301E-01 0.228E-12 -.516E+03   0.316E-01 -.356E-01 0.598E+01   -.185E-01 0.146E-01 0.613E+01
   -.767E-01 -.672E+02 0.237E-02   -.213E-02 0.798E+02 -.425E-06   0.752E-01 -.452E+01 0.187E-01   0.257E-01 -.755E+01 -.112E-01
   0.274E-01 -.672E+02 0.114E-01   0.817E-03 0.798E+02 -.425E-06   -.111E-01 -.455E+01 -.260E-01   -.184E-01 -.753E+01 -.249E-02
   0.256E-01 -.672E+02 -.597E-03   -.166E-02 0.798E+02 -.425E-06   0.168E-01 -.451E+01 0.365E-01   -.185E-01 -.754E+01 -.110E-01
   -.441E-02 -.672E+02 -.718E-02   0.222E-02 0.798E+02 -.425E-06   -.173E-02 -.457E+01 -.531E-02   0.661E-02 -.757E+01 0.110E-01
   -.195E-01 0.673E+02 0.207E-01   -.213E-02 -.798E+02 -.425E-06   0.269E-01 0.452E+01 0.227E-02   0.391E-03 0.752E+01 -.117E-01
   -.201E-01 0.672E+02 0.284E-01   0.817E-03 -.798E+02 -.425E-06   0.329E-01 0.449E+01 -.215E-01   -.830E-03 0.754E+01 -.148E-01
   0.601E-01 0.672E+02 0.397E-01   -.166E-02 -.798E+02 -.425E-06   -.437E-02 0.449E+01 -.446E-01   -.315E-01 0.754E+01 -.880E-02
   -.106E-01 0.672E+02 -.284E-01   0.222E-02 -.798E+02 -.425E-06   0.154E-01 0.449E+01 0.377E-01   0.206E-02 0.754E+01 0.895E-02
   0.293E-01 -.582E-01 -.502E+03   0.145E-03 0.166E-12 0.516E+03   -.203E-01 0.442E-01 -.598E+01   -.128E-01 0.240E-01 -.621E+01
   -.479E-01 -.407E-01 -.502E+03   0.321E-01 -.584E-13 0.516E+03   0.198E-01 0.252E-01 -.606E+01   0.744E-02 0.193E-01 -.622E+01
   0.876E-02 -.415E-02 -.503E+03   -.187E-02 0.350E-12 0.516E+03   0.949E-02 0.362E-01 -.590E+01   -.132E-01 -.344E-02 -.614E+01
   0.711E-01 0.478E-01 -.502E+03   -.301E-01 -.604E-12 0.516E+03   -.440E-01 -.527E-01 -.598E+01   -.185E-01 -.101E-01 -.616E+01
   -.183E-01 -.909E-02 -.585E+03   -.834E-03 -.620E-10 0.573E+03   -.228E-01 0.325E-01 0.481E+01   0.121E-01 -.206E-02 0.565E+01
   0.160E-01 -.416E-01 -.585E+03   0.345E-01 -.621E-10 0.573E+03   -.244E-01 0.389E-01 0.481E+01   -.271E-01 0.166E-01 0.565E+01
   0.433E-01 -.112E-01 -.585E+03   -.188E-02 -.618E-10 0.573E+03   0.130E-01 0.975E-02 0.476E+01   -.300E-01 0.423E-02 0.564E+01
   0.919E-02 -.477E-01 -.585E+03   -.326E-01 -.617E-10 0.573E+03   0.123E-01 0.633E-01 0.481E+01   0.128E-01 0.159E-01 0.565E+01
   0.273E-01 -.349E+02 -.107E+04   -.210E-02 0.406E+02 0.107E+04   -.228E-01 -.354E+01 0.670E+00   -.115E-01 -.218E+01 0.152E+01
   0.577E-02 -.349E+02 -.107E+04   0.859E-03 0.406E+02 0.107E+04   0.474E-01 -.348E+01 0.674E+00   -.986E-02 -.217E+01 0.152E+01
   0.428E-01 -.349E+02 -.107E+04   -.154E-02 0.406E+02 0.107E+04   -.417E-01 -.351E+01 0.644E+00   -.125E-01 -.217E+01 0.151E+01
   -.221E-01 -.350E+02 -.107E+04   0.183E-02 0.406E+02 0.107E+04   -.919E-02 -.355E+01 0.669E+00   0.178E-01 -.215E+01 0.153E+01
   -.124E-01 0.349E+02 -.107E+04   -.210E-02 -.406E+02 0.107E+04   0.178E-01 0.351E+01 0.659E+00   0.326E-02 0.217E+01 0.152E+01
   0.257E-01 0.349E+02 -.107E+04   0.859E-03 -.406E+02 0.107E+04   -.887E-02 0.351E+01 0.700E+00   -.153E-01 0.216E+01 0.154E+01
   0.332E-01 0.349E+02 -.107E+04   -.154E-02 -.406E+02 0.107E+04   -.350E-01 0.349E+01 0.708E+00   -.700E-02 0.219E+01 0.154E+01
   -.273E-02 0.350E+02 -.107E+04   0.183E-02 -.406E+02 0.107E+04   -.198E-01 0.347E+01 0.647E+00   0.135E-01 0.213E+01 0.153E+01
   -.442E-02 -.212E-01 -.152E+04   0.508E-03 -.607E-10 0.151E+04   0.187E-01 0.538E-02 -.650E+00   -.143E-02 0.666E-02 0.165E+01
   -.677E-01 0.224E-01 -.152E+04   0.307E-01 -.607E-10 0.151E+04   0.372E-01 -.132E-01 -.703E+00   0.142E-01 -.803E-02 0.163E+01
   0.395E-01 0.296E-01 -.152E+04   -.168E-02 -.606E-10 0.151E+04   -.191E-01 -.129E-01 -.719E+00   -.155E-01 -.143E-01 0.164E+01
   -.228E-01 0.614E-02 -.152E+04   -.283E-01 -.602E-10 0.151E+04   0.339E-01 0.292E-02 -.714E+00   0.250E-01 -.513E-02 0.162E+01
   -.288E-02 0.898E-01 -.169E+04   0.131E-02 0.240E-12 0.170E+04   0.109E-01 -.669E-01 0.768E+00   -.149E-02 -.302E-01 -.520E+01
   -.861E-01 -.256E-02 -.169E+04   0.278E-01 -.710E-12 0.170E+04   0.480E-01 -.969E-03 0.694E+00   0.139E-01 0.179E-02 -.520E+01
   0.222E-01 -.787E-01 -.169E+04   -.158E-02 -.235E-12 0.170E+04   -.971E-02 0.592E-01 0.719E+00   -.120E-01 0.309E-01 -.519E+01
   0.249E-01 0.692E-02 -.169E+04   -.254E-01 -.430E-12 0.170E+04   0.193E-01 0.208E-01 0.762E+00   0.197E-03 -.116E-01 -.515E+01
   0.156E-01 -.225E+02 -.221E+04   -.195E-02 0.410E+02 0.222E+04   -.346E-01 -.437E+01 -.536E+01   -.226E-02 -.129E+02 -.968E+01
   0.296E-01 -.226E+02 -.221E+04   0.393E-03 0.410E+02 0.222E+04   -.228E-01 -.429E+01 -.541E+01   -.110E-01 -.129E+02 -.970E+01
   -.452E-01 -.225E+02 -.221E+04   -.102E-02 0.410E+02 0.222E+04   0.578E-01 -.431E+01 -.539E+01   0.115E-01 -.129E+02 -.971E+01
   0.882E-01 -.225E+02 -.221E+04   0.489E-02 0.410E+02 0.222E+04   -.726E-01 -.432E+01 -.537E+01   -.341E-01 -.129E+02 -.970E+01
   0.828E-02 0.225E+02 -.221E+04   -.195E-02 -.410E+02 0.222E+04   0.236E-01 0.430E+01 -.540E+01   -.228E-02 0.129E+02 -.969E+01
   -.421E-02 0.225E+02 -.221E+04   0.393E-03 -.410E+02 0.222E+04   -.107E-01 0.431E+01 -.539E+01   0.464E-02 0.129E+02 -.969E+01
   0.311E-01 0.225E+02 -.221E+04   -.102E-02 -.410E+02 0.222E+04   -.153E-01 0.434E+01 -.535E+01   -.231E-01 0.129E+02 -.968E+01
   0.127E-02 0.226E+02 -.221E+04   0.489E-02 -.410E+02 0.222E+04   -.116E-01 0.433E+01 -.538E+01   -.106E-02 0.129E+02 -.968E+01
   -.533E-02 -.548E-01 -.255E+04   -.406E-02 0.625E-13 0.260E+04   0.949E-02 0.246E-01 -.194E+02   0.430E-02 0.309E-01 -.251E+02
   -.379E-01 -.182E-01 -.255E+04   0.294E-01 -.373E-12 0.260E+04   0.305E-01 0.316E-02 -.194E+02   -.134E-01 0.736E-02 -.252E+02
   0.430E-01 0.387E-01 -.255E+04   -.956E-03 -.147E-12 0.260E+04   -.275E-01 -.495E-01 -.194E+02   -.145E-01 -.107E-01 -.251E+02
   0.712E-01 0.141E-01 -.255E+04   -.295E-01 -.340E-12 0.260E+04   -.463E-01 0.481E-02 -.193E+02   -.144E-01 -.896E-02 -.251E+02
   -.285E-01 0.138E-01 0.255E+04   -.713E-03 -.100E-13 -.260E+04   0.205E-01 -.247E-01 0.194E+02   0.101E-01 -.529E-03 0.251E+02
   0.259E-03 -.152E-01 0.255E+04   -.251E-01 -.579E-13 -.260E+04   -.513E-02 0.259E-01 0.194E+02   0.116E-01 0.252E-02 0.251E+02
   0.127E-01 0.316E-01 0.255E+04   -.717E-03 0.209E-12 -.260E+04   -.235E-01 -.142E-01 0.194E+02   -.383E-03 -.159E-01 0.251E+02
   0.284E-01 -.628E-02 0.255E+04   -.215E-01 0.359E-12 -.260E+04   -.440E-02 0.417E-02 0.194E+02   -.103E-01 0.508E-02 0.252E+02
   -.270E-03 -.225E+02 0.221E+04   -.886E-03 0.410E+02 -.222E+04   -.820E-03 -.436E+01 0.540E+01   -.226E-02 -.129E+02 0.969E+01
   0.510E-01 -.226E+02 0.221E+04   0.974E-02 0.410E+02 -.222E+04   -.338E-01 -.433E+01 0.536E+01   -.298E-01 -.129E+02 0.966E+01
   0.231E-01 -.226E+02 0.221E+04   -.908E-03 0.410E+02 -.222E+04   -.534E-01 -.428E+01 0.539E+01   0.592E-02 -.129E+02 0.971E+01
   -.550E-01 -.225E+02 0.221E+04   0.139E-01 0.410E+02 -.222E+04   0.128E-01 -.435E+01 0.535E+01   0.113E-01 -.129E+02 0.968E+01
   0.225E-01 0.225E+02 0.221E+04   -.886E-03 -.410E+02 -.222E+04   0.181E-01 0.429E+01 0.539E+01   -.282E-01 0.129E+02 0.970E+01
   -.365E-01 0.226E+02 0.221E+04   0.974E-02 -.410E+02 -.222E+04   0.295E-01 0.432E+01 0.541E+01   0.462E-02 0.129E+02 0.969E+01
   -.288E-01 0.225E+02 0.221E+04   -.908E-03 -.410E+02 -.222E+04   -.176E-01 0.428E+01 0.537E+01   0.316E-01 0.129E+02 0.970E+01
   -.778E-01 0.226E+02 0.221E+04   0.139E-01 -.410E+02 -.222E+04   0.320E-01 0.431E+01 0.544E+01   0.249E-01 0.129E+02 0.971E+01
   0.212E-01 0.169E-01 0.169E+04   -.117E-02 -.111E-12 -.170E+04   -.336E-01 -.408E-01 -.699E+00   -.703E-02 0.229E-02 0.519E+01
   -.437E-01 -.197E-02 0.169E+04   -.180E-01 -.229E-12 -.170E+04   0.438E-01 0.356E-01 -.711E+00   0.228E-01 -.552E-02 0.517E+01
   -.121E-01 -.341E-01 0.169E+04   -.107E-02 0.232E-12 -.170E+04   0.160E-01 0.198E-01 -.754E+00   0.123E-01 0.999E-02 0.518E+01
   0.948E-02 0.844E-02 0.169E+04   -.129E-01 -.119E-12 -.170E+04   0.184E-02 -.268E-01 -.692E+00   0.286E-02 0.221E-02 0.517E+01
   0.192E-01 -.421E-01 0.152E+04   -.126E-02 -.614E-10 -.151E+04   -.438E-01 0.391E-01 0.747E+00   -.531E-02 0.118E-01 -.159E+01
   0.177E-01 -.993E-02 0.152E+04   -.209E-01 -.605E-10 -.151E+04   0.318E-01 0.233E-01 0.712E+00   -.117E-01 0.266E-02 -.164E+01
   -.105E-02 -.420E-01 0.152E+04   -.114E-02 -.609E-10 -.151E+04   -.300E-01 0.409E-01 0.756E+00   0.778E-02 0.132E-01 -.163E+01
   -.983E-03 0.199E-01 0.152E+04   -.155E-01 -.604E-10 -.151E+04   0.125E-01 -.159E-02 0.736E+00   0.418E-02 -.924E-02 -.159E+01
   0.335E-01 -.350E+02 0.107E+04   -.129E-02 0.406E+02 -.107E+04   0.183E-01 -.348E+01 -.648E+00   -.216E-01 -.217E+01 -.152E+01
   0.940E-02 -.350E+02 0.107E+04   0.810E-02 0.406E+02 -.107E+04   -.234E-01 -.353E+01 -.645E+00   0.193E-02 -.215E+01 -.152E+01
   0.285E-01 -.349E+02 0.107E+04   -.126E-02 0.406E+02 -.107E+04   -.578E-01 -.351E+01 -.641E+00   0.827E-02 -.218E+01 -.152E+01
   -.297E-01 -.350E+02 0.107E+04   0.135E-01 0.406E+02 -.107E+04   0.364E-01 -.347E+01 -.656E+00   -.260E-02 -.215E+01 -.151E+01
   0.673E-02 0.349E+02 0.107E+04   -.129E-02 -.406E+02 -.107E+04   0.218E-01 0.353E+01 -.645E+00   -.120E-01 0.217E+01 -.153E+01
   -.142E-01 0.350E+02 0.107E+04   0.810E-02 -.406E+02 -.107E+04   0.475E-02 0.353E+01 -.612E+00   0.412E-02 0.215E+01 -.151E+01
   -.382E-01 0.349E+02 0.107E+04   -.126E-02 -.406E+02 -.107E+04   -.364E-02 0.348E+01 -.648E+00   0.305E-01 0.218E+01 -.152E+01
   -.873E-02 0.349E+02 0.107E+04   0.135E-01 -.406E+02 -.107E+04   0.474E-03 0.355E+01 -.662E+00   -.119E-02 0.220E+01 -.151E+01
   0.346E-01 -.226E-01 0.585E+03   -.147E-02 -.617E-10 -.573E+03   -.505E-01 0.287E-01 -.478E+01   -.129E-01 0.504E-03 -.567E+01
   0.388E-01 -.107E-01 0.585E+03   -.258E-01 -.611E-10 -.573E+03   -.451E-02 0.341E-01 -.479E+01   -.912E-02 -.219E-02 -.565E+01
   -.451E-01 -.611E-01 0.585E+03   -.131E-02 -.621E-10 -.573E+03   0.995E-02 0.416E-01 -.481E+01   0.195E-01 0.219E-01 -.565E+01
   0.234E-01 -.836E-02 0.585E+03   -.199E-01 -.627E-10 -.573E+03   -.813E-02 0.889E-02 -.475E+01   0.377E-02 0.165E-02 -.562E+01
   -.217E-02 -.337E-01 0.503E+03   -.149E-02 0.448E-12 -.516E+03   -.950E-02 0.654E-01 0.595E+01   0.514E-02 0.288E-02 0.613E+01
   0.344E-01 -.442E-01 0.503E+03   -.236E-01 0.427E-12 -.516E+03   -.595E-02 0.427E-02 0.593E+01   -.881E-02 0.267E-01 0.615E+01
   0.935E-02 -.322E-01 0.502E+03   -.133E-02 -.170E-12 -.516E+03   -.138E-01 -.523E-03 0.596E+01   0.361E-02 0.157E-01 0.614E+01
   -.317E-02 -.493E-01 0.503E+03   -.177E-01 0.120E-12 -.516E+03   -.134E-01 0.484E-01 0.591E+01   0.140E-01 0.199E-01 0.614E+01
   -.121E-01 -.672E+02 0.558E-01   -.141E-02 0.798E+02 -.425E-06   0.328E-01 -.449E+01 -.339E-01   -.353E-02 -.756E+01 -.277E-01
   -.430E-01 -.673E+02 -.627E-03   0.852E-02 0.798E+02 -.425E-06   0.231E-01 -.445E+01 -.173E-01   0.174E-01 -.752E+01 0.123E-01
   0.212E-01 -.672E+02 -.445E-01   -.133E-02 0.798E+02 -.425E-06   -.124E-01 -.448E+01 0.358E-01   0.229E-02 -.755E+01 0.150E-01
   -.115E-01 -.672E+02 0.493E-01   0.143E-01 0.798E+02 -.425E-06   0.451E-02 -.452E+01 -.282E-01   -.349E-02 -.757E+01 -.180E-01
   -.885E-02 0.672E+02 0.780E-02   -.141E-02 -.798E+02 -.425E-06   0.846E-02 0.453E+01 0.106E-01   0.252E-03 0.752E+01 0.731E-03
   0.741E-02 0.673E+02 -.440E-01   0.852E-02 -.798E+02 -.425E-06   0.692E-02 0.453E+01 0.979E-02   -.168E-01 0.752E+01 0.270E-01
   -.623E-01 0.673E+02 -.447E-02   -.133E-02 -.798E+02 -.425E-06   0.168E-01 0.450E+01 -.344E-02   0.317E-01 0.753E+01 0.361E-02
   0.529E-02 0.672E+02 0.238E-01   0.143E-01 -.798E+02 -.425E-06   -.103E-01 0.448E+01 -.431E-01   -.811E-02 0.754E+01 0.186E-02
   -.299E-01 0.112E-01 -.503E+03   -.149E-02 0.760E-13 0.516E+03   0.111E-01 -.347E-01 -.593E+01   0.126E-01 -.430E-03 -.612E+01
   -.772E-02 0.808E-01 -.503E+03   -.236E-01 0.189E-12 0.516E+03   0.397E-02 -.493E-01 -.591E+01   0.184E-01 -.321E-01 -.612E+01
   -.815E-02 0.198E-01 -.503E+03   -.133E-02 -.736E-13 0.516E+03   -.302E-01 -.175E-01 -.594E+01   0.150E-01 -.567E-02 -.613E+01
   0.919E-02 -.220E-01 -.503E+03   -.177E-01 0.614E-13 0.516E+03   0.218E-01 -.397E-02 -.595E+01   -.537E-02 0.138E-01 -.613E+01
   -.224E-01 -.784E-02 -.585E+03   -.147E-02 -.610E-10 0.573E+03   -.223E-01 -.121E-01 0.479E+01   0.192E-01 0.848E-02 0.566E+01
   -.144E-01 -.343E-01 -.585E+03   -.258E-01 -.621E-10 0.573E+03   0.342E-01 0.903E-02 0.477E+01   0.115E-01 0.199E-01 0.566E+01
   0.214E-01 0.913E-02 -.585E+03   -.131E-02 -.626E-10 0.573E+03   -.257E-01 -.790E-02 0.479E+01   0.237E-02 -.462E-02 0.567E+01
   0.767E-01 -.486E-01 -.585E+03   -.199E-01 -.622E-10 0.573E+03   -.379E-01 0.786E-02 0.483E+01   -.191E-01 0.263E-01 0.564E+01
   -.119E-01 -.350E+02 -.107E+04   -.129E-02 0.406E+02 0.107E+04   0.455E-01 -.350E+01 0.676E+00   -.784E-02 -.216E+01 0.154E+01
   0.411E-01 -.350E+02 -.107E+04   0.810E-02 0.406E+02 0.107E+04   -.563E-01 -.350E+01 0.660E+00   -.165E-01 -.216E+01 0.151E+01
   -.145E-01 -.350E+02 -.107E+04   -.126E-02 0.406E+02 0.107E+04   -.255E-01 -.349E+01 0.643E+00   0.160E-01 -.216E+01 0.153E+01
   -.308E-01 -.350E+02 -.107E+04   0.135E-01 0.406E+02 0.107E+04   0.215E-01 -.352E+01 0.670E+00   0.154E-02 -.215E+01 0.154E+01
   0.344E-01 0.350E+02 -.107E+04   -.129E-02 -.406E+02 0.107E+04   -.465E-02 0.350E+01 0.635E+00   -.181E-01 0.214E+01 0.153E+01
   0.135E-01 0.350E+02 -.107E+04   0.810E-02 -.406E+02 0.107E+04   -.245E-03 0.351E+01 0.692E+00   -.153E-01 0.217E+01 0.153E+01
   0.366E-01 0.350E+02 -.107E+04   -.126E-02 -.406E+02 0.107E+04   -.254E-01 0.350E+01 0.644E+00   -.125E-01 0.214E+01 0.152E+01
   0.664E-02 0.350E+02 -.107E+04   0.135E-01 -.406E+02 0.107E+04   0.945E-02 0.351E+01 0.703E+00   -.182E-01 0.216E+01 0.155E+01
   -.251E-01 0.734E-03 -.152E+04   -.126E-02 -.613E-10 0.151E+04   0.975E-02 -.110E-01 -.701E+00   0.126E-01 0.495E-04 0.162E+01
   0.235E-01 0.568E-01 -.152E+04   -.209E-01 -.603E-10 0.151E+04   0.269E-01 -.599E-01 -.715E+00   -.109E-01 -.184E-01 0.160E+01
   0.755E-02 0.167E-01 -.152E+04   -.114E-02 -.608E-10 0.151E+04   -.161E-03 -.234E-01 -.749E+00   -.309E-02 -.440E-02 0.160E+01
   0.362E-01 -.170E-01 -.152E+04   -.155E-01 -.606E-10 0.151E+04   -.239E-01 0.230E-01 -.720E+00   -.528E-02 0.108E-01 0.162E+01
   -.251E-01 0.410E-01 -.169E+04   -.117E-02 0.126E-12 0.170E+04   -.167E-01 -.282E-01 0.758E+00   0.157E-01 -.203E-01 -.518E+01
   -.213E-01 -.132E-01 -.169E+04   -.180E-01 -.598E-13 0.170E+04   -.119E-01 0.233E-03 0.777E+00   0.235E-01 0.828E-02 -.518E+01
   -.233E-01 -.250E-01 -.169E+04   -.107E-02 0.235E-12 0.170E+04   0.110E-01 0.475E-01 0.750E+00   0.120E-01 -.198E-03 -.516E+01
   0.688E-01 0.274E-01 -.169E+04   -.129E-01 0.118E-12 0.170E+04   -.481E-01 0.322E-02 0.734E+00   -.266E-01 -.142E-01 -.517E+01
   0.400E-02 -.225E+02 -.221E+04   -.886E-03 0.410E+02 0.222E+04   0.136E-01 -.431E+01 -.540E+01   -.208E-02 -.129E+02 -.969E+01
   0.174E-01 -.226E+02 -.221E+04   0.974E-02 0.410E+02 0.222E+04   -.270E-01 -.434E+01 -.538E+01   -.933E-02 -.129E+02 -.969E+01
   -.435E-01 -.225E+02 -.221E+04   -.908E-03 0.410E+02 0.222E+04   -.151E-01 -.435E+01 -.541E+01   0.326E-01 -.129E+02 -.968E+01
   -.156E-01 -.226E+02 -.221E+04   0.139E-01 0.410E+02 0.222E+04   0.103E-01 -.433E+01 -.540E+01   -.704E-02 -.129E+02 -.968E+01
   0.315E-01 0.225E+02 -.221E+04   -.886E-03 -.410E+02 0.222E+04   -.344E-01 0.429E+01 -.537E+01   -.750E-02 0.129E+02 -.968E+01
   0.538E-01 0.226E+02 -.221E+04   0.974E-02 -.410E+02 0.222E+04   -.463E-01 0.429E+01 -.540E+01   -.253E-01 0.129E+02 -.970E+01
   -.156E-01 0.225E+02 -.221E+04   -.908E-03 -.410E+02 0.222E+04   0.598E-02 0.429E+01 -.541E+01   0.189E-01 0.129E+02 -.971E+01
   -.209E-01 0.225E+02 -.221E+04   0.139E-01 -.410E+02 0.222E+04   -.111E-01 0.429E+01 -.541E+01   -.243E-03 0.129E+02 -.969E+01
   0.244E-01 -.352E-01 -.255E+04   -.713E-03 -.188E-12 0.260E+04   0.130E-01 0.250E-01 -.193E+02   -.180E-01 0.111E-01 -.251E+02
   -.227E-02 0.397E-01 -.255E+04   -.251E-01 0.815E-13 0.260E+04   -.121E-01 -.221E-01 -.193E+02   0.210E-01 -.994E-02 -.251E+02
   -.460E-01 0.202E-01 -.255E+04   -.717E-03 -.769E-13 0.260E+04   -.306E-02 -.849E-02 -.193E+02   0.332E-01 -.130E-01 -.251E+02
   -.227E-02 0.172E-01 -.255E+04   -.215E-01 -.274E-12 0.260E+04   0.502E-02 -.305E-02 -.194E+02   0.937E-02 -.113E-01 -.251E+02
   0.353E-01 0.256E-01 0.255E+04   -.747E-03 0.274E-12 -.260E+04   -.205E-01 -.724E-02 0.194E+02   -.187E-01 -.140E-01 0.251E+02
   0.114E-01 -.953E-02 0.255E+04   -.179E-01 0.417E-12 -.260E+04   0.901E-02 0.614E-02 0.193E+02   -.154E-02 0.786E-02 0.251E+02
   0.838E-02 -.292E-01 0.255E+04   -.119E-02 -.300E-12 -.260E+04   -.122E-01 0.231E-01 0.194E+02   0.116E-02 0.938E-02 0.251E+02
   0.469E-02 0.147E-01 0.255E+04   -.141E-01 -.126E-12 -.260E+04   0.326E-01 0.933E-02 0.193E+02   -.417E-02 -.892E-02 0.251E+02
   -.258E-02 -.225E+02 0.221E+04   -.119E-02 0.410E+02 -.222E+04   0.111E-01 -.429E+01 0.536E+01   0.200E-02 -.129E+02 0.970E+01
   -.158E-01 -.226E+02 0.221E+04   0.181E-01 0.410E+02 -.222E+04   -.515E-01 -.430E+01 0.536E+01   0.214E-01 -.129E+02 0.968E+01
   -.696E-02 -.226E+02 0.221E+04   -.764E-03 0.410E+02 -.222E+04   0.398E-02 -.427E+01 0.540E+01   -.630E-02 -.129E+02 0.971E+01
   -.392E-01 -.225E+02 0.221E+04   0.234E-01 0.410E+02 -.222E+04   0.295E-01 -.434E+01 0.538E+01   -.290E-02 -.129E+02 0.971E+01
   -.938E-02 0.226E+02 0.221E+04   -.119E-02 -.410E+02 -.222E+04   0.234E-01 0.429E+01 0.539E+01   -.467E-02 0.129E+02 0.972E+01
   -.142E-01 0.226E+02 0.221E+04   0.181E-01 -.410E+02 -.222E+04   0.146E-01 0.431E+01 0.537E+01   -.657E-02 0.129E+02 0.969E+01
   -.549E-01 0.225E+02 0.221E+04   -.764E-03 -.410E+02 -.222E+04   0.110E-01 0.432E+01 0.539E+01   0.282E-01 0.129E+02 0.969E+01
   -.256E-01 0.225E+02 0.221E+04   0.234E-01 -.410E+02 -.222E+04   -.811E-02 0.433E+01 0.541E+01   0.316E-02 0.129E+02 0.970E+01
   -.961E-02 -.471E-01 0.169E+04   -.120E-02 0.835E-13 -.170E+04   0.133E-01 0.496E-01 -.724E+00   0.791E-02 0.137E-01 0.519E+01
   0.234E-01 -.102E-01 0.169E+04   -.814E-02 -.522E-13 -.170E+04   -.966E-02 -.598E-02 -.777E+00   -.518E-02 0.579E-02 0.516E+01
   0.194E-01 0.305E-01 0.169E+04   -.204E-02 0.297E-13 -.170E+04   0.138E-01 -.465E-01 -.747E+00   -.109E-01 -.898E-02 0.518E+01
   -.129E-01 0.440E-02 0.169E+04   -.308E-02 -.453E-12 -.170E+04   0.336E-01 -.239E-01 -.771E+00   -.108E-02 0.246E-02 0.518E+01
   -.211E-01 0.479E-01 0.152E+04   -.126E-02 -.614E-10 -.151E+04   -.207E-01 -.429E-01 0.731E+00   0.145E-01 -.144E-01 -.164E+01
   0.359E-01 -.147E-01 0.152E+04   -.105E-01 -.606E-10 -.151E+04   -.208E-01 -.153E-02 0.737E+00   -.102E-01 0.131E-01 -.161E+01
   -.269E-01 -.358E-01 0.152E+04   -.197E-02 -.619E-10 -.151E+04   0.753E-02 0.198E-01 0.761E+00   0.947E-02 0.151E-01 -.167E+01
   0.377E-01 -.697E-02 0.152E+04   -.519E-02 -.606E-10 -.151E+04   -.554E-01 0.596E-02 0.704E+00   -.427E-02 0.568E-02 -.164E+01
   0.439E-01 -.349E+02 0.107E+04   -.145E-02 0.406E+02 -.107E+04   -.797E-02 -.349E+01 -.569E+00   -.200E-01 -.217E+01 -.148E+01
   -.277E-01 -.349E+02 0.107E+04   0.189E-01 0.406E+02 -.107E+04   -.709E-01 -.351E+01 -.683E+00   0.193E-01 -.218E+01 -.153E+01
   0.181E-01 -.350E+02 0.107E+04   0.154E-02 0.406E+02 -.107E+04   -.422E-01 -.348E+01 -.686E+00   -.532E-02 -.216E+01 -.152E+01
   0.172E-01 -.349E+02 0.107E+04   0.252E-01 0.406E+02 -.107E+04   -.138E-01 -.351E+01 -.676E+00   -.200E-01 -.218E+01 -.152E+01
   0.960E-02 0.349E+02 0.107E+04   -.145E-02 -.406E+02 -.107E+04   -.561E-02 0.350E+01 -.629E+00   -.131E-01 0.218E+01 -.153E+01
   -.148E-01 0.350E+02 0.107E+04   0.189E-01 -.406E+02 -.107E+04   0.995E-02 0.353E+01 -.686E+00   0.165E-02 0.216E+01 -.153E+01
   0.469E-01 0.350E+02 0.107E+04   0.154E-02 -.406E+02 -.107E+04   -.165E-01 0.354E+01 -.616E+00   -.173E-01 0.216E+01 -.151E+01
   -.398E-01 0.349E+02 0.107E+04   0.252E-01 -.406E+02 -.107E+04   -.145E-01 0.349E+01 -.605E+00   0.123E-01 0.219E+01 -.151E+01
   0.346E-01 -.913E-02 0.585E+03   -.133E-02 -.613E-10 -.573E+03   0.125E-01 0.241E-02 -.479E+01   -.187E-01 0.405E-02 -.565E+01
   -.486E-02 0.336E-01 0.585E+03   -.144E-01 -.623E-10 -.573E+03   -.922E-02 -.169E-01 -.482E+01   0.167E-01 -.672E-02 -.566E+01
   0.445E-02 -.599E-01 0.585E+03   -.146E-02 -.626E-10 -.573E+03   -.904E-02 0.430E-01 -.479E+01   0.170E-02 0.214E-01 -.564E+01
   0.364E-01 0.373E-01 0.585E+03   -.853E-02 -.611E-10 -.573E+03   -.305E-02 -.503E-01 -.481E+01   -.173E-01 -.101E-01 -.564E+01
   -.678E-02 0.314E-01 0.503E+03   -.132E-02 -.788E-13 -.516E+03   -.395E-02 -.557E-02 0.593E+01   0.382E-02 -.144E-01 0.612E+01
   0.259E-01 -.380E-01 0.503E+03   -.121E-01 0.243E-12 -.516E+03   -.182E-01 0.385E-01 0.593E+01   -.140E-02 0.110E-01 0.611E+01
   0.632E-02 0.396E-01 0.503E+03   -.132E-02 0.651E-12 -.516E+03   -.454E-01 -.473E-01 0.593E+01   0.794E-02 -.726E-02 0.613E+01
   -.301E-03 0.402E-01 0.503E+03   -.618E-02 -.114E-12 -.516E+03   -.179E-01 -.364E-01 0.592E+01   0.981E-02 -.138E-01 0.614E+01
   0.369E-01 -.673E+02 0.468E-01   -.136E-02 0.798E+02 -.425E-06   -.290E-01 -.447E+01 -.425E-01   -.182E-01 -.753E+01 -.141E-01
   0.352E-01 -.672E+02 0.690E-01   0.200E-01 0.798E+02 -.425E-06   -.485E-01 -.453E+01 -.549E-01   -.185E-01 -.755E+01 -.273E-01
   0.520E-01 -.672E+02 0.169E-02   0.139E-02 0.798E+02 -.425E-06   -.572E-01 -.452E+01 0.455E-02   -.167E-01 -.754E+01 0.406E-02
   0.132E-01 -.672E+02 -.187E-01   0.265E-01 0.798E+02 -.425E-06   -.515E-01 -.454E+01 0.227E-01   -.109E-01 -.755E+01 0.308E-02
   -.589E-02 0.672E+02 0.315E-01   -.136E-02 -.798E+02 -.425E-06   -.149E-01 0.452E+01 -.185E-01   0.872E-02 0.756E+01 -.172E-01
   -.614E-01 0.673E+02 -.159E-01   0.200E-01 -.798E+02 -.425E-06   0.206E-01 0.453E+01 0.836E-02   0.174E-01 0.751E+01 0.605E-02
   0.712E-01 0.672E+02 0.267E-01   0.139E-02 -.798E+02 -.425E-06   -.779E-01 0.443E+01 -.635E-02   -.148E-01 0.756E+01 -.178E-01
   0.414E-01 0.673E+02 0.276E-02   0.265E-01 -.798E+02 -.425E-06   -.358E-01 0.452E+01 -.620E-02   -.249E-01 0.750E+01 -.275E-02
   -.766E-03 -.397E-01 -.503E+03   -.132E-02 -.686E-12 0.516E+03   0.247E-02 0.447E-01 -.590E+01   0.210E-03 0.112E-01 -.614E+01
   0.332E-01 0.263E-01 -.502E+03   -.121E-01 0.738E-12 0.516E+03   -.523E-02 -.529E-01 -.594E+01   -.974E-02 -.325E-02 -.615E+01
   0.239E-02 -.556E-01 -.503E+03   -.132E-02 0.143E-12 0.516E+03   -.243E-02 0.624E-01 -.592E+01   0.495E-02 0.149E-01 -.612E+01
   -.160E-01 0.410E-01 -.502E+03   -.618E-02 -.661E-12 0.516E+03   0.141E-01 -.265E-01 -.594E+01   0.143E-01 -.167E-01 -.616E+01
   0.235E-01 -.248E-01 -.585E+03   -.133E-02 -.622E-10 0.573E+03   0.335E-01 0.201E-01 0.484E+01   -.144E-01 0.258E-02 0.568E+01
   0.249E-01 -.428E-02 -.585E+03   -.144E-01 -.621E-10 0.573E+03   -.288E-02 0.576E-02 0.481E+01   -.795E-02 0.203E-03 0.563E+01
   0.159E-01 0.209E-01 -.585E+03   -.146E-02 -.623E-10 0.573E+03   -.309E-01 -.888E-02 0.481E+01   -.107E-02 -.816E-02 0.566E+01
   -.678E-01 0.130E-01 -.585E+03   -.853E-02 -.615E-10 0.573E+03   0.466E-01 -.230E-01 0.479E+01   0.286E-01 -.534E-02 0.561E+01
   0.471E-02 -.350E+02 -.107E+04   -.145E-02 0.406E+02 0.107E+04   -.212E-01 -.350E+01 0.667E+00   0.819E-02 -.215E+01 0.153E+01
   0.401E-01 -.349E+02 -.107E+04   0.189E-01 0.406E+02 0.107E+04   -.493E-01 -.353E+01 0.654E+00   -.202E-01 -.216E+01 0.152E+01
   -.600E-01 -.350E+02 -.107E+04   0.154E-02 0.406E+02 0.107E+04   0.327E-01 -.350E+01 0.652E+00   0.225E-01 -.217E+01 0.153E+01
   -.148E-01 -.350E+02 -.107E+04   0.252E-01 0.406E+02 0.107E+04   -.253E-01 -.351E+01 0.662E+00   -.292E-03 -.215E+01 0.153E+01
   -.385E-01 0.350E+02 -.107E+04   -.145E-02 -.406E+02 0.107E+04   -.811E-02 0.348E+01 0.659E+00   0.251E-01 0.216E+01 0.154E+01
   -.423E-01 0.349E+02 -.107E+04   0.189E-01 -.406E+02 0.107E+04   -.351E-03 0.353E+01 0.620E+00   0.173E-01 0.218E+01 0.153E+01
   -.323E-01 0.349E+02 -.107E+04   0.154E-02 -.406E+02 0.107E+04   0.234E-01 0.354E+01 0.669E+00   0.109E-01 0.218E+01 0.153E+01
   -.511E-01 0.349E+02 -.107E+04   0.252E-01 -.406E+02 0.107E+04   0.232E-01 0.351E+01 0.642E+00   0.111E-01 0.219E+01 0.152E+01
   -.433E-01 0.908E-02 -.152E+04   -.126E-02 -.609E-10 0.151E+04   0.368E-01 0.281E-02 -.708E+00   0.176E-01 -.929E-02 0.164E+01
   -.243E-01 -.470E-02 -.152E+04   -.105E-01 -.605E-10 0.151E+04   0.342E-01 0.149E-01 -.745E+00   0.974E-02 0.216E-02 0.162E+01
   -.853E-02 -.570E-01 -.152E+04   -.197E-02 -.609E-10 0.151E+04   0.144E-01 0.393E-01 -.725E+00   0.428E-02 0.225E-01 0.162E+01
   0.530E-02 -.559E-02 -.152E+04   -.519E-02 -.609E-10 0.151E+04   0.270E-01 0.111E-01 -.778E+00   -.898E-03 -.238E-02 0.165E+01
   -.192E-01 0.528E-01 -.169E+04   -.120E-02 0.108E-12 0.170E+04   -.630E-02 -.450E-01 0.695E+00   0.103E-01 -.187E-01 -.518E+01
   -.348E-01 -.407E-01 -.169E+04   -.814E-02 0.100E-12 0.170E+04   0.327E-01 0.323E-01 0.757E+00   0.164E-01 0.128E-01 -.518E+01
   -.150E-01 0.198E-01 -.169E+04   -.204E-02 0.201E-12 0.170E+04   -.933E-02 0.935E-03 0.720E+00   0.154E-01 -.470E-02 -.518E+01
   0.512E-02 0.375E-01 -.169E+04   -.308E-02 -.582E-12 0.170E+04   0.219E-01 -.544E-01 0.728E+00   -.805E-02 -.584E-02 -.520E+01
   0.343E-02 -.226E+02 -.221E+04   -.119E-02 0.410E+02 0.222E+04   0.103E-01 -.426E+01 -.535E+01   -.732E-02 -.129E+02 -.969E+01
   -.587E-01 -.226E+02 -.221E+04   0.181E-01 0.410E+02 0.222E+04   -.235E-02 -.427E+01 -.537E+01   0.271E-01 -.129E+02 -.970E+01
   -.365E-01 -.226E+02 -.221E+04   -.764E-03 0.410E+02 0.222E+04   0.275E-01 -.431E+01 -.539E+01   0.882E-02 -.129E+02 -.969E+01
   -.409E-01 -.225E+02 -.221E+04   0.234E-01 0.410E+02 0.222E+04   0.230E-01 -.427E+01 -.538E+01   0.109E-02 -.129E+02 -.970E+01
   0.350E-01 0.226E+02 -.221E+04   -.119E-02 -.410E+02 0.222E+04   -.262E-01 0.425E+01 -.536E+01   -.131E-01 0.129E+02 -.966E+01
   0.746E-04 0.226E+02 -.221E+04   0.181E-01 -.410E+02 0.222E+04   -.503E-02 0.427E+01 -.539E+01   -.240E-02 0.129E+02 -.970E+01
   0.985E-02 0.226E+02 -.221E+04   -.764E-03 -.410E+02 0.222E+04   0.372E-01 0.428E+01 -.538E+01   -.212E-01 0.129E+02 -.969E+01
   0.483E-01 0.226E+02 -.221E+04   0.234E-01 -.410E+02 0.222E+04   -.348E-01 0.429E+01 -.539E+01   -.333E-01 0.129E+02 -.969E+01
   -.260E-01 0.509E-02 -.255E+04   -.747E-03 0.343E-13 0.260E+04   -.611E-03 -.339E-01 -.194E+02   0.796E-02 0.390E-02 -.251E+02
   0.575E-01 -.168E-01 -.255E+04   -.179E-01 -.409E-13 0.260E+04   0.221E-01 0.257E-01 -.194E+02   -.282E-01 0.488E-02 -.251E+02
   0.124E-01 -.808E-02 -.255E+04   -.119E-02 0.161E-12 0.260E+04   -.100E-01 -.234E-01 -.194E+02   0.936E-02 0.137E-01 -.251E+02
   0.284E-01 0.192E-01 -.255E+04   -.141E-01 0.157E-12 0.260E+04   0.540E-02 -.417E-01 -.193E+02   -.124E-01 0.403E-02 -.251E+02
   -.250E-02 -.558E-01 0.255E+04   -.406E-02 -.353E-10 -.260E+04   -.150E-01 0.163E-01 0.194E+02   0.606E-02 0.278E-01 0.252E+02
   -.322E-01 0.257E-01 0.255E+04   0.294E-01 -.348E-10 -.260E+04   -.796E-02 -.133E-01 0.194E+02   0.171E-02 -.109E-01 0.252E+02
   0.445E-01 0.448E-02 0.255E+04   -.956E-03 -.351E-10 -.260E+04   0.210E-01 -.237E-01 0.193E+02   -.332E-01 0.146E-02 0.251E+02
   0.437E-01 -.117E-01 0.255E+04   -.295E-01 -.349E-10 -.260E+04   -.145E-01 0.114E-01 0.193E+02   -.132E-01 0.851E-03 0.251E+02
   -.101E-01 -.225E+02 0.221E+04   -.195E-02 0.410E+02 -.222E+04   -.104E-01 -.433E+01 0.545E+01   0.766E-02 -.129E+02 0.971E+01
   -.286E-01 -.225E+02 0.221E+04   0.393E-03 0.410E+02 -.222E+04   -.860E-02 -.435E+01 0.540E+01   0.197E-01 -.129E+02 0.970E+01
   0.641E-01 -.225E+02 0.221E+04   -.102E-02 0.410E+02 -.222E+04   -.262E-01 -.433E+01 0.540E+01   -.298E-01 -.129E+02 0.971E+01
   0.228E-01 -.225E+02 0.221E+04   0.489E-02 0.410E+02 -.222E+04   -.328E-01 -.434E+01 0.538E+01   -.526E-02 -.129E+02 0.969E+01
   -.109E-01 0.225E+02 0.221E+04   -.195E-02 -.410E+02 -.222E+04   -.404E-02 0.438E+01 0.538E+01   0.137E-02 0.129E+02 0.969E+01
   0.215E-02 0.225E+02 0.221E+04   0.393E-03 -.410E+02 -.222E+04   -.347E-01 0.434E+01 0.539E+01   0.300E-02 0.129E+02 0.968E+01
   -.145E-01 0.226E+02 0.221E+04   -.102E-02 -.410E+02 -.222E+04   0.135E-01 0.427E+01 0.538E+01   0.822E-02 0.129E+02 0.968E+01
   0.383E-01 0.226E+02 0.221E+04   0.489E-02 -.410E+02 -.222E+04   -.398E-01 0.435E+01 0.539E+01   -.122E-01 0.129E+02 0.970E+01
   0.133E-01 0.330E-01 0.169E+04   0.131E-02 -.600E-10 -.170E+04   -.198E-01 -.272E-01 -.759E+00   -.448E-02 -.652E-02 0.518E+01
   -.192E-01 -.308E-01 0.169E+04   0.278E-01 -.598E-10 -.170E+04   -.107E-01 0.336E-01 -.715E+00   0.379E-02 0.112E-01 0.517E+01
   -.736E-03 -.227E-01 0.169E+04   -.158E-02 -.605E-10 -.170E+04   0.167E-02 0.106E-01 -.730E+00   -.525E-02 0.167E-01 0.518E+01
   0.297E-01 0.270E-01 0.169E+04   -.254E-01 -.607E-10 -.170E+04   0.868E-03 0.757E-02 -.719E+00   -.814E-02 -.173E-01 0.518E+01
   0.470E-03 -.543E-02 0.152E+04   0.508E-03 0.605E-10 -.151E+04   0.627E-02 -.196E-02 0.776E+00   0.581E-03 0.976E-02 -.162E+01
   -.334E-01 0.468E-01 0.152E+04   0.307E-01 0.607E-10 -.151E+04   -.479E-02 -.270E-01 0.717E+00   0.793E-02 -.204E-01 -.163E+01
   0.600E-01 0.129E-01 0.152E+04   -.168E-02 0.606E-10 -.151E+04   -.231E-01 -.113E-01 0.731E+00   -.241E-01 -.448E-02 -.163E+01
   -.370E-01 -.562E-01 0.152E+04   -.283E-01 0.613E-10 -.151E+04   0.623E-01 0.340E-01 0.746E+00   0.239E-01 0.254E-01 -.163E+01
   -.897E-03 -.350E+02 0.107E+04   -.210E-02 0.406E+02 -.107E+04   0.616E-02 -.348E+01 -.642E+00   0.562E-02 -.217E+01 -.154E+01
   -.751E-01 -.349E+02 0.107E+04   0.859E-03 0.406E+02 -.107E+04   0.209E-01 -.350E+01 -.665E+00   0.405E-01 -.216E+01 -.152E+01
   0.447E-01 -.349E+02 0.107E+04   -.154E-02 0.406E+02 -.107E+04   0.254E-01 -.350E+01 -.680E+00   -.452E-01 -.217E+01 -.155E+01
   -.224E-02 -.349E+02 0.107E+04   0.183E-02 0.406E+02 -.107E+04   0.324E-02 -.353E+01 -.654E+00   -.294E-03 -.218E+01 -.152E+01
   -.364E-01 0.349E+02 0.107E+04   -.210E-02 -.406E+02 -.107E+04   0.379E-01 0.349E+01 -.679E+00   0.123E-01 0.219E+01 -.154E+01
   0.336E-01 0.349E+02 0.107E+04   0.859E-03 -.406E+02 -.107E+04   -.771E-01 0.349E+01 -.654E+00   0.264E-02 0.217E+01 -.152E+01
   0.756E-02 0.350E+02 0.107E+04   -.154E-02 -.406E+02 -.107E+04   0.213E-01 0.347E+01 -.640E+00   -.216E-01 0.217E+01 -.154E+01
   0.233E-01 0.350E+02 0.107E+04   0.183E-02 -.406E+02 -.107E+04   0.251E-01 0.352E+01 -.703E+00   -.266E-01 0.216E+01 -.153E+01
   -.515E-01 -.156E-01 0.585E+03   -.834E-03 0.628E-10 -.573E+03   0.101E-01 -.190E-04 -.474E+01   0.280E-01 0.254E-02 -.564E+01
   -.454E-01 0.341E-02 0.585E+03   0.345E-01 0.624E-10 -.573E+03   0.644E-02 -.216E-02 -.484E+01   0.644E-02 -.329E-02 -.563E+01
   0.464E-01 0.116E-01 0.585E+03   -.188E-02 0.618E-10 -.573E+03   -.542E-03 0.775E-02 -.477E+01   -.362E-01 -.102E-01 -.567E+01
   -.158E-01 0.266E-02 0.585E+03   -.326E-01 0.624E-10 -.573E+03   0.447E-01 -.306E-02 -.475E+01   0.167E-01 0.171E-02 -.564E+01
   -.321E-01 0.321E-01 0.503E+03   0.145E-03 -.652E-10 -.516E+03   -.127E-01 -.548E-02 0.588E+01   0.191E-01 -.258E-01 0.612E+01
   -.491E-01 0.223E-01 0.502E+03   0.321E-01 -.653E-10 -.516E+03   -.144E-01 -.856E-02 0.599E+01   0.142E-01 -.156E-01 0.618E+01
   0.500E-01 -.307E-01 0.503E+03   -.187E-02 -.647E-10 -.516E+03   0.762E-02 -.118E-02 0.594E+01   -.303E-01 0.225E-01 0.611E+01
   -.134E-01 0.294E-01 0.503E+03   -.301E-01 -.655E-10 -.516E+03   0.192E-01 -.294E-01 0.593E+01   0.235E-01 -.730E-02 0.612E+01
   0.974E-02 -.672E+02 -.382E-01   -.213E-02 0.798E+02 -.425E-06   0.141E-01 -.450E+01 0.354E-02   -.144E-01 -.754E+01 0.186E-01
   0.380E-01 -.671E+02 0.333E-01   0.817E-03 0.798E+02 -.425E-06   -.966E-02 -.456E+01 -.206E-01   -.252E-01 -.757E+01 -.200E-01
   -.248E-01 -.672E+02 -.116E-02   -.166E-02 0.798E+02 -.425E-06   -.109E-03 -.450E+01 -.166E-01   0.903E-02 -.755E+01 0.885E-02
   0.141E-01 -.673E+02 -.411E-01   0.222E-02 0.798E+02 -.425E-06   0.265E-01 -.452E+01 0.433E-01   -.134E-01 -.752E+01 0.105E-01
   -.359E-01 0.672E+02 -.271E-02   -.213E-02 -.798E+02 -.425E-06   -.405E-01 0.455E+01 0.251E-01   0.619E-01 0.752E+01 -.645E-02
   0.187E-01 0.672E+02 -.428E-02   0.817E-03 -.798E+02 -.425E-06   -.105E+00 0.457E+01 0.141E-01   0.442E-01 0.752E+01 -.362E-02
   0.230E-02 0.673E+02 -.509E-01   -.166E-02 -.798E+02 -.425E-06   -.189E-02 0.447E+01 0.398E-01   -.149E-02 0.754E+01 0.223E-01
   0.703E-01 0.673E+02 -.741E-01   0.222E-02 -.798E+02 -.425E-06   -.374E-01 0.450E+01 0.851E-01   -.374E-01 0.749E+01 0.184E-01
   -.682E-01 0.147E-01 -.502E+03   0.145E-03 -.650E-10 0.516E+03   0.503E-01 0.325E-01 -.597E+01   0.211E-01 -.247E-01 -.614E+01
   -.529E-01 -.371E-01 -.503E+03   0.321E-01 -.659E-10 0.516E+03   0.163E-01 0.263E-01 -.588E+01   0.108E-01 0.649E-02 -.615E+01
   -.744E-02 -.151E-01 -.502E+03   -.187E-02 -.651E-10 0.516E+03   0.301E-01 -.303E-02 -.594E+01   -.594E-02 0.108E-01 -.615E+01
   0.541E-01 0.145E-01 -.503E+03   -.301E-01 -.646E-10 0.516E+03   -.322E-01 0.496E-03 -.592E+01   -.511E-02 -.416E-02 -.614E+01
   -.347E-01 -.264E-01 -.585E+03   -.834E-03 0.614E-10 0.573E+03   -.179E-02 0.166E-01 0.478E+01   0.175E-01 0.146E-01 0.566E+01
   -.114E+00 -.602E-02 -.585E+03   0.345E-01 0.616E-10 0.573E+03   0.314E-01 0.185E-01 0.482E+01   0.399E-01 0.121E-02 0.563E+01
   0.476E-01 -.119E-01 -.585E+03   -.188E-02 0.616E-10 0.573E+03   -.254E-01 0.403E-01 0.479E+01   -.215E-01 -.879E-03 0.565E+01
   0.402E-01 -.191E-01 -.585E+03   -.326E-01 0.620E-10 0.573E+03   -.151E-01 0.153E-01 0.480E+01   -.184E-02 0.927E-02 0.567E+01
   0.274E-01 -.349E+02 -.107E+04   -.210E-02 0.406E+02 0.107E+04   -.683E-02 -.349E+01 0.666E+00   -.209E-01 -.219E+01 0.153E+01
   -.266E-01 -.349E+02 -.107E+04   0.859E-03 0.406E+02 0.107E+04   0.378E-02 -.352E+01 0.694E+00   0.164E-01 -.218E+01 0.154E+01
   0.937E-02 -.349E+02 -.107E+04   -.154E-02 0.406E+02 0.107E+04   -.114E-01 -.353E+01 0.692E+00   0.822E-02 -.217E+01 0.153E+01
   -.398E-02 -.349E+02 -.107E+04   0.183E-02 0.406E+02 0.107E+04   0.121E-01 -.352E+01 0.667E+00   -.246E-02 -.218E+01 0.152E+01
   0.314E-01 0.350E+02 -.107E+04   -.210E-02 -.406E+02 0.107E+04   0.865E-02 0.353E+01 0.673E+00   -.321E-01 0.216E+01 0.151E+01
   0.231E-01 0.350E+02 -.107E+04   0.859E-03 -.406E+02 0.107E+04   -.161E-01 0.349E+01 0.658E+00   -.461E-02 0.215E+01 0.152E+01
   -.793E-01 0.350E+02 -.107E+04   -.154E-02 -.406E+02 0.107E+04   0.355E-02 0.351E+01 0.674E+00   0.422E-01 0.216E+01 0.151E+01
   -.568E-01 0.349E+02 -.107E+04   0.183E-02 -.406E+02 0.107E+04   0.342E-01 0.354E+01 0.660E+00   0.207E-01 0.216E+01 0.154E+01
   -.750E-02 -.520E-01 -.152E+04   0.508E-03 0.611E-10 0.151E+04   -.108E-01 0.246E-01 -.739E+00   -.172E-02 0.240E-01 0.160E+01
   -.580E-01 0.406E-02 -.152E+04   0.307E-01 0.612E-10 0.151E+04   0.233E-01 -.243E-01 -.791E+00   0.846E-02 0.163E-03 0.162E+01
   0.194E-02 -.446E-01 -.152E+04   -.168E-02 0.604E-10 0.151E+04   0.270E-01 0.500E-01 -.746E+00   -.540E-02 0.107E-01 0.161E+01
   0.598E-02 -.294E-01 -.152E+04   -.283E-01 0.605E-10 0.151E+04   -.811E-02 0.135E-01 -.711E+00   0.141E-01 0.195E-01 0.160E+01
   -.149E-01 0.105E-01 -.169E+04   0.131E-02 -.607E-10 0.170E+04   0.222E-01 -.103E-02 0.691E+00   -.708E-02 -.452E-02 -.519E+01
   -.655E-01 0.130E-01 -.169E+04   0.278E-01 -.603E-10 0.170E+04   0.697E-02 -.204E-01 0.731E+00   0.288E-01 -.699E-02 -.516E+01
   -.278E-02 -.373E-01 -.169E+04   -.158E-02 -.605E-10 0.170E+04   0.213E-01 0.285E-01 0.735E+00   0.799E-04 0.151E-01 -.515E+01
   0.184E-03 -.278E-01 -.169E+04   -.254E-01 -.606E-10 0.170E+04   0.188E-01 0.299E-01 0.749E+00   0.823E-02 0.924E-02 -.518E+01
   0.234E-02 -.225E+02 -.221E+04   -.195E-02 0.410E+02 0.222E+04   -.134E-01 -.430E+01 -.541E+01   0.605E-02 -.129E+02 -.968E+01
   -.281E-01 -.225E+02 -.221E+04   0.393E-03 0.410E+02 0.222E+04   0.582E-01 -.431E+01 -.539E+01   0.410E-02 -.129E+02 -.970E+01
   -.174E-01 -.225E+02 -.221E+04   -.102E-02 0.410E+02 0.222E+04   0.271E-01 -.430E+01 -.542E+01   -.563E-02 -.129E+02 -.969E+01
   -.255E-02 -.226E+02 -.221E+04   0.489E-02 0.410E+02 0.222E+04   -.887E-02 -.430E+01 -.539E+01   -.740E-03 -.129E+02 -.970E+01
   0.330E-01 0.225E+02 -.221E+04   -.195E-02 -.410E+02 0.222E+04   -.286E-01 0.432E+01 -.539E+01   -.170E-01 0.129E+02 -.969E+01
   -.955E-02 0.225E+02 -.221E+04   0.393E-03 -.410E+02 0.222E+04   -.354E-01 0.430E+01 -.542E+01   0.168E-01 0.129E+02 -.969E+01
   -.832E-03 0.225E+02 -.221E+04   -.102E-02 -.410E+02 0.222E+04   -.365E-01 0.431E+01 -.540E+01   0.165E-01 0.129E+02 -.969E+01
   0.413E-01 0.225E+02 -.221E+04   0.489E-02 -.410E+02 0.222E+04   0.695E-02 0.432E+01 -.537E+01   -.325E-01 0.129E+02 -.969E+01
   -.251E-01 0.194E-02 -.255E+04   -.406E-02 -.354E-10 0.260E+04   0.473E-02 0.147E-01 -.194E+02   0.336E-02 -.252E-02 -.252E+02
   -.429E-01 0.187E-01 -.255E+04   0.294E-01 -.342E-10 0.260E+04   0.268E-02 -.274E-01 -.194E+02   0.145E-01 -.638E-02 -.251E+02
   -.242E-01 -.719E-02 -.255E+04   -.956E-03 -.348E-10 0.260E+04   0.398E-01 0.220E-01 -.194E+02   0.124E-01 -.194E-02 -.251E+02
   0.573E-01 -.492E-01 -.255E+04   -.295E-01 -.348E-10 0.260E+04   -.937E-03 0.198E-01 -.193E+02   -.226E-01 0.219E-01 -.251E+02
   -.434E-03 0.320E-02 0.255E+04   -.713E-03 -.348E-10 -.260E+04   -.170E-01 -.373E-02 0.194E+02   0.255E-02 -.553E-03 0.251E+02
   0.386E-01 0.233E-01 0.255E+04   -.251E-01 -.348E-10 -.260E+04   -.194E-01 0.379E-02 0.193E+02   -.189E-02 -.142E-01 0.251E+02
   -.800E-02 0.169E-01 0.255E+04   -.717E-03 -.349E-10 -.260E+04   0.543E-02 -.225E-01 0.194E+02   0.129E-01 -.241E-02 0.251E+02
   0.141E-01 0.549E-01 0.255E+04   -.215E-01 -.353E-10 -.260E+04   -.341E-01 -.620E-01 0.194E+02   0.937E-02 -.946E-02 0.252E+02
   0.303E-02 -.225E+02 0.221E+04   -.886E-03 0.410E+02 -.222E+04   0.439E-01 -.436E+01 0.540E+01   -.155E-01 -.129E+02 0.967E+01
   0.313E-01 -.225E+02 0.221E+04   0.974E-02 0.410E+02 -.222E+04   -.198E-01 -.433E+01 0.541E+01   -.286E-01 -.129E+02 0.969E+01
   -.537E-02 -.225E+02 0.221E+04   -.908E-03 0.410E+02 -.222E+04   -.204E-01 -.435E+01 0.538E+01   0.158E-01 -.129E+02 0.970E+01
   -.344E-01 -.225E+02 0.221E+04   0.139E-01 0.410E+02 -.222E+04   0.212E-01 -.436E+01 0.537E+01   0.398E-02 -.129E+02 0.969E+01
   0.152E-03 0.225E+02 0.221E+04   -.886E-03 -.410E+02 -.222E+04   -.667E-02 0.428E+01 0.538E+01   0.299E-02 0.129E+02 0.968E+01
   -.380E-01 0.226E+02 0.221E+04   0.974E-02 -.410E+02 -.222E+04   0.502E-02 0.430E+01 0.541E+01   0.207E-01 0.129E+02 0.970E+01
   0.410E-01 0.226E+02 0.221E+04   -.908E-03 -.410E+02 -.222E+04   -.206E-02 0.431E+01 0.538E+01   -.333E-01 0.129E+02 0.968E+01
   0.382E-01 0.225E+02 0.221E+04   0.139E-01 -.410E+02 -.222E+04   0.991E-02 0.434E+01 0.537E+01   -.330E-01 0.129E+02 0.967E+01
   0.529E-01 0.457E-01 0.169E+04   -.117E-02 -.607E-10 -.170E+04   -.835E-02 -.541E-01 -.704E+00   -.334E-01 -.125E-01 0.517E+01
   0.275E-01 0.104E-01 0.169E+04   -.180E-01 -.606E-10 -.170E+04   -.185E-01 0.874E-03 -.741E+00   -.640E-02 -.569E-02 0.518E+01
   -.233E-02 0.485E-01 0.169E+04   -.107E-02 -.608E-10 -.170E+04   0.734E-02 -.471E-01 -.728E+00   0.124E-01 -.128E-01 0.516E+01
   0.350E-01 -.779E-03 0.169E+04   -.129E-01 -.608E-10 -.170E+04   -.247E-01 -.419E-02 -.706E+00   -.528E-02 0.468E-02 0.519E+01
   -.164E-01 0.565E-01 0.152E+04   -.126E-02 0.609E-10 -.151E+04   -.571E-02 -.249E-01 0.780E+00   0.535E-02 -.310E-01 -.163E+01
   -.104E-02 -.343E-01 0.152E+04   -.209E-01 0.616E-10 -.151E+04   0.164E-01 0.155E-01 0.731E+00   0.479E-02 0.205E-01 -.163E+01
   0.226E-01 0.117E-01 0.152E+04   -.114E-02 0.606E-10 -.151E+04   -.497E-01 -.125E-01 0.748E+00   0.717E-02 -.417E-02 -.161E+01
   -.352E-01 0.216E-01 0.152E+04   -.155E-01 0.607E-10 -.151E+04   0.423E-01 0.252E-02 0.690E+00   0.172E-01 -.116E-01 -.160E+01
   -.113E-01 -.349E+02 0.107E+04   -.129E-02 0.406E+02 -.107E+04   -.161E-01 -.356E+01 -.653E+00   0.142E-01 -.217E+01 -.152E+01
   0.187E-01 -.349E+02 0.107E+04   0.810E-02 0.406E+02 -.107E+04   0.172E-01 -.352E+01 -.650E+00   -.206E-01 -.217E+01 -.152E+01
   0.150E-01 -.349E+02 0.107E+04   -.126E-02 0.406E+02 -.107E+04   0.290E-01 -.351E+01 -.673E+00   -.134E-01 -.217E+01 -.155E+01
   -.252E-01 -.349E+02 0.107E+04   0.135E-01 0.406E+02 -.107E+04   0.140E-01 -.350E+01 -.663E+00   0.320E-02 -.217E+01 -.153E+01
   0.454E-01 0.350E+02 0.107E+04   -.129E-02 -.406E+02 -.107E+04   -.235E-01 0.355E+01 -.662E+00   -.121E-01 0.215E+01 -.153E+01
   -.533E-01 0.349E+02 0.107E+04   0.810E-02 -.406E+02 -.107E+04   0.148E-01 0.350E+01 -.647E+00   0.192E-01 0.218E+01 -.151E+01
   -.735E-02 0.349E+02 0.107E+04   -.126E-02 -.406E+02 -.107E+04   0.957E-02 0.350E+01 -.646E+00   0.154E-02 0.216E+01 -.153E+01
   -.173E-01 0.349E+02 0.107E+04   0.135E-01 -.406E+02 -.107E+04   -.151E-01 0.357E+01 -.637E+00   -.202E-02 0.217E+01 -.151E+01
   -.146E-01 0.126E-02 0.585E+03   -.147E-02 0.622E-10 -.573E+03   0.181E-01 0.417E-01 -.479E+01   0.790E-02 -.820E-02 -.566E+01
   0.750E-01 -.132E-01 0.585E+03   -.258E-01 0.618E-10 -.573E+03   0.938E-02 -.666E-02 -.480E+01   -.326E-01 0.794E-02 -.564E+01
   -.240E-01 -.280E-01 0.585E+03   -.131E-02 0.626E-10 -.573E+03   -.179E-01 0.160E-01 -.476E+01   0.225E-01 0.112E-01 -.567E+01
   0.296E-01 -.345E-01 0.585E+03   -.199E-01 0.611E-10 -.573E+03   -.250E-01 0.349E-01 -.480E+01   0.261E-02 0.136E-01 -.567E+01
   -.800E-02 0.849E-02 0.502E+03   -.149E-02 -.655E-10 -.516E+03   -.389E-02 -.333E-02 0.595E+01   0.992E-02 0.263E-02 0.616E+01
   0.439E-01 -.781E-02 0.502E+03   -.236E-01 -.659E-10 -.516E+03   0.194E-01 0.120E-01 0.590E+01   -.269E-01 0.846E-02 0.616E+01
   -.322E-01 -.388E-01 0.503E+03   -.133E-02 -.651E-10 -.516E+03   0.245E-01 0.238E-02 0.592E+01   0.135E-01 0.212E-01 0.614E+01
   -.943E-02 -.614E-01 0.502E+03   -.177E-01 -.650E-10 -.516E+03   0.493E-02 0.335E-01 0.596E+01   0.149E-01 0.260E-01 0.615E+01
   -.442E-02 -.672E+02 0.134E-01   -.141E-02 0.798E+02 -.425E-06   0.142E-01 -.452E+01 -.355E-02   0.213E-02 -.754E+01 -.955E-04
   -.412E-02 -.672E+02 0.292E-01   0.852E-02 0.798E+02 -.425E-06   0.551E-02 -.454E+01 -.574E-01   -.816E-02 -.754E+01 0.121E-02
   -.793E-02 -.672E+02 -.149E-01   -.133E-02 0.798E+02 -.425E-06   -.165E-01 -.450E+01 0.354E-02   0.129E-01 -.753E+01 0.954E-02
   -.231E-01 -.672E+02 -.741E-02   0.143E-01 0.798E+02 -.425E-06   0.632E-02 -.452E+01 0.137E-01   0.244E-02 -.753E+01 0.291E-02
   -.211E-01 0.672E+02 0.266E-01   -.141E-02 -.798E+02 -.425E-06   0.127E-01 0.451E+01 -.370E-01   0.128E-01 0.756E+01 0.795E-03
   0.694E-01 0.672E+02 -.127E-01   0.852E-02 -.798E+02 -.425E-06   -.297E-01 0.453E+01 0.155E-02   -.353E-01 0.754E+01 0.462E-02
   0.177E-02 0.672E+02 -.154E-01   -.133E-02 -.798E+02 -.425E-06   -.243E-01 0.449E+01 -.923E-02   0.729E-02 0.756E+01 0.174E-01
   -.432E-01 0.673E+02 0.432E-01   0.143E-01 -.798E+02 -.425E-06   0.455E-01 0.448E+01 -.280E-01   0.503E-02 0.751E+01 -.155E-01
   0.278E-01 -.215E-01 -.502E+03   -.149E-02 -.645E-10 0.516E+03   -.472E-01 -.120E-01 -.596E+01   -.378E-03 0.197E-01 -.614E+01
   -.202E-02 0.274E-01 -.502E+03   -.236E-01 -.652E-10 0.516E+03   0.133E-01 -.189E-02 -.596E+01   0.716E-02 -.134E-01 -.617E+01
   0.401E-01 -.323E-01 -.502E+03   -.133E-02 -.652E-10 0.516E+03   -.163E-01 -.657E-02 -.594E+01   -.191E-01 0.254E-01 -.614E+01
   0.594E-01 0.575E-02 -.503E+03   -.177E-01 -.650E-10 0.516E+03   -.302E-01 -.142E-01 -.594E+01   -.199E-01 -.279E-02 -.613E+01
   0.373E-01 0.843E-01 -.585E+03   -.147E-02 0.620E-10 0.573E+03   -.355E-01 -.475E-01 0.482E+01   -.234E-01 -.351E-01 0.567E+01
   0.546E-01 0.500E-01 -.585E+03   -.258E-01 0.617E-10 0.573E+03   0.837E-03 -.511E-01 0.481E+01   -.167E-01 -.148E-01 0.566E+01
   0.299E-01 -.252E-01 -.585E+03   -.131E-02 0.609E-10 0.573E+03   -.378E-01 0.428E-01 0.483E+01   -.671E-03 0.512E-02 0.564E+01
   0.211E-02 -.333E-01 -.585E+03   -.199E-01 0.618E-10 0.573E+03   0.234E-01 0.273E-01 0.475E+01   0.174E-03 0.829E-02 0.565E+01
   -.240E-01 -.349E+02 -.107E+04   -.129E-02 0.406E+02 0.107E+04   -.533E-02 -.352E+01 0.645E+00   0.163E-01 -.216E+01 0.152E+01
   0.259E-01 -.350E+02 -.107E+04   0.810E-02 0.406E+02 0.107E+04   -.769E-02 -.353E+01 0.617E+00   -.189E-01 -.216E+01 0.152E+01
   0.274E-01 -.350E+02 -.107E+04   -.126E-02 0.406E+02 0.107E+04   -.130E-01 -.350E+01 0.649E+00   -.790E-02 -.215E+01 0.151E+01
   0.177E-01 -.349E+02 -.107E+04   0.135E-01 0.406E+02 0.107E+04   -.608E-01 -.358E+01 0.624E+00   -.296E-02 -.218E+01 0.151E+01
   -.701E-02 0.349E+02 -.107E+04   -.129E-02 -.406E+02 0.107E+04   0.115E-01 0.351E+01 0.658E+00   0.201E-02 0.220E+01 0.152E+01
   0.159E-01 0.350E+02 -.107E+04   0.810E-02 -.406E+02 0.107E+04   -.136E-01 0.350E+01 0.696E+00   -.107E-01 0.213E+01 0.152E+01
   -.517E-01 0.350E+02 -.107E+04   -.126E-02 -.406E+02 0.107E+04   0.418E-02 0.351E+01 0.624E+00   0.340E-01 0.216E+01 0.150E+01
   0.939E-02 0.350E+02 -.107E+04   0.135E-01 -.406E+02 0.107E+04   -.457E-02 0.351E+01 0.682E+00   -.100E-01 0.215E+01 0.154E+01
   0.146E-01 -.426E-01 -.152E+04   -.126E-02 0.607E-10 0.151E+04   0.369E-02 0.349E-01 -.743E+00   -.692E-02 0.113E-01 0.160E+01
   0.734E-02 0.873E-02 -.152E+04   -.209E-01 0.604E-10 0.151E+04   -.352E-02 0.146E-01 -.696E+00   0.530E-02 -.719E-02 0.160E+01
   -.250E-01 -.258E-01 -.152E+04   -.114E-02 0.609E-10 0.151E+04   0.518E-02 0.682E-02 -.726E+00   0.195E-01 0.142E-01 0.166E+01
   0.360E-01 -.404E-01 -.152E+04   -.155E-01 0.607E-10 0.151E+04   -.186E-01 -.172E-02 -.733E+00   -.396E-02 0.192E-01 0.161E+01
   0.441E-02 0.308E-01 -.169E+04   -.117E-02 -.609E-10 0.170E+04   -.657E-02 -.659E-01 0.728E+00   0.382E-02 0.252E-03 -.515E+01
   -.237E-01 -.509E-01 -.169E+04   -.180E-01 -.603E-10 0.170E+04   0.345E-01 0.359E-01 0.730E+00   0.117E-01 0.173E-01 -.519E+01
   0.296E-02 0.217E-01 -.169E+04   -.107E-02 -.609E-10 0.170E+04   -.121E-01 -.833E-02 0.708E+00   0.318E-02 -.570E-03 -.517E+01
   0.699E-02 -.653E-02 -.169E+04   -.129E-01 -.604E-10 0.170E+04   0.266E-02 0.304E-01 0.724E+00   -.180E-04 -.345E-02 -.516E+01
   0.380E-02 -.226E+02 -.221E+04   -.886E-03 0.410E+02 0.222E+04   0.168E-01 -.431E+01 -.539E+01   0.200E-02 -.128E+02 -.969E+01
   -.843E-02 -.226E+02 -.221E+04   0.974E-02 0.410E+02 0.222E+04   0.639E-03 -.432E+01 -.540E+01   0.515E-02 -.129E+02 -.969E+01
   -.120E-01 -.225E+02 -.221E+04   -.908E-03 0.410E+02 0.222E+04   -.203E-01 -.434E+01 -.536E+01   0.200E-01 -.129E+02 -.968E+01
   0.403E-01 -.225E+02 -.221E+04   0.139E-01 0.410E+02 0.222E+04   0.277E-01 -.436E+01 -.540E+01   -.341E-01 -.129E+02 -.971E+01
   0.177E-01 0.225E+02 -.221E+04   -.886E-03 -.410E+02 0.222E+04   0.175E-01 0.434E+01 -.540E+01   -.175E-01 0.129E+02 -.971E+01
   -.311E-01 0.226E+02 -.221E+04   0.974E-02 -.410E+02 0.222E+04   0.350E-01 0.430E+01 -.538E+01   0.175E-01 0.129E+02 -.970E+01
   -.331E-02 0.225E+02 -.221E+04   -.908E-03 -.410E+02 0.222E+04   -.219E-01 0.436E+01 -.540E+01   0.124E-01 0.129E+02 -.971E+01
   0.916E-04 0.225E+02 -.221E+04   0.139E-01 -.410E+02 0.222E+04   0.230E-01 0.430E+01 -.536E+01   -.118E-01 0.129E+02 -.970E+01
   -.353E-01 -.549E-02 -.255E+04   -.713E-03 -.348E-10 0.260E+04   -.559E-02 0.444E-02 -.194E+02   0.168E-01 0.591E-02 -.251E+02
   0.399E-02 -.126E-01 -.255E+04   -.251E-01 -.349E-10 0.260E+04   -.113E-01 0.845E-02 -.194E+02   0.126E-01 -.158E-02 -.252E+02
   0.269E-01 -.361E-01 -.255E+04   -.717E-03 -.349E-10 0.260E+04   -.487E-02 0.308E-01 -.194E+02   -.717E-02 0.141E-01 -.251E+02
   0.506E-02 -.257E-01 -.255E+04   -.215E-01 -.352E-10 0.260E+04   0.163E-01 0.403E-01 -.194E+02   0.565E-02 0.194E-02 -.251E+02
   -.110E-01 -.174E-01 0.255E+04   -.747E-03 -.352E-10 -.260E+04   0.383E-02 0.314E-01 0.194E+02   0.560E-04 -.288E-02 0.251E+02
   0.374E-01 -.191E-01 0.255E+04   -.179E-01 -.355E-10 -.260E+04   -.537E-01 0.187E-01 0.194E+02   -.628E-04 0.127E-01 0.251E+02
   -.499E-02 0.728E-03 0.255E+04   -.119E-02 -.350E-10 -.260E+04   0.214E-01 0.226E-02 0.194E+02   0.661E-02 -.724E-02 0.251E+02
   0.580E-01 0.148E-02 0.255E+04   -.141E-01 -.351E-10 -.260E+04   -.494E-01 -.186E-01 0.193E+02   -.992E-02 0.596E-02 0.251E+02
   0.191E-01 -.226E+02 0.221E+04   -.119E-02 0.410E+02 -.222E+04   -.447E-02 -.429E+01 0.536E+01   -.133E-01 -.129E+02 0.967E+01
   0.812E-03 -.225E+02 0.221E+04   0.181E-01 0.410E+02 -.222E+04   -.336E-01 -.435E+01 0.538E+01   0.494E-03 -.129E+02 0.967E+01
   -.183E-02 -.226E+02 0.221E+04   -.764E-03 0.410E+02 -.222E+04   -.318E-02 -.430E+01 0.543E+01   0.610E-02 -.129E+02 0.970E+01
   -.223E-01 -.226E+02 0.221E+04   0.234E-01 0.410E+02 -.222E+04   0.514E-02 -.434E+01 0.537E+01   0.448E-02 -.129E+02 0.969E+01
   0.276E-01 0.225E+02 0.221E+04   -.119E-02 -.410E+02 -.222E+04   -.334E-01 0.430E+01 0.537E+01   -.403E-02 0.129E+02 0.970E+01
   -.258E-01 0.225E+02 0.221E+04   0.181E-01 -.410E+02 -.222E+04   0.162E-01 0.432E+01 0.540E+01   0.631E-02 0.129E+02 0.969E+01
   -.154E-01 0.225E+02 0.221E+04   -.764E-03 -.410E+02 -.222E+04   -.284E-01 0.430E+01 0.538E+01   0.184E-01 0.129E+02 0.970E+01
   -.267E-01 0.225E+02 0.221E+04   0.234E-01 -.410E+02 -.222E+04   0.658E-02 0.438E+01 0.541E+01   -.768E-03 0.129E+02 0.969E+01
   -.685E-02 0.267E-01 0.169E+04   -.120E-02 -.606E-10 -.170E+04   0.435E-01 -.124E-01 -.743E+00   -.551E-02 -.156E-01 0.517E+01
   0.741E-02 -.135E-01 0.169E+04   -.814E-02 -.607E-10 -.170E+04   0.180E-02 -.162E-01 -.768E+00   0.184E-03 0.127E-01 0.516E+01
   -.476E-01 0.532E-01 0.169E+04   -.204E-02 -.608E-10 -.170E+04   0.336E-01 -.292E-01 -.723E+00   0.244E-01 -.202E-01 0.519E+01
   -.149E-01 -.413E-01 0.169E+04   -.308E-02 -.604E-10 -.170E+04   -.133E-01 0.251E-01 -.730E+00   0.161E-01 0.215E-01 0.517E+01
   0.681E-03 0.337E-01 0.152E+04   -.126E-02 0.615E-10 -.151E+04   -.301E-01 -.151E-02 0.770E+00   0.570E-02 -.212E-01 -.164E+01
   0.127E-01 -.470E-01 0.152E+04   -.105E-01 0.611E-10 -.151E+04   -.189E-02 0.735E-01 0.730E+00   -.487E-02 0.105E-01 -.163E+01
   0.121E-01 0.265E-01 0.152E+04   -.197E-02 0.607E-10 -.151E+04   0.196E-01 -.278E-01 0.715E+00   -.164E-01 -.133E-01 -.160E+01
   0.417E-02 -.463E-01 0.152E+04   -.519E-02 0.608E-10 -.151E+04   0.673E-02 0.137E-01 0.747E+00   0.257E-02 0.156E-01 -.163E+01
   0.281E-01 -.349E+02 0.107E+04   -.145E-02 0.406E+02 -.107E+04   -.151E-01 -.355E+01 -.672E+00   -.431E-02 -.216E+01 -.153E+01
   0.103E-01 -.349E+02 0.107E+04   0.189E-01 0.406E+02 -.107E+04   -.290E-01 -.352E+01 -.641E+00   -.133E-01 -.218E+01 -.153E+01
   0.389E-01 -.350E+02 0.107E+04   0.154E-02 0.406E+02 -.107E+04   -.121E-01 -.356E+01 -.632E+00   -.231E-01 -.215E+01 -.151E+01
   -.771E-01 -.349E+02 0.107E+04   0.252E-01 0.406E+02 -.107E+04   0.809E-02 -.355E+01 -.638E+00   0.329E-01 -.219E+01 -.156E+01
   0.333E-01 0.350E+02 0.107E+04   -.145E-02 -.406E+02 -.107E+04   -.306E-01 0.348E+01 -.686E+00   -.516E-02 0.214E+01 -.154E+01
   0.968E-02 0.349E+02 0.107E+04   0.189E-01 -.406E+02 -.107E+04   0.271E-02 0.352E+01 -.664E+00   -.162E-01 0.218E+01 -.153E+01
   -.144E-01 0.350E+02 0.107E+04   0.154E-02 -.406E+02 -.107E+04   0.448E-01 0.354E+01 -.687E+00   -.251E-03 0.216E+01 -.152E+01
   -.107E-01 0.350E+02 0.107E+04   0.252E-01 -.406E+02 -.107E+04   -.503E-01 0.345E+01 -.635E+00   0.804E-02 0.216E+01 -.151E+01
   -.321E-01 -.310E-01 0.585E+03   -.133E-02 0.621E-10 -.573E+03   -.102E-02 0.318E-01 -.479E+01   0.220E-01 0.592E-02 -.566E+01
   0.533E-01 0.831E-02 0.585E+03   -.144E-01 0.620E-10 -.573E+03   -.700E-02 -.569E-02 -.475E+01   -.175E-01 -.337E-02 -.564E+01
   -.994E-02 -.592E-01 0.585E+03   -.146E-02 0.614E-10 -.573E+03   0.307E-01 0.604E-01 -.477E+01   0.523E-02 0.197E-01 -.564E+01
   -.690E-02 0.151E-01 0.585E+03   -.853E-02 0.621E-10 -.573E+03   0.170E-01 -.704E-02 -.479E+01   0.962E-02 -.136E-01 -.564E+01
   -.623E-02 -.339E-01 0.502E+03   -.132E-02 -.650E-10 -.516E+03   -.407E-01 0.147E-01 0.595E+01   0.218E-01 0.159E-01 0.616E+01
   -.187E-01 0.103E+00 0.503E+03   -.121E-01 -.650E-10 -.516E+03   0.544E-01 -.884E-01 0.588E+01   0.639E-03 -.348E-01 0.614E+01
   0.125E-01 0.195E-01 0.502E+03   -.132E-02 -.657E-10 -.516E+03   -.415E-01 -.208E-01 0.592E+01   0.143E-02 -.988E-02 0.617E+01
   -.229E-01 -.367E-01 0.502E+03   -.618E-02 -.650E-10 -.516E+03   0.230E-01 0.363E-01 0.593E+01   0.136E-01 0.116E-01 0.616E+01
   0.128E-01 -.672E+02 -.332E-01   -.136E-02 0.798E+02 -.425E-06   -.116E-01 -.450E+01 0.101E-01   0.246E-02 -.753E+01 0.194E-01
   -.193E-01 -.673E+02 -.234E-01   0.200E-01 0.798E+02 -.425E-06   0.212E-01 -.450E+01 -.254E-01   -.419E-02 -.753E+01 0.195E-01
   -.332E-01 -.672E+02 -.431E-02   0.139E-02 0.798E+02 -.425E-06   0.204E-01 -.455E+01 0.273E-01   0.177E-01 -.756E+01 -.216E-02
   -.533E-01 -.673E+02 -.271E-01   0.265E-01 0.798E+02 -.425E-06   -.141E-02 -.451E+01 0.304E-01   0.185E-01 -.752E+01 0.149E-01
   0.767E-02 0.672E+02 -.171E-01   -.136E-02 -.798E+02 -.425E-06   0.277E-01 0.451E+01 -.115E-01   -.110E-01 0.755E+01 0.824E-02
   -.169E-01 0.672E+02 0.519E-01   0.200E-01 -.798E+02 -.425E-06   -.103E-03 0.458E+01 -.446E-01   -.462E-02 0.753E+01 -.181E-01
   0.354E-01 0.672E+02 0.470E-01   0.139E-02 -.798E+02 -.425E-06   0.345E-01 0.456E+01 0.173E-02   -.563E-01 0.751E+01 -.258E-01
   -.186E-01 0.672E+02 0.254E-01   0.265E-01 -.798E+02 -.425E-06   0.689E-01 0.459E+01 -.194E-01   -.488E-01 0.751E+01 -.103E-01
   -.734E-02 -.794E-02 -.503E+03   -.132E-02 -.648E-10 0.516E+03   -.143E-01 -.602E-03 -.593E+01   0.172E-01 0.896E-02 -.613E+01
   -.985E-02 -.740E-02 -.502E+03   -.121E-01 -.653E-10 0.516E+03   0.105E-01 0.486E-02 -.597E+01   0.924E-02 0.503E-02 -.616E+01
   0.179E-01 -.719E-02 -.502E+03   -.132E-02 -.655E-10 0.516E+03   0.201E-02 0.296E-01 -.595E+01   -.137E-01 -.651E-02 -.615E+01
   0.323E-01 0.173E-01 -.502E+03   -.618E-02 -.649E-10 0.516E+03   -.545E-01 0.836E-03 -.593E+01   -.506E-02 -.139E-01 -.614E+01
   -.540E-02 -.287E-01 -.585E+03   -.133E-02 0.616E-10 0.573E+03   0.183E-02 -.742E-02 0.476E+01   0.979E-02 0.168E-01 0.564E+01
   0.136E-01 -.120E-01 -.585E+03   -.144E-01 0.615E-10 0.573E+03   0.520E-02 0.989E-02 0.479E+01   0.171E-02 -.105E-02 0.566E+01
   -.710E-02 0.219E-01 -.585E+03   -.146E-02 0.627E-10 0.573E+03   0.187E-01 -.403E-01 0.485E+01   -.316E-02 -.960E-03 0.565E+01
   0.319E-01 0.575E-01 -.585E+03   -.853E-02 0.618E-10 0.573E+03   -.384E-01 -.489E-01 0.477E+01   -.196E-02 -.184E-01 0.565E+01
   -.985E-02 -.350E+02 -.107E+04   -.145E-02 0.406E+02 0.107E+04   0.167E-01 -.347E+01 0.624E+00   0.801E-04 -.218E+01 0.151E+01
   0.121E-01 -.349E+02 -.107E+04   0.189E-01 0.406E+02 0.107E+04   -.379E-01 -.351E+01 0.637E+00   -.853E-02 -.219E+01 0.154E+01
   0.190E-01 -.349E+02 -.107E+04   0.154E-02 0.406E+02 0.107E+04   -.286E-01 -.353E+01 0.701E+00   -.898E-02 -.217E+01 0.152E+01
   -.245E-01 -.349E+02 -.107E+04   0.252E-01 0.406E+02 0.107E+04   0.617E-03 -.353E+01 0.626E+00   -.661E-02 -.218E+01 0.152E+01
   0.260E-01 0.349E+02 -.107E+04   -.145E-02 -.406E+02 0.107E+04   -.474E-01 0.355E+01 0.627E+00   -.326E-02 0.219E+01 0.150E+01
   0.259E-01 0.349E+02 -.107E+04   0.189E-01 -.406E+02 0.107E+04   -.399E-01 0.352E+01 0.620E+00   -.121E-01 0.217E+01 0.150E+01
   0.125E-01 0.349E+02 -.107E+04   0.154E-02 -.406E+02 0.107E+04   -.166E-01 0.352E+01 0.675E+00   -.757E-02 0.218E+01 0.151E+01
   0.190E-01 0.350E+02 -.107E+04   0.252E-01 -.406E+02 0.107E+04   -.258E-01 0.347E+01 0.670E+00   -.171E-01 0.216E+01 0.152E+01
   0.127E-01 0.129E-01 -.152E+04   -.126E-02 0.609E-10 0.151E+04   -.854E-03 0.313E-02 -.709E+00   -.395E-02 -.333E-02 0.165E+01
   -.256E-03 -.581E-01 -.152E+04   -.105E-01 0.609E-10 0.151E+04   -.797E-02 0.263E-01 -.701E+00   0.712E-02 0.240E-01 0.161E+01
   0.346E-01 -.427E-01 -.152E+04   -.197E-02 0.607E-10 0.151E+04   -.313E-01 0.407E-01 -.740E+00   -.139E-01 0.115E-01 0.163E+01
   -.162E-01 0.443E-01 -.152E+04   -.519E-02 0.611E-10 0.151E+04   0.116E-03 0.709E-02 -.727E+00   0.112E-01 -.214E-01 0.162E+01
   0.203E-01 0.566E-01 -.169E+04   -.120E-02 -.606E-10 0.170E+04   -.499E-03 -.391E-01 0.744E+00   -.136E-01 -.208E-01 -.518E+01
   -.340E-01 -.493E-02 -.169E+04   -.814E-02 -.605E-10 0.170E+04   0.237E-02 0.686E-02 0.688E+00   0.366E-01 0.370E-02 -.516E+01
   0.371E-01 0.361E-01 -.169E+04   -.204E-02 -.608E-10 0.170E+04   -.168E-01 0.165E-01 0.716E+00   -.203E-01 -.223E-01 -.519E+01
   0.104E-01 -.371E-01 -.169E+04   -.308E-02 -.600E-10 0.170E+04   -.266E-02 0.331E-01 0.730E+00   -.125E-01 0.138E-01 -.515E+01
   0.140E-02 -.225E+02 -.221E+04   -.119E-02 0.410E+02 0.222E+04   -.189E-02 -.433E+01 -.537E+01   -.148E-02 -.129E+02 -.969E+01
   -.112E+00 -.226E+02 -.221E+04   0.181E-01 0.410E+02 0.222E+04   0.719E-01 -.433E+01 -.539E+01   0.394E-01 -.129E+02 -.970E+01
   0.288E-02 -.225E+02 -.221E+04   -.764E-03 0.410E+02 0.222E+04   0.124E-01 -.434E+01 -.543E+01   -.977E-02 -.129E+02 -.969E+01
   0.206E-02 -.226E+02 -.221E+04   0.234E-01 0.410E+02 0.222E+04   0.297E-01 -.428E+01 -.537E+01   -.217E-01 -.129E+02 -.968E+01
   0.402E-01 0.225E+02 -.221E+04   -.119E-02 -.410E+02 0.222E+04   -.320E-01 0.434E+01 -.542E+01   -.218E-01 0.129E+02 -.971E+01
   -.216E-01 0.226E+02 -.221E+04   0.181E-01 -.410E+02 0.222E+04   0.158E-02 0.431E+01 -.540E+01   -.103E-02 0.129E+02 -.971E+01
   -.726E-02 0.225E+02 -.221E+04   -.764E-03 -.410E+02 0.222E+04   0.248E-01 0.430E+01 -.542E+01   -.711E-02 0.129E+02 -.969E+01
   -.276E-01 0.225E+02 -.221E+04   0.234E-01 -.410E+02 0.222E+04   0.270E-01 0.431E+01 -.540E+01   -.373E-02 0.129E+02 -.970E+01
   0.600E-02 -.153E-01 -.255E+04   -.747E-03 -.352E-10 0.260E+04   0.245E-01 0.145E-01 -.194E+02   -.146E-01 0.604E-02 -.251E+02
   -.157E-01 0.829E-02 -.255E+04   -.179E-01 -.349E-10 0.260E+04   0.112E-01 -.115E-01 -.194E+02   0.359E-01 -.345E-02 -.252E+02
   0.205E-01 0.487E-03 -.255E+04   -.119E-02 -.348E-10 0.260E+04   0.419E-02 -.125E-01 -.194E+02   -.122E-01 -.529E-03 -.251E+02
   0.276E-01 -.297E-01 -.255E+04   -.141E-01 -.349E-10 0.260E+04   0.340E-01 0.310E-01 -.193E+02   -.248E-01 0.119E-01 -.252E+02
 -----------------------------------------------------------------------------------------------
   0.390E+00 -.288E+00 -.629E+00   -.864E-11 0.167E-10 -.705E-10   -.670E+00 0.530E+00 0.482E+00   -.265E+00 -.229E-02 0.980E-01


 POSITION                                       TOTAL-FORCE (eV/Angst)
 -----------------------------------------------------------------------------------
      0.00000      0.00000      7.43449         0.029215     -0.025507     -2.936053
     17.82780      0.00000      7.43449         0.027253     -0.024147     -2.935677
      2.97131      0.00000      7.43449         0.007003     -0.023281     -2.944131
     20.79920      0.00000      7.43449         0.007925      0.003102     -2.948846
      1.48565      3.29088      7.09388         0.035569      0.005846      0.780884
     19.31350      3.29088      7.09388         0.005915      0.022412      0.729349
      4.45696      3.29088      7.09388         0.002302      0.020249      0.800743
     22.28480      3.29088      7.09388        -0.000279      0.014199      0.735518
      0.00000      3.29088     10.46873        -0.001829      0.000342      1.543043
     17.82780      3.29088     10.46873         0.009025     -0.001937      1.522529
      2.97131      3.29088     10.46873        -0.002491     -0.022492      1.555001
     20.79920      3.29088     10.46873         0.017116     -0.030987      1.535626
      1.48565      0.00000     10.64284        -0.008172      0.013530     -0.879407
     19.31350      0.00000     10.64284         0.004285      0.007079     -0.871933
      4.45696      0.00000     10.64284         0.007199     -0.016746     -0.863371
     22.28480      0.00000     10.64284         0.002261     -0.014669     -0.874080
      0.00000      0.00000     13.86853         0.000412     -0.003061     -0.012473
     17.82780      0.00000     13.86853         0.001331     -0.018035     -0.006178
      2.97131      0.00000     13.86853         0.032109     -0.009484     -0.021822
     20.79920      0.00000     13.86853         0.035531      0.008549     -0.008140
      1.48565      3.29088     13.86853         0.022015     -0.011978      0.007109
     19.31350      3.29088     13.86853         0.007581     -0.010668      0.003122
      4.45696      3.29088     13.86853         0.015156      0.006597     -0.006163
     22.28480      3.29088     13.86853         0.016028     -0.005033     -0.016052
      0.00000      3.29088     17.26834        -0.008960     -0.006343     -1.513149
     17.82780      3.29088     17.26834        -0.011157      0.010792     -1.532071
      2.97131      3.29088     17.26834        -0.010663     -0.009804     -1.543075
     20.79920      3.29088     17.26834         0.020608      0.007515     -1.533499
      1.48565      0.00000     17.09423         0.023929     -0.007398      0.878135
     19.31350      0.00000     17.09423        -0.013164      0.018743      0.882634
      4.45696      0.00000     17.09423         0.019786     -0.018436      0.878546
     22.28480      0.00000     17.09423         0.020513      0.004787      0.856828
      0.00000      0.00000     20.30257        -0.024577     -0.008073      2.966184
     17.82780      0.00000     20.30257         0.005762      0.016235      2.940530
      2.97131      0.00000     20.30257         0.013820      0.004831      2.913420
     20.79920      0.00000     20.30257        -0.027918      0.013450      2.941430
      1.48565      3.29088     20.64319        -0.020908     -0.010257     -0.739347
     19.31350      3.29088     20.64319         0.030778      0.007632     -0.738189
      4.45696      3.29088     20.64319         0.023139     -0.007051     -0.766045
     22.28480      3.29088     20.64319        -0.013154      0.019638     -0.746835
      5.94262      0.00000      7.43449         0.009286      0.030210     -2.963127
     23.77050      0.00000      7.43449         0.000610     -0.006231     -2.936097
      8.91392      0.00000      7.43449         0.011496     -0.011495     -2.977081
     26.74180      0.00000      7.43449        -0.034096     -0.011904     -2.949672
      7.42827      3.29088      7.09388        -0.000765     -0.012454      0.712317
     25.25610      3.29088      7.09388        -0.018544     -0.001916      0.752334
     10.39958      3.29088      7.09388        -0.005161     -0.005312      0.739827
     28.22740      3.29088      7.09388        -0.026557      0.018578      0.733927
      5.94262      3.29088     10.46873        -0.015396      0.009986      1.554811
     23.77050      3.29088     10.46873        -0.018978      0.005970      1.552126
      8.91392      3.29088     10.46873         0.024686      0.027524      1.541405
     26.74180      3.29088     10.46873        -0.015750     -0.001059      1.517160
      7.42827      0.00000     10.64284         0.032199      0.010106     -0.886368
     25.25610      0.00000     10.64284         0.007116      0.007372     -0.897385
     10.39958      0.00000     10.64284         0.023075     -0.006976     -0.838315
     28.22740      0.00000     10.64284        -0.005312      0.009313     -0.875802
      5.94262      0.00000     13.86853         0.008652     -0.023093     -0.005825
     23.77050      0.00000     13.86853        -0.019346      0.016984      0.005922
      8.91392      0.00000     13.86853        -0.018288      0.002470     -0.007001
     26.74180      0.00000     13.86853        -0.015679      0.005488     -0.014035
      7.42827      3.29088     13.86853        -0.008224     -0.008501      0.016276
     25.25610      3.29088     13.86853         0.016106     -0.000472     -0.004725
     10.39958      3.29088     13.86853         0.010730     -0.015904     -0.020257
     28.22740      3.29088     13.86853         0.021567     -0.010306     -0.008752
      5.94262      3.29088     17.26834        -0.024169      0.017786     -1.543680
     23.77050      3.29088     17.26834        -0.012418     -0.006725     -1.542339
      8.91392      3.29088     17.26834        -0.026761     -0.020990     -1.545379
     26.74180      3.29088     17.26834        -0.019600      0.001296     -1.526411
      7.42827      0.00000     17.09423        -0.019510     -0.000734      0.888063
     25.25610      0.00000     17.09423        -0.023172      0.011546      0.876912
     10.39958      0.00000     17.09423         0.021710      0.008731      0.872946
     28.22740      0.00000     17.09423         0.032203      0.034189      0.833580
      5.94262      0.00000     20.30257        -0.009925      0.006048      2.920759
     23.77050      0.00000     20.30257        -0.012917      0.004934      2.935506
      8.91392      0.00000     20.30257         0.008506      0.009359      2.964056
     26.74180      0.00000     20.30257        -0.007752      0.001330      2.961747
      7.42827      3.29088     20.64319         0.000274      0.025909     -0.730383
     25.25610      3.29088     20.64319         0.022318      0.032345     -0.748387
     10.39958      3.29088     20.64319        -0.006140      0.001714     -0.717393
     28.22740      3.29088     20.64319        -0.008580     -0.013438     -0.736945
     11.88523      0.00000      7.43449        -0.012937      0.005512     -2.932579
     29.71310      0.00000      7.43449        -0.017528      0.030662     -2.959148
     14.85654      0.00000      7.43449         0.021817     -0.000468     -2.950874
     32.68440      0.00000      7.43449        -0.006200     -0.006904     -2.940709
     13.37089      3.29088      7.09388        -0.005623      0.013068      0.735599
     31.19870      3.29088      7.09388        -0.018781      0.003416      0.768305
     16.34219      3.29088      7.09388         0.030631      0.007454      0.756671
     34.17000      3.29088      7.09388         0.001576     -0.007563      0.744426
     11.88523      3.29088     10.46873         0.011412     -0.035041      1.523089
     29.71310      3.29088     10.46873         0.020517      0.011860      1.529233
     14.85654      3.29088     10.46873        -0.003112     -0.019999      1.537130
     32.68440      3.29088     10.46873        -0.012406      0.010334      1.560585
     13.37089      0.00000     10.64284         0.026745      0.006762     -0.874452
     31.19870      0.00000     10.64284         0.001722     -0.006527     -0.892783
     16.34219      0.00000     10.64284         0.001409      0.000027     -0.894248
     34.17000      0.00000     10.64284         0.002666      0.016721     -0.865900
     11.88523      0.00000     13.86853        -0.005403      0.014014     -0.004670
     29.71310      0.00000     13.86853         0.009315     -0.007742     -0.005905
     14.85654      0.00000     13.86853        -0.019440     -0.006475     -0.003923
     32.68440      0.00000     13.86853        -0.015145     -0.018620     -0.000589
     13.37089      3.29088     13.86853        -0.019432     -0.025386      0.005859
     31.19870      3.29088     13.86853         0.005503      0.001594      0.003686
     16.34219      3.29088     13.86853        -0.013789     -0.022110     -0.015064
     34.17000      3.29088     13.86853         0.006967      0.000924      0.023493
     11.88523      3.29088     17.26834         0.005989     -0.023935     -1.523641
     29.71310      3.29088     17.26834         0.000444     -0.017583     -1.538893
     14.85654      3.29088     17.26834        -0.009888     -0.007043     -1.547652
     32.68440      3.29088     17.26834        -0.006863     -0.005703     -1.547384
     13.37089      0.00000     17.09423        -0.001790      0.007264      0.883214
     31.19870      0.00000     17.09423         0.024134      0.002622      0.872006
     16.34219      0.00000     17.09423         0.011779      0.011970      0.896433
     34.17000      0.00000     17.09423        -0.008756      0.009520      0.881486
     11.88523      0.00000     20.30257        -0.007227      0.014591      2.935015
     29.71310      0.00000     20.30257        -0.003821      0.013032      2.984206
     14.85654      0.00000     20.30257        -0.005716      0.012416      2.953037
     32.68440      0.00000     20.30257        -0.010517     -0.009926      2.936466
     13.37089      3.29088     20.64319         0.023469      0.006732     -0.734296
     31.19870      3.29088     20.64319        -0.004984      0.005156     -0.754778
     16.34219      3.29088     20.64319        -0.025561      0.001537     -0.723703
     34.17000      3.29088     20.64319         0.002176     -0.004848     -0.745399
      0.00000      6.58176      7.43449        -0.006878      0.011850     -2.955771
     17.82780      6.58176      7.43449        -0.010530     -0.018200     -2.896564
      2.97131      6.58176      7.43449        -0.007596      0.010575     -2.940148
     20.79920      6.58176      7.43449         0.002185      0.000971     -2.950562
      1.48565      9.87264      7.09388         0.016346     -0.028014      0.740531
     19.31350      9.87264      7.09388        -0.003013     -0.012687      0.753603
      4.45696      9.87264      7.09388        -0.025041     -0.014435      0.716332
     22.28480      9.87264      7.09388        -0.004914     -0.017613      0.748610
      0.00000      9.87264     10.46873         0.022832     -0.005877      1.517805
     17.82780      9.87264     10.46873        -0.003058     -0.008593      1.512319
      2.97131      9.87264     10.46873        -0.006912      0.006155      1.515875
     20.79920      9.87264     10.46873        -0.000500     -0.016269      1.514785
      1.48565      6.58176     10.64284        -0.008641     -0.011103     -0.863601
     19.31350      6.58176     10.64284        -0.023101     -0.025203     -0.887344
      4.45696      6.58176     10.64284         0.003064      0.020809     -0.865532
     22.28480      6.58176     10.64284         0.013423     -0.033155     -0.864142
      0.00000      6.58176     13.86853        -0.005068     -0.038366      0.004070
     17.82780      6.58176     13.86853         0.003103      0.002172     -0.007541
      2.97131      6.58176     13.86853         0.013797     -0.019410      0.004787
     20.79920      6.58176     13.86853         0.024107      0.024275     -0.014621
      1.48565      9.87264     13.86853        -0.065128     -0.003967     -0.004086
     19.31350      9.87264     13.86853        -0.044266      0.020612      0.019833
      4.45696      9.87264     13.86853         0.005436     -0.000882      0.012629
     22.28480      9.87264     13.86853        -0.035868      0.013102     -0.006746
      0.00000      9.87264     17.26834         0.001114     -0.006071     -1.546297
     17.82780      9.87264     17.26834         0.006986      0.001817     -1.520994
      2.97131      9.87264     17.26834         0.027288     -0.043238     -1.543091
     20.79920      9.87264     17.26834         0.005007     -0.008684     -1.543791
      1.48565      6.58176     17.09423         0.007729     -0.016718      0.862021
     19.31350      6.58176     17.09423        -0.001764     -0.020403      0.877554
      4.45696      6.58176     17.09423        -0.020469      0.030821      0.856623
     22.28480      6.58176     17.09423         0.001779      0.025330      0.896376
      0.00000      6.58176     20.30257        -0.014364     -0.007648      2.948260
     17.82780      6.58176     20.30257         0.003835      0.000863      2.934241
      2.97131      6.58176     20.30257         0.001320      0.001834      2.901078
     20.79920      6.58176     20.30257        -0.008164      0.000442      2.921202
      1.48565      9.87264     20.64319        -0.030134     -0.000145     -0.761103
     19.31350      9.87264     20.64319        -0.012718     -0.011399     -0.723078
      4.45696      9.87264     20.64319        -0.008739     -0.016536     -0.759043
     22.28480      9.87264     20.64319         0.008825     -0.016178     -0.726228
      5.94262      6.58176      7.43449        -0.011197     -0.006490     -2.936085
     23.77050      6.58176      7.43449        -0.009333      0.011662     -2.942035
      8.91392      6.58176      7.43449        -0.016897     -0.000173     -2.955315
     26.74180      6.58176      7.43449         0.005224      0.001624     -2.944347
      7.42827      9.87264      7.09388         0.022607     -0.000288      0.715151
     25.25610      9.87264      7.09388         0.018945      0.001589      0.767615
     10.39958      9.87264      7.09388        -0.008431     -0.002194      0.745310
     28.22740      9.87264      7.09388         0.006226      0.030241      0.765994
      5.94262      9.87264     10.46873        -0.016005      0.007377      1.534541
     23.77050      9.87264     10.46873         0.020114     -0.001406      1.526482
      8.91392      9.87264     10.46873        -0.007761     -0.004793      1.564843
     26.74180      9.87264     10.46873        -0.019999     -0.018069      1.541826
      7.42827      6.58176     10.64284         0.017911      0.008057     -0.876233
     25.25610      6.58176     10.64284        -0.018001      0.010440     -0.871808
     10.39958      6.58176     10.64284        -0.007218      0.000686     -0.870664
     28.22740      6.58176     10.64284         0.015110      0.007762     -0.892038
      5.94262      6.58176     13.86853        -0.037870     -0.003050     -0.012877
     23.77050      6.58176     13.86853        -0.007560     -0.000626      0.022270
      8.91392      6.58176     13.86853        -0.026848      0.007005      0.021552
     26.74180      6.58176     13.86853        -0.003155     -0.033361     -0.018010
      7.42827      9.87264     13.86853         0.030946     -0.018678      0.020723
     25.25610      9.87264     13.86853         0.009929     -0.011178     -0.007243
     10.39958      9.87264     13.86853        -0.000976     -0.003267     -0.005073
     28.22740      9.87264     13.86853         0.026969     -0.008576     -0.009085
      5.94262      9.87264     17.26834        -0.006175      0.003026     -1.530564
     23.77050      9.87264     17.26834         0.013326      0.013523     -1.527542
      8.91392      9.87264     17.26834        -0.002763     -0.005290     -1.523873
     26.74180      9.87264     17.26834         0.013292     -0.016230     -1.522069
      7.42827      6.58176     17.09423        -0.006857     -0.005553      0.852014
     25.25610      6.58176     17.09423         0.022418      0.002017      0.868912
     10.39958      6.58176     17.09423        -0.020456     -0.016042      0.886925
     28.22740      6.58176     17.09423         0.012060     -0.007436      0.852389
      5.94262      6.58176     20.30257        -0.004361      0.001425      2.912706
     23.77050      6.58176     20.30257         0.011694      0.025830      2.924592
      8.91392      6.58176     20.30257        -0.015504     -0.007954      2.922142
     26.74180      6.58176     20.30257        -0.004121      0.020730      2.923604
      7.42827      9.87264     20.64319         0.003378      0.005674     -0.734551
     25.25610      9.87264     20.64319         0.021612      0.018423     -0.736786
     10.39958      9.87264     20.64319        -0.018220      0.008637     -0.738169
     28.22740      9.87264     20.64319        -0.012353      0.020050     -0.761751
     11.88523      6.58176      7.43449        -0.007605     -0.010875     -2.943652
     29.71310      6.58176      7.43449         0.011452      0.002803     -2.944845
     14.85654      6.58176      7.43449         0.010851      0.003757     -2.979868
     32.68440      6.58176      7.43449        -0.026595      0.009720     -2.950746
     13.37089      9.87264      7.09388        -0.004146     -0.018710      0.715375
     31.19870      9.87264      7.09388        -0.014266     -0.001196      0.752432
     16.34219      9.87264      7.09388        -0.013692      0.029485      0.725294
     34.17000      9.87264      7.09388        -0.005935     -0.011223      0.754634
     11.88523      9.87264     10.46873         0.012854     -0.005500      1.547434
     29.71310      9.87264     10.46873         0.023014      0.011681      1.538806
     14.85654      9.87264     10.46873         0.011255     -0.004334      1.523441
     32.68440      9.87264     10.46873        -0.006332     -0.028068      1.530912
     13.37089      6.58176     10.64284         0.013681      0.006818     -0.880518
     31.19870      6.58176     10.64284        -0.015569     -0.020910     -0.894889
     16.34219      6.58176     10.64284         0.007542     -0.017228     -0.879696
     34.17000      6.58176     10.64284         0.015030      0.008609     -0.873309
     11.88523      6.58176     13.86853         0.001860      0.006566      0.007252
     29.71310      6.58176     13.86853        -0.003521      0.002816     -0.005615
     14.85654      6.58176     13.86853         0.003559      0.005752     -0.002117
     32.68440      6.58176     13.86853         0.015570     -0.015439      0.001516
     13.37089      9.87264     13.86853         0.001263      0.003731     -0.001729
     31.19870      9.87264     13.86853         0.003078     -0.007297     -0.015908
     16.34219      9.87264     13.86853         0.066200      0.017244      0.023216
     34.17000      9.87264     13.86853         0.040090     -0.019079     -0.004814
     11.88523      9.87264     17.26834         0.027935      0.007275     -1.540741
     29.71310      9.87264     17.26834         0.017725     -0.009936     -1.544493
     14.85654      9.87264     17.26834         0.012676      0.007827     -1.547001
     32.68440      9.87264     17.26834        -0.009294      0.000150     -1.548002
     13.37089      6.58176     17.09423         0.007131      0.003187      0.865624
     31.19870      6.58176     17.09423        -0.002584      0.001666      0.871833
     16.34219      6.58176     17.09423         0.001499      0.007633      0.874436
     34.17000      6.58176     17.09423        -0.013948      0.022843      0.863965
     11.88523      6.58176     20.30257         0.007830     -0.007939      2.948252
     29.71310      6.58176     20.30257        -0.011905      0.004861      2.945888
     14.85654      6.58176     20.30257         0.008116     -0.001547      2.934912
     32.68440      6.58176     20.30257         0.000922     -0.017785      2.948467
     13.37089      9.87264     20.64319         0.009055     -0.006526     -0.706987
     31.19870      9.87264     20.64319         0.004393     -0.022966     -0.733311
     16.34219      9.87264     20.64319        -0.001568     -0.006672     -0.759758
     34.17000      9.87264     20.64319         0.003574     -0.001931     -0.738195
      0.00000     13.16351      7.43449         0.016491     -0.006813     -2.940857
     17.82780     13.16351      7.43449         0.010285      0.005099     -2.952742
      2.97131     13.16351      7.43449        -0.007505     -0.030369     -2.948742
     20.79920     13.16351      7.43449         0.012103      0.007582     -2.955899
      1.48565     16.45439      7.09388         0.007835     -0.007186      0.759323
     19.31350     16.45439      7.09388         0.004921      0.015893      0.730374
      4.45696     16.45439      7.09388        -0.039762      0.004199      0.767498
     22.28480     16.45439      7.09388         0.029964     -0.019411      0.749490
      0.00000     16.45439     10.46873        -0.008084      0.014483      1.536372
     17.82780     16.45439     10.46873        -0.017794     -0.006133      1.544403
      2.97131     16.45439     10.46873        -0.009909      0.000730      1.533173
     20.79920     16.45439     10.46873         0.021042      0.013844      1.532485
      1.48565     13.16351     10.64284        -0.013010      0.006060     -0.889090
     19.31350     13.16351     10.64284        -0.018710     -0.011241     -0.874374
      4.45696     13.16351     10.64284         0.000832      0.005369     -0.892816
     22.28480     13.16351     10.64284         0.012880      0.016627     -0.894087
      0.00000     13.16351     13.86853         0.000214     -0.005535      0.008090
     17.82780     13.16351     13.86853        -0.007119      0.007138      0.011947
      2.97131     13.16351     13.86853         0.015307     -0.000303     -0.011441
     20.79920     13.16351     13.86853        -0.000265      0.007362      0.007506
      1.48565     16.45439     13.86853         0.001749     -0.001375     -0.000939
     19.31350     16.45439     13.86853         0.012512     -0.015129      0.009814
      4.45696     16.45439     13.86853         0.021387     -0.002920     -0.007239
     22.28480     16.45439     13.86853        -0.007506     -0.023620      0.009310
      0.00000     16.45439     17.26834         0.014900     -0.007271     -1.498302
     17.82780     16.45439     17.26834         0.028007      0.004498     -1.532514
      2.97131     16.45439     17.26834         0.005047     -0.002344     -1.497445
     20.79920     16.45439     17.26834         0.004418     -0.004241     -1.546758
      1.48565     13.16351     17.09423         0.020924      0.003375      0.878522
     19.31350     13.16351     17.09423        -0.009067      0.001155      0.870294
      4.45696     13.16351     17.09423         0.024921     -0.008609      0.865271
     22.28480     13.16351     17.09423         0.001814      0.005975      0.879954
      0.00000     13.16351     20.30257         0.001236      0.011962      2.923823
     17.82780     13.16351     20.30257         0.000159     -0.005304      2.940136
      2.97131     13.16351     20.30257        -0.001423     -0.003847      2.949638
     20.79920     13.16351     20.30257        -0.020746      0.011589      2.938951
      1.48565     16.45439     20.64319        -0.017866     -0.013368     -0.748964
     19.31350     16.45439     20.64319         0.032020      0.001616     -0.753265
      4.45696     16.45439     20.64319         0.014738      0.017617     -0.734545
     22.28480     16.45439     20.64319        -0.011514      0.029072     -0.741980
      5.94262     13.16351      7.43449        -0.011490     -0.014331     -2.920356
     23.77050     13.16351      7.43449        -0.011597     -0.017771     -2.974721
      8.91392     13.16351      7.43449         0.009270      0.000188     -2.948755
     26.74180     13.16351      7.43449         0.022045     -0.022753     -2.941221
      7.42827     16.45439      7.09388         0.002889      0.003412      0.729128
     25.25610     16.45439      7.09388        -0.001417      0.010465      0.742644
     10.39958     16.45439      7.09388         0.035814     -0.000401      0.726326
     28.22740     16.45439      7.09388         0.021036      0.008671      0.727072
      5.94262     16.45439     10.46873        -0.005578      0.007693      1.530515
     23.77050     16.45439     10.46873        -0.008195     -0.029203      1.529736
      8.91392     16.45439     10.46873        -0.018783     -0.037110      1.552779
     26.74180     16.45439     10.46873        -0.011382     -0.002358      1.538337
      7.42827     13.16351     10.64284         0.000484     -0.009925     -0.888079
     25.25610     13.16351     10.64284         0.012299      0.004217     -0.838459
     10.39958     13.16351     10.64284         0.034424      0.004046     -0.865895
     28.22740     13.16351     10.64284         0.007557     -0.015882     -0.861881
      5.94262     13.16351     13.86853        -0.012394     -0.007458     -0.009884
     23.77050     13.16351     13.86853        -0.005674      0.004717     -0.000556
      8.91392     13.16351     13.86853        -0.016598     -0.009492     -0.014575
     26.74180     13.16351     13.86853        -0.019331      0.006058      0.018599
      7.42827     16.45439     13.86853         0.011582     -0.019468     -0.016023
     25.25610     16.45439     13.86853         0.006306      0.016244     -0.011919
     10.39958     16.45439     13.86853         0.011618      0.004741      0.017499
     28.22740     16.45439     13.86853        -0.012853      0.008587      0.012697
      5.94262     16.45439     17.26834         0.005161     -0.016157     -1.514126
     23.77050     16.45439     17.26834         0.008747     -0.007862     -1.545677
      8.91392     16.45439     17.26834         0.032521      0.000774     -1.525794
     26.74180     16.45439     17.26834        -0.002481      0.020175     -1.498309
      7.42827     13.16351     17.09423        -0.002917      0.004681      0.873588
     25.25610     13.16351     17.09423        -0.021096      0.005843      0.866057
     10.39958     13.16351     17.09423        -0.014579     -0.013388      0.864942
     28.22740     13.16351     17.09423         0.012029      0.021423      0.865376
      5.94262     13.16351     20.30257        -0.007793      0.004551      2.918576
     23.77050     13.16351     20.30257        -0.003239      0.014788      2.926232
      8.91392     13.16351     20.30257         0.002593      0.022414      2.957933
     26.74180     13.16351     20.30257        -0.032960     -0.000014      2.917151
      7.42827     16.45439     20.64319        -0.016207      0.000443     -0.732829
     25.25610     16.45439     20.64319        -0.012946      0.003967     -0.731132
     10.39958     16.45439     20.64319         0.006881     -0.015717     -0.753195
     28.22740     16.45439     20.64319        -0.006532      0.004340     -0.718070
     11.88523     13.16351      7.43449         0.021390     -0.011432     -2.975095
     29.71310     13.16351      7.43449        -0.010506      0.026877     -2.939994
     14.85654     13.16351      7.43449        -0.013415     -0.009927     -2.934139
     32.68440     13.16351      7.43449        -0.029004     -0.022916     -2.963581
     13.37089     16.45439      7.09388         0.024367      0.019259      0.755710
     31.19870     16.45439      7.09388         0.007722      0.014523      0.741798
     16.34219     16.45439      7.09388        -0.035047      0.002860      0.771937
     34.17000     16.45439      7.09388         0.021126      0.000176      0.753105
     11.88523     16.45439     10.46873         0.012068      0.012427      1.566708
     29.71310     16.45439     10.46873         0.009823      0.002179      1.544342
     14.85654     16.45439     10.46873        -0.003949     -0.004597      1.545076
     32.68440     16.45439     10.46873        -0.009536     -0.002699      1.525675
     13.37089     13.16351     10.64284        -0.017454     -0.001645     -0.844112
     31.19870     13.16351     10.64284         0.027952      0.016765     -0.869432
     16.34219     13.16351     10.64284        -0.007740      0.000419     -0.874453
     34.17000     13.16351     10.64284         0.002145      0.001129     -0.875782
     11.88523     13.16351     13.86853         0.004965     -0.007445     -0.002141
     29.71310     13.16351     13.86853        -0.000025      0.002905     -0.005838
     14.85654     13.16351     13.86853        -0.013176      0.019296     -0.021248
     32.68440     13.16351     13.86853        -0.008997     -0.013009      0.001788
     13.37089     16.45439     13.86853         0.015673      0.007831     -0.013477
     31.19870     16.45439     13.86853         0.014508     -0.000483     -0.009603
     16.34219     16.45439     13.86853         0.009021      0.001321      0.005479
     34.17000     16.45439     13.86853        -0.005832     -0.002695     -0.013248
     11.88523     16.45439     17.26834        -0.004062     -0.012622     -1.531084
     29.71310     16.45439     17.26834         0.023656     -0.026066     -1.530961
     14.85654     16.45439     17.26834         0.014263      0.006858     -1.521972
     32.68440     16.45439     17.26834        -0.015137     -0.014130     -1.513411
     13.37089     13.16351     17.09423        -0.017366     -0.027255      0.862448
     31.19870     13.16351     17.09423         0.040367     -0.001156      0.860720
     16.34219     13.16351     17.09423         0.004693      0.000675      0.860049
     34.17000     13.16351     17.09423         0.008120      0.012880      0.871606
     11.88523     13.16351     20.30257         0.007568      0.009555      2.930182
     29.71310     13.16351     20.30257        -0.010530      0.016253      2.930640
     14.85654     13.16351     20.30257        -0.017351      0.010828      2.945315
     32.68440     13.16351     20.30257        -0.028579     -0.014434      2.943591
     13.37089     16.45439     20.64319        -0.012806     -0.008628     -0.735721
     31.19870     16.45439     20.64319         0.010891      0.014054     -0.771985
     16.34219     16.45439     20.64319        -0.001196      0.005432     -0.722096
     34.17000     16.45439     20.64319        -0.010578     -0.002400     -0.762443
      0.00000      3.29088      5.99384         0.004124     -0.004167     -2.283095
     17.82780      3.29088      5.99384        -0.014788      0.008973     -2.292310
      2.97131      3.29088      5.99384        -0.018854      0.001099     -2.268123
     20.79920      3.29088      5.99384         0.045775      0.005237     -2.300039
      1.48565      1.23325      7.11014        -0.013070      1.281988      0.048368
     19.31350      1.23325      7.11014         0.027452      1.278351      0.044875
      4.45696      1.23325      7.11014         0.003690      1.266711      0.050603
     22.28480      1.23325      7.11014         0.026319      1.261209      0.058094
      1.48565      5.34850      7.11014         0.005824     -1.268236      0.046312
     19.31350      5.34850      7.11014        -0.024499     -1.284824      0.039626
      4.45696      5.34850      7.11014        -0.013487     -1.282129      0.038443
     22.28480      5.34850      7.11014         0.026575     -1.282932      0.036059
      0.00000      3.29088      8.57585         0.007143      0.004003     -2.067305
     17.82780      3.29088      8.57585        -0.038605      0.006408     -2.143492
      2.97131      3.29088      8.57585         0.017023     -0.006910     -2.127000
     20.79920      3.29088      8.57585         0.030052     -0.000293     -2.129688
      0.00000      0.00000      9.27660        -0.023038      0.002099      2.096758
     17.82780      0.00000      9.27660        -0.012663     -0.001823      2.127087
      2.97131      0.00000      9.27660        -0.003014     -0.002323      2.102358
     20.79920      0.00000      9.27660         0.012427      0.015210      2.081744
      1.48565      4.60803     10.56495         0.001938     -0.073339      0.009062
     19.31350      4.60803     10.56495        -0.021519     -0.050883     -0.011373
      4.45696      4.60803     10.56495         0.017226     -0.046117     -0.016189
     22.28480      4.60803     10.56495         0.016388     -0.016766      0.020612
      1.48565      1.97373     10.56495        -0.011812      0.045785      0.001964
     19.31350      1.97373     10.56495        -0.002761      0.048411     -0.035829
      4.45696      1.97373     10.56495        -0.011114      0.051332      0.035895
     22.28480      1.97373     10.56495        -0.001997      0.076019      0.015386
      0.00000      0.00000     11.85855         0.017899     -0.000789      1.416780
     17.82780      0.00000     11.85855        -0.000116     -0.016757      1.388676
      2.97131      0.00000     11.85855         0.011282     -0.011374      1.407480
     20.79920      0.00000     11.85855         0.002362      0.017342      1.376903
      0.00000      3.29088     12.57352        -0.021365     -0.045312     -1.120959
     17.82780      3.29088     12.57352        -0.016073      0.014239     -1.098045
      2.97131      3.29088     12.57352        -0.001566     -0.009983     -1.129965
     20.79920      3.29088     12.57352        -0.013862     -0.024273     -1.118545
      1.48565      1.28678     13.86853        -0.035849      0.560787     -0.003615
     19.31350      1.28678     13.86853        -0.018228      0.541846     -0.026919
      4.45696      1.28678     13.86853         0.015324      0.546675      0.001513
     22.28480      1.28678     13.86853        -0.012934      0.537299      0.028137
      1.48565      5.29498     13.86853        -0.029108     -0.557075      0.006577
     19.31350      5.29498     13.86853        -0.019179     -0.542584     -0.019656
      4.45696      5.29498     13.86853         0.011710     -0.526321      0.021518
     22.28480      5.29498     13.86853        -0.019872     -0.552964      0.033849
      0.00000      3.29088     15.16355         0.000563     -0.022056      1.108709
     17.82780      3.29088     15.16355         0.013333     -0.000800      1.126417
      2.97131      3.29088     15.16355        -0.009594      0.014899      1.113955
     20.79920      3.29088     15.16355        -0.017346      0.001636      1.117956
      0.00000      0.00000     15.87852         0.003561     -0.001775     -1.401391
     17.82780      0.00000     15.87852         0.012568     -0.015726     -1.399833
      2.97131      0.00000     15.87852        -0.019738      0.000567     -1.385838
     20.79920      0.00000     15.87852         0.006464     -0.000770     -1.371252
      1.48565      4.60803     17.17212         0.010973     -0.045468      0.005242
     19.31350      4.60803     17.17212         0.000149     -0.019308      0.016239
      4.45696      4.60803     17.17212         0.022415     -0.069256     -0.022289
     22.28480      4.60803     17.17212        -0.019329     -0.065379     -0.010999
      1.48565      1.97373     17.17212         0.008541      0.038055     -0.024074
     19.31350      1.97373     17.17212         0.004830      0.032775     -0.014811
      4.45696      1.97373     17.17212        -0.003440      0.054015      0.002710
     22.28480      1.97373     17.17212        -0.003044      0.068414     -0.021378
      0.00000      0.00000     18.46047         0.002240     -0.007143     -2.116092
     17.82780      0.00000     18.46047        -0.006777      0.004823     -2.114659
      2.97131      0.00000     18.46047        -0.012889     -0.003378     -2.104438
     20.79920      0.00000     18.46047         0.019157     -0.018480     -2.073049
      0.00000      3.29088     19.16122        -0.015721     -0.002118      2.086641
     17.82780      3.29088     19.16122        -0.003103     -0.010846      2.107367
      2.97131      3.29088     19.16122        -0.020516     -0.007303      2.105041
     20.79920      3.29088     19.16122         0.001202     -0.006540      2.091193
      1.48565      1.23325     20.62693        -0.009267      1.301736     -0.049708
     19.31350      1.23325     20.62693        -0.014690      1.250093     -0.049791
      4.45696      1.23325     20.62693        -0.017279      1.259495     -0.054042
     22.28480      1.23325     20.62693         0.011734      1.257784     -0.020419
      1.48565      5.34850     20.62693         0.011541     -1.309041     -0.043042
     19.31350      5.34850     20.62693         0.005172     -1.279747     -0.041229
      4.45696      5.34850     20.62693         0.006130     -1.304143     -0.051013
     22.28480      5.34850     20.62693         0.011386     -1.292345     -0.035174
      0.00000      3.29088     21.74323         0.000137      0.019066      2.278167
     17.82780      3.29088     21.74323        -0.010696     -0.002945      2.313310
      2.97131      3.29088     21.74323        -0.029358     -0.001198      2.307883
     20.79920      3.29088     21.74323        -0.010244     -0.009640      2.306708
      5.94262      3.29088      5.99384        -0.019328      0.007317     -2.297444
     23.77050      3.29088      5.99384         0.006792     -0.005994     -2.301369
      8.91392      3.29088      5.99384        -0.027002     -0.013138     -2.288814
     26.74180      3.29088      5.99384         0.015121      0.005219     -2.292540
      7.42827      1.23325      7.11014        -0.010804      1.264610      0.031191
     25.25610      1.23325      7.11014        -0.012606      1.266127      0.063961
     10.39958      1.23325      7.11014         0.023630      1.275317      0.048970
     28.22740      1.23325      7.11014         0.033949      1.303103      0.043955
      7.42827      5.34850      7.11014         0.029726     -1.273592      0.037305
     25.25610      5.34850      7.11014        -0.023488     -1.276496      0.042571
     10.39958      5.34850      7.11014         0.001703     -1.283524      0.054716
     28.22740      5.34850      7.11014        -0.025315     -1.275492      0.037794
      5.94262      3.29088      8.57585        -0.007428     -0.013523     -2.105243
     23.77050      3.29088      8.57585         0.013962      0.010530     -2.101967
      8.91392      3.29088      8.57585         0.007951     -0.015680     -2.114528
     26.74180      3.29088      8.57585         0.001609      0.005918     -2.110317
      5.94262      0.00000      9.27660         0.005703      0.012502      2.113500
     23.77050      0.00000      9.27660        -0.006267     -0.008619      2.116083
      8.91392      0.00000      9.27660        -0.015744     -0.008343      2.099217
     26.74180      0.00000      9.27660         0.010884      0.009387      2.130425
      7.42827      4.60803     10.56495         0.006908     -0.050059      0.000374
     25.25610      4.60803     10.56495         0.003854     -0.036689      0.007140
     10.39958      4.60803     10.56495        -0.027796     -0.017116      0.011666
     28.22740      4.60803     10.56495         0.029433     -0.083838      0.004771
      7.42827      1.97373     10.56495         0.016141      0.034704      0.015068
     25.25610      1.97373     10.56495        -0.013276      0.046740      0.006665
     10.39958      1.97373     10.56495        -0.025056      0.064494      0.016854
     28.22740      1.97373     10.56495        -0.007057      0.039434      0.001705
      5.94262      0.00000     11.85855        -0.001488      0.005347      1.382493
     23.77050      0.00000     11.85855        -0.025389      0.017293      1.407279
      8.91392      0.00000     11.85855         0.013272      0.000237      1.367395
     26.74180      0.00000     11.85855         0.008678      0.010003      1.384428
      5.94262      3.29088     12.57352        -0.004656      0.026612     -1.117349
     23.77050      3.29088     12.57352        -0.032952      0.020812     -1.126972
      8.91392      3.29088     12.57352         0.029100      0.023221     -1.132463
     26.74180      3.29088     12.57352         0.020126      0.000571     -1.126854
      7.42827      1.28678     13.86853         0.013355      0.561020     -0.028766
     25.25610      1.28678     13.86853         0.005887      0.546628      0.023227
     10.39958      1.28678     13.86853        -0.011841      0.547994     -0.010784
     28.22740      1.28678     13.86853        -0.010939      0.540669      0.004199
      7.42827      5.29498     13.86853         0.013228     -0.539653     -0.006593
     25.25610      5.29498     13.86853        -0.020902     -0.521352     -0.004302
     10.39958      5.29498     13.86853         0.002571     -0.556129      0.009293
     28.22740      5.29498     13.86853        -0.022869     -0.560644     -0.009971
      5.94262      3.29088     15.16355         0.002929      0.008830      1.115893
     23.77050      3.29088     15.16355        -0.000765     -0.001406      1.113028
      8.91392      3.29088     15.16355        -0.027282      0.018118      1.101793
     26.74180      3.29088     15.16355        -0.007588      0.004495      1.104473
      5.94262      0.00000     15.87852        -0.004432      0.011743     -1.361189
     23.77050      0.00000     15.87852         0.006228     -0.016481     -1.359902
      8.91392      0.00000     15.87852        -0.004175     -0.016211     -1.391997
     26.74180      0.00000     15.87852         0.008936      0.010566     -1.375753
      7.42827      4.60803     17.17212         0.021895     -0.023493     -0.012738
     25.25610      4.60803     17.17212         0.005799     -0.062266     -0.024915
     10.39958      4.60803     17.17212         0.005476     -0.081984      0.007014
     28.22740      4.60803     17.17212        -0.021045     -0.030820      0.011079
      7.42827      1.97373     17.17212         0.003127      0.057507      0.007619
     25.25610      1.97373     17.17212         0.013553      0.075226      0.006043
     10.39958      1.97373     17.17212        -0.007349      0.075436     -0.019253
     28.22740      1.97373     17.17212         0.019538      0.031212      0.005311
      5.94262      0.00000     18.46047        -0.024212      0.001420     -2.101649
     23.77050      0.00000     18.46047        -0.000325      0.024237     -2.105516
      8.91392      0.00000     18.46047        -0.011687      0.005442     -2.083972
     26.74180      0.00000     18.46047        -0.023705     -0.019673     -2.102016
      5.94262      3.29088     19.16122         0.001770      0.004529      2.111691
     23.77050      3.29088     19.16122         0.025079      0.000814      2.090184
      8.91392      3.29088     19.16122        -0.008222     -0.000054      2.080817
     26.74180      3.29088     19.16122         0.005714      0.035466      2.111717
      7.42827      1.23325     20.62693         0.020531      1.262653     -0.024971
     25.25610      1.23325     20.62693        -0.007452      1.265725     -0.040915
     10.39958      1.23325     20.62693         0.001278      1.244632     -0.060265
     28.22740      1.23325     20.62693        -0.022295      1.281012     -0.026488
      7.42827      5.34850     20.62693        -0.000079     -1.290702     -0.041906
     25.25610      5.34850     20.62693         0.008338     -1.291420     -0.025735
     10.39958      5.34850     20.62693        -0.008985     -1.259643     -0.042180
     28.22740      5.34850     20.62693         0.022734     -1.276835     -0.045150
      5.94262      3.29088     21.74323         0.000346     -0.007330      2.305646
     23.77050      3.29088     21.74323         0.003093     -0.008845      2.307765
      8.91392      3.29088     21.74323         0.004789      0.009866      2.298181
     26.74180      3.29088     21.74323        -0.002285     -0.009020      2.300622
     11.88523      3.29088      5.99384         0.040678     -0.003632     -2.321674
     29.71310      3.29088      5.99384        -0.004457     -0.003006     -2.296206
     14.85654      3.29088      5.99384         0.040906      0.011395     -2.313178
     32.68440      3.29088      5.99384        -0.010173      0.008580     -2.304288
     13.37089      1.23325      7.11014         0.001222      1.302605      0.023751
     31.19870      1.23325      7.11014        -0.028997      1.280209      0.046041
     16.34219      1.23325      7.11014         0.004133      1.292947      0.046611
     34.17000      1.23325      7.11014         0.003444      1.288035      0.050309
     13.37089      5.34850      7.11014         0.004185     -1.289151      0.028520
     31.19870      5.34850      7.11014        -0.005631     -1.254399      0.060754
     16.34219      5.34850      7.11014        -0.011631     -1.237013      0.046661
     34.17000      5.34850      7.11014        -0.017223     -1.277693      0.050350
     11.88523      3.29088      8.57585         0.013863     -0.028993     -2.119237
     29.71310      3.29088      8.57585         0.005700      0.007855     -2.091538
     14.85654      3.29088      8.57585        -0.000128      0.003192     -2.097858
     32.68440      3.29088      8.57585         0.000509     -0.007023     -2.117212
     11.88523      0.00000      9.27660        -0.016085     -0.010284      2.092750
     29.71310      0.00000      9.27660         0.003609      0.006380      2.134510
     14.85654      0.00000      9.27660        -0.006540      0.004839      2.112816
     32.68440      0.00000      9.27660         0.007042      0.008496      2.103880
     13.37089      4.60803     10.56495         0.022888     -0.040424      0.002988
     31.19870      4.60803     10.56495        -0.033807     -0.039204     -0.002675
     16.34219      4.60803     10.56495         0.001843     -0.036275      0.000805
     34.17000      4.60803     10.56495        -0.021866     -0.036364     -0.018408
     13.37089      1.97373     10.56495         0.009992      0.082332     -0.020900
     31.19870      1.97373     10.56495        -0.023339      0.055665     -0.015770
     16.34219      1.97373     10.56495         0.007377      0.052330     -0.015123
     34.17000      1.97373     10.56495         0.006252      0.048815      0.001088
     11.88523      0.00000     11.85855        -0.009510      0.009825      1.374543
     29.71310      0.00000     11.85855        -0.004499      0.023790      1.410156
     14.85654      0.00000     11.85855        -0.007010     -0.001914      1.385146
     32.68440      0.00000     11.85855         0.010067     -0.009944      1.368283
     11.88523      3.29088     12.57352         0.007285      0.001804     -1.121912
     29.71310      3.29088     12.57352        -0.044245      0.001675     -1.097828
     14.85654      3.29088     12.57352         0.008602     -0.008422     -1.115415
     32.68440      3.29088     12.57352        -0.016209     -0.018302     -1.137378
     13.37089      1.28678     13.86853         0.015787      0.551626     -0.021716
     31.19870      1.28678     13.86853        -0.006730      0.571443      0.002219
     16.34219      1.28678     13.86853         0.000937      0.579101      0.008349
     34.17000      1.28678     13.86853         0.000102      0.536692     -0.007253
     13.37089      5.29498     13.86853         0.014196     -0.543135     -0.012430
     31.19870      5.29498     13.86853         0.005156     -0.584286     -0.009253
     16.34219      5.29498     13.86853         0.002024     -0.554450     -0.018976
     34.17000      5.29498     13.86853        -0.008976     -0.542538      0.017160
     11.88523      3.29088     15.16355         0.029899      0.000638      1.084654
     29.71310      3.29088     15.16355        -0.037490     -0.007719      1.126749
     14.85654      3.29088     15.16355         0.016531      0.010687      1.140861
     32.68440      3.29088     15.16355        -0.001937      0.024386      1.123869
     11.88523      0.00000     15.87852         0.011574     -0.016896     -1.375616
     29.71310      0.00000     15.87852        -0.007306     -0.001711     -1.373016
     14.85654      0.00000     15.87852        -0.029850      0.008217     -1.392535
     32.68440      0.00000     15.87852         0.031529      0.007519     -1.365400
     13.37089      4.60803     17.17212         0.014441     -0.041183      0.010842
     31.19870      4.60803     17.17212         0.000491     -0.044705     -0.009784
     16.34219      4.60803     17.17212         0.022516     -0.019175      0.001609
     34.17000      4.60803     17.17212         0.021322     -0.075287     -0.009070
     13.37089      1.97373     17.17212        -0.036963      0.035954     -0.012723
     31.19870      1.97373     17.17212         0.011541      0.041163     -0.025198
     16.34219      1.97373     17.17212        -0.017624      0.084760     -0.008192
     34.17000      1.97373     17.17212         0.028491      0.065805      0.011940
     11.88523      0.00000     18.46047         0.008604      0.006550     -2.089818
     29.71310      0.00000     18.46047        -0.027283      0.015501     -2.131082
     14.85654      0.00000     18.46047         0.007391      0.006667     -2.107549
     32.68440      0.00000     18.46047         0.006136     -0.003006     -2.129382
     11.88523      3.29088     19.16122        -0.001191      0.002357      2.075868
     29.71310      3.29088     19.16122         0.009112      0.013291      2.134359
     14.85654      3.29088     19.16122        -0.022643     -0.006423      2.138543
     32.68440      3.29088     19.16122         0.003605     -0.005460      2.095773
     13.37089      1.23325     20.62693         0.019793      1.272287     -0.045937
     31.19870      1.23325     20.62693        -0.004870      1.275798     -0.025769
     16.34219      1.23325     20.62693        -0.003185      1.265133     -0.064305
     34.17000      1.23325     20.62693         0.027735      1.309334     -0.029249
     13.37089      5.34850     20.62693        -0.018493     -1.247173     -0.048450
     31.19870      5.34850     20.62693        -0.010311     -1.276394     -0.061721
     16.34219      5.34850     20.62693        -0.003484     -1.282039     -0.032217
     34.17000      5.34850     20.62693         0.028666     -1.253454     -0.056065
     11.88523      3.29088     21.74323        -0.014476     -0.024532      2.313314
     29.71310      3.29088     21.74323        -0.008604      0.012215      2.287852
     14.85654      3.29088     21.74323        -0.009420     -0.004103      2.292750
     32.68440      3.29088     21.74323        -0.003364     -0.001545      2.297428
      0.00000      9.87264      5.99384        -0.016702     -0.007638     -2.276112
     17.82780      9.87264      5.99384         0.012530     -0.008912     -2.318928
      2.97131      9.87264      5.99384         0.010794     -0.005723     -2.287498
     20.79920      9.87264      5.99384         0.018304      0.006401     -2.262958
      1.48565      7.81501      7.11014         0.018200      1.255638      0.047563
     19.31350      7.81501      7.11014         0.003080      1.281574      0.036171
      4.45696      7.81501      7.11014         0.013495      1.313183      0.032114
     22.28480      7.81501      7.11014         0.032288      1.300233      0.055466
      1.48565     11.93026      7.11014        -0.027199     -1.264836      0.053205
     19.31350     11.93026      7.11014        -0.005686     -1.276773      0.055807
      4.45696     11.93026      7.11014        -0.017453     -1.275424      0.020112
     22.28480     11.93026      7.11014         0.021483     -1.258920      0.048463
      0.00000      9.87264      8.57585         0.009533      0.006993     -2.099468
     17.82780      9.87264      8.57585         0.034354     -0.021837     -2.097259
      2.97131      9.87264      8.57585         0.008536      0.018286     -2.101923
     20.79920      9.87264      8.57585         0.013097      0.001735     -2.089277
      0.00000      6.58176      9.27660        -0.016497      0.007933      2.145332
     17.82780      6.58176      9.27660         0.004954     -0.003884      2.104010
      2.97131      6.58176      9.27660         0.012586      0.001187      2.109326
     20.79920      6.58176      9.27660        -0.002324     -0.012881      2.107207
      1.48565     11.18978     10.56495         0.023969     -0.075991     -0.002020
     19.31350     11.18978     10.56495        -0.024792     -0.026949     -0.007458
      4.45696     11.18978     10.56495         0.005008     -0.052570      0.028946
     22.28480     11.18978     10.56495         0.011536     -0.052493      0.009880
      1.48565      8.55549     10.56495        -0.002358      0.064072     -0.007313
     19.31350      8.55549     10.56495        -0.014173      0.070820      0.018270
      4.45696      8.55549     10.56495         0.006500      0.040226     -0.011986
     22.28480      8.55549     10.56495         0.011100      0.061171     -0.008510
      0.00000      6.58176     11.85855        -0.003299     -0.012085      1.370421
     17.82780      6.58176     11.85855        -0.025115     -0.012481      1.373496
      2.97131      6.58176     11.85855         0.009774      0.011961      1.410285
     20.79920      6.58176     11.85855         0.019021      0.012967      1.417044
      0.00000      9.87264     12.57352        -0.027868     -0.022861     -1.106291
     17.82780      9.87264     12.57352         0.005436      0.000951     -1.117514
      2.97131      9.87264     12.57352        -0.008016      0.021431     -1.100451
     20.79920      9.87264     12.57352         0.022667     -0.023940     -1.086728
      1.48565      7.86853     13.86853         0.022615      0.551883      0.009959
     19.31350      7.86853     13.86853        -0.000783      0.507090     -0.017045
      4.45696      7.86853     13.86853         0.022682      0.543804      0.024899
     22.28480      7.86853     13.86853         0.003203      0.532255     -0.001400
      1.48565     11.87674     13.86853         0.006156     -0.537213      0.011290
     19.31350     11.87674     13.86853         0.013276     -0.557256     -0.007818
      4.45696     11.87674     13.86853         0.023105     -0.565151     -0.013576
     22.28480     11.87674     13.86853         0.009508     -0.555009      0.018309
      0.00000      9.87264     15.16355        -0.003100      0.009786      1.136770
     17.82780      9.87264     15.16355         0.011875      0.003592      1.098901
      2.97131      9.87264     15.16355         0.003723      0.028364      1.124416
     20.79920      9.87264     15.16355        -0.021047     -0.015222      1.109960
      0.00000      6.58176     15.87852        -0.029330      0.021138     -1.366704
     17.82780      6.58176     15.87852        -0.000475      0.013626     -1.365272
      2.97131      6.58176     15.87852         0.024937      0.002602     -1.399542
     20.79920      6.58176     15.87852         0.002157      0.031335     -1.369512
      1.48565     11.18978     17.17212        -0.008618     -0.052263      0.003845
     19.31350     11.18978     17.17212         0.044686     -0.025944     -0.008671
      4.45696     11.18978     17.17212        -0.012487     -0.039277     -0.001375
     22.28480     11.18978     17.17212        -0.011106     -0.085914     -0.006468
      1.48565      8.55549     17.17212         0.007036      0.040420      0.000954
     19.31350      8.55549     17.17212         0.002906      0.061231      0.014917
      4.45696      8.55549     17.17212        -0.009796      0.013418      0.015379
     22.28480      8.55549     17.17212        -0.006631      0.048296     -0.018019
      0.00000      6.58176     18.46047         0.013820     -0.009422     -2.058997
     17.82780      6.58176     18.46047         0.014863      0.000969     -2.088347
      2.97131      6.58176     18.46047         0.003819      0.002137     -2.121822
     20.79920      6.58176     18.46047         0.008245      0.003708     -2.095580
      0.00000      9.87264     19.16122         0.008309     -0.007532      2.122841
     17.82780      9.87264     19.16122         0.004138     -0.001962      2.090399
      2.97131      9.87264     19.16122        -0.000557      0.011183      2.103161
     20.79920      9.87264     19.16122         0.019447      0.015857      2.104510
      1.48565      7.81501     20.62693        -0.022741      1.248698     -0.036773
     19.31350      7.81501     20.62693        -0.003284      1.275944     -0.044755
      4.45696      7.81501     20.62693         0.023498      1.281763     -0.034810
     22.28480      7.81501     20.62693        -0.013145      1.270157     -0.030438
      1.48565     11.93026     20.62693         0.028126     -1.280339     -0.043751
     19.31350     11.93026     20.62693        -0.009402     -1.285151     -0.044271
      4.45696     11.93026     20.62693        -0.007781     -1.285934     -0.025396
     22.28480     11.93026     20.62693        -0.005971     -1.260279     -0.052305
      0.00000      9.87264     21.74323         0.004906      0.000464      2.287389
     17.82780      9.87264     21.74323         0.009068     -0.007937      2.275445
      2.97131      9.87264     21.74323         0.000592     -0.021613      2.299277
     20.79920      9.87264     21.74323        -0.018421      0.009776      2.303256
      5.94262      9.87264      5.99384         0.001974     -0.011649     -2.284290
     23.77050      9.87264      5.99384        -0.017844      0.013002     -2.271440
      8.91392      9.87264      5.99384        -0.011347      0.001250     -2.297280
     26.74180      9.87264      5.99384        -0.007355      0.002742     -2.298048
      7.42827      7.81501      7.11014        -0.003727      1.248172      0.058368
     25.25610      7.81501      7.11014        -0.002396      1.257968      0.055739
     10.39958      7.81501      7.11014        -0.024726      1.293927      0.036515
     28.22740      7.81501      7.11014        -0.016412      1.259931      0.028712
      7.42827     11.93026      7.11014         0.011939     -1.303550      0.042603
     25.25610     11.93026      7.11014         0.007882     -1.267776      0.060222
     10.39958     11.93026      7.11014        -0.015224     -1.312688      0.030443
     28.22740     11.93026      7.11014        -0.006506     -1.277145      0.060475
      5.94262      9.87264      8.57585        -0.020145     -0.021773     -2.088365
     23.77050      9.87264      8.57585         0.005371      0.027849     -2.092353
      8.91392      9.87264      8.57585         0.015524     -0.004501     -2.110844
     26.74180      9.87264      8.57585         0.001809     -0.016324     -2.081290
      5.94262      6.58176      9.27660        -0.030716      0.008563      2.078675
     23.77050      6.58176      9.27660         0.017523      0.015817      2.102994
      8.91392      6.58176      9.27660        -0.023924      0.011933      2.128680
     26.74180      6.58176      9.27660         0.000712      0.008855      2.087745
      7.42827     11.18978     10.56495         0.029509     -0.033773     -0.014138
     25.25610     11.18978     10.56495        -0.003480     -0.075737     -0.001947
     10.39958     11.18978     10.56495        -0.021815     -0.046466     -0.000239
     28.22740     11.18978     10.56495         0.018121     -0.025858     -0.010492
      7.42827      8.55549     10.56495         0.015747      0.054363      0.014719
     25.25610      8.55549     10.56495         0.003271      0.076891      0.013317
     10.39958      8.55549     10.56495        -0.012089      0.023888      0.000738
     28.22740      8.55549     10.56495         0.004592      0.041020     -0.007962
      5.94262      6.58176     11.85855        -0.029784      0.006387      1.407611
     23.77050      6.58176     11.85855        -0.000175      0.021059      1.376684
      8.91392      6.58176     11.85855        -0.016483      0.002196      1.376274
     26.74180      6.58176     11.85855        -0.000365      0.001958      1.377679
      5.94262      9.87264     12.57352        -0.007530      0.034341     -1.098093
     23.77050      9.87264     12.57352        -0.003480     -0.013466     -1.103461
      8.91392      9.87264     12.57352        -0.001678     -0.017295     -1.102398
     26.74180      9.87264     12.57352        -0.019772      0.018727     -1.115404
      7.42827      7.86853     13.86853         0.016271      0.569561     -0.005717
     25.25610      7.86853     13.86853         0.006534      0.569170     -0.005595
     10.39958      7.86853     13.86853         0.010263      0.562628      0.006299
     28.22740      7.86853     13.86853         0.004263      0.555511      0.003122
      7.42827     11.87674     13.86853        -0.001042     -0.524626      0.019153
     25.25610     11.87674     13.86853         0.006568     -0.523987     -0.007110
     10.39958     11.87674     13.86853        -0.014628     -0.543524     -0.004254
     28.22740     11.87674     13.86853         0.001674     -0.575941     -0.017355
      5.94262      9.87264     15.16355        -0.007129     -0.024168      1.098808
     23.77050      9.87264     15.16355        -0.008486     -0.000878      1.113171
      8.91392      9.87264     15.16355        -0.024147     -0.003636      1.098169
     26.74180      9.87264     15.16355         0.008396     -0.012439      1.097446
      5.94262      6.58176     15.87852        -0.026436     -0.011657     -1.385117
     23.77050      6.58176     15.87852         0.005936     -0.005561     -1.397418
      8.91392      6.58176     15.87852        -0.002660     -0.003614     -1.393852
     26.74180      6.58176     15.87852         0.000240     -0.014634     -1.348471
      7.42827     11.18978     17.17212         0.024969     -0.065781     -0.008163
     25.25610     11.18978     17.17212        -0.023165     -0.060818      0.007619
     10.39958     11.18978     17.17212        -0.024764     -0.048588     -0.022996
     28.22740     11.18978     17.17212         0.006310     -0.065470     -0.017842
      7.42827      8.55549     17.17212         0.010866      0.070690     -0.007074
     25.25610      8.55549     17.17212         0.006470      0.060606      0.009938
     10.39958      8.55549     17.17212        -0.002058      0.056674     -0.008584
     28.22740      8.55549     17.17212         0.011949      0.069890      0.006887
      5.94262      6.58176     18.46047        -0.003484     -0.010406     -2.081612
     23.77050      6.58176     18.46047         0.019123     -0.021706     -2.071330
      8.91392      6.58176     18.46047         0.003666     -0.011319     -2.108674
     26.74180      6.58176     18.46047        -0.008022      0.016525     -2.103142
      5.94262      9.87264     19.16122        -0.026814     -0.007659      2.109502
     23.77050      9.87264     19.16122        -0.027184     -0.004918      2.124147
      8.91392      9.87264     19.16122        -0.000908      0.022120      2.099593
     26.74180      9.87264     19.16122        -0.018258      0.016252      2.094772
      7.42827      7.81501     20.62693         0.015145      1.295526     -0.059896
     25.25610      7.81501     20.62693        -0.008724      1.245528     -0.035320
     10.39958      7.81501     20.62693        -0.026442      1.266288     -0.063499
     28.22740      7.81501     20.62693         0.002049      1.264426     -0.054758
      7.42827     11.93026     20.62693        -0.010729     -1.305904     -0.044522
     25.25610     11.93026     20.62693        -0.007614     -1.278643     -0.040903
     10.39958     11.93026     20.62693         0.008786     -1.311589     -0.039880
     28.22740     11.93026     20.62693        -0.017864     -1.294456     -0.067217
      5.94262      9.87264     21.74323         0.019230      0.000668      2.298437
     23.77050      9.87264     21.74323        -0.017920      0.007460      2.316573
      8.91392      9.87264     21.74323        -0.016078     -0.001505      2.298475
     26.74180      9.87264     21.74323        -0.008891      0.002638      2.269347
     11.88523      9.87264      5.99384        -0.004082      0.004199     -2.291863
     29.71310      9.87264      5.99384         0.001457      0.004245     -2.304956
     14.85654      9.87264      5.99384        -0.003310      0.003072     -2.295945
     32.68440      9.87264      5.99384         0.019553      0.014873     -2.303385
     13.37089      7.81501      7.11014         0.009821      1.302519      0.028076
     31.19870      7.81501      7.11014        -0.027341      1.270113      0.030663
     16.34219      7.81501      7.11014        -0.009538      1.279853      0.046058
     34.17000      7.81501      7.11014         0.011312      1.271749      0.030519
     13.37089     11.93026      7.11014         0.008656     -1.288729      0.034657
     31.19870     11.93026      7.11014         0.012487     -1.275052      0.036087
     16.34219     11.93026      7.11014        -0.016030     -1.281445      0.043111
     34.17000     11.93026      7.11014        -0.006641     -1.267036      0.051560
     11.88523      9.87264      8.57585         0.010920      0.015948     -2.086987
     29.71310      9.87264      8.57585         0.000880     -0.010640     -2.119089
     14.85654      9.87264      8.57585         0.020701     -0.025185     -2.098620
     32.68440      9.87264      8.57585         0.017072     -0.017298     -2.112838
     11.88523      6.58176      9.27660        -0.028023     -0.009601      2.107584
     29.71310      6.58176      9.27660        -0.005130     -0.003281      2.111877
     14.85654      6.58176      9.27660        -0.011390     -0.001082      2.123255
     32.68440      6.58176      9.27660        -0.026649      0.004455      2.084285
     13.37089     11.18978     10.56495         0.014953     -0.034086      0.018438
     31.19870     11.18978     10.56495        -0.059949     -0.047612     -0.003637
     16.34219     11.18978     10.56495        -0.027319     -0.030328     -0.020545
     34.17000     11.18978     10.56495         0.009143     -0.060494     -0.003222
     13.37089      8.55549     10.56495        -0.010071      0.046628      0.011373
     31.19870      8.55549     10.56495         0.016188      0.075704     -0.003276
     16.34219      8.55549     10.56495         0.015073      0.084240      0.016730
     34.17000      8.55549     10.56495        -0.016275      0.035985      0.021456
     11.88523      6.58176     11.85855         0.027599     -0.002887      1.378874
     29.71310      6.58176     11.85855        -0.011255      0.009719      1.380399
     14.85654      6.58176     11.85855        -0.003853      0.004322      1.375798
     32.68440      6.58176     11.85855         0.008054     -0.023287      1.372196
     11.88523      9.87264     12.57352        -0.007722      0.011149     -1.115463
     29.71310      9.87264     12.57352        -0.005289      0.011308     -1.096611
     14.85654      9.87264     12.57352        -0.031982     -0.015153     -1.110989
     32.68440      9.87264     12.57352        -0.014028     -0.010263     -1.116448
     13.37089      7.86853     13.86853        -0.011141      0.551692     -0.009710
     31.19870      7.86853     13.86853        -0.011299      0.532714     -0.013169
     16.34219      7.86853     13.86853        -0.020032      0.546280      0.010344
     34.17000      7.86853     13.86853        -0.022173      0.541903      0.007096
     13.37089     11.87674     13.86853        -0.012872     -0.543245     -0.004078
     31.19870     11.87674     13.86853        -0.003001     -0.523733     -0.001435
     16.34219     11.87674     13.86853        -0.019549     -0.602284      0.002536
     34.17000     11.87674     13.86853         0.007670     -0.523090     -0.006136
     11.88523      9.87264     15.16355         0.001099      0.015989      1.129776
     29.71310      9.87264     15.16355         0.006631     -0.030070      1.116401
     14.85654      9.87264     15.16355         0.004100      0.021504      1.113788
     32.68440      9.87264     15.16355         0.006742     -0.002375      1.108372
     11.88523      6.58176     15.87852         0.041776     -0.002307     -1.377566
     29.71310      6.58176     15.87852         0.000140      0.001459     -1.357499
     14.85654      6.58176     15.87852        -0.017077      0.003612     -1.381494
     32.68440      6.58176     15.87852        -0.000658     -0.015539     -1.351886
     13.37089     11.18978     17.17212        -0.009267     -0.054140      0.005496
     31.19870     11.18978     17.17212        -0.009969     -0.065447      0.007047
     16.34219     11.18978     17.17212        -0.002815     -0.054644     -0.007106
     34.17000     11.18978     17.17212        -0.014642     -0.066879      0.004247
     13.37089      8.55549     17.17212        -0.022486      0.040189     -0.022449
     31.19870      8.55549     17.17212        -0.005912      0.058772     -0.029017
     16.34219      8.55549     17.17212         0.004038      0.064147      0.004048
     34.17000      8.55549     17.17212         0.008903      0.032998     -0.008166
     11.88523      6.58176     18.46047         0.010379      0.002378     -2.084133
     29.71310      6.58176     18.46047         0.009703      0.012154     -2.107614
     14.85654      6.58176     18.46047         0.008638      0.004546     -2.083542
     32.68440      6.58176     18.46047         0.026772      0.002951     -2.139729
     11.88523      9.87264     19.16122        -0.015854     -0.011156      2.079837
     29.71310      9.87264     19.16122         0.006733      0.004213      2.116351
     14.85654      9.87264     19.16122        -0.010443      0.015822      2.098709
     32.68440      9.87264     19.16122         0.016358     -0.022941      2.098358
     13.37089      7.81501     20.62693         0.005729      1.303804     -0.027295
     31.19870      7.81501     20.62693        -0.015397      1.296492     -0.025631
     16.34219      7.81501     20.62693        -0.000430      1.277416     -0.056616
     34.17000      7.81501     20.62693         0.007135      1.314545     -0.045155
     13.37089     11.93026     20.62693        -0.004996     -1.310066     -0.055577
     31.19870     11.93026     20.62693         0.011228     -1.280923     -0.039663
     16.34219     11.93026     20.62693         0.025626     -1.280795     -0.035912
     34.17000     11.93026     20.62693         0.004147     -1.269835     -0.045913
     11.88523      9.87264     21.74323        -0.018926     -0.025157      2.269392
     29.71310      9.87264     21.74323         0.033992      0.013564      2.287895
     14.85654      9.87264     21.74323         0.011086     -0.018036      2.264484
     32.68440      9.87264     21.74323         0.007851     -0.018670      2.289546
      0.00000     16.45439      5.99384        -0.015020     -0.012007     -2.296232
     17.82780     16.45439      5.99384        -0.008488      0.001175     -2.293332
      2.97131     16.45439      5.99384         0.031878     -0.018010     -2.310012
     20.79920     16.45439      5.99384        -0.013010      0.000337     -2.311084
      1.48565     14.39677      7.11014        -0.014300      1.264631      0.067732
     19.31350     14.39677      7.11014        -0.016675      1.250000      0.053579
      4.45696     14.39677      7.11014         0.007602      1.285603      0.027647
     22.28480     14.39677      7.11014        -0.009891      1.271901      0.043659
      1.48565     18.51202      7.11014        -0.014986     -1.245248      0.043364
     19.31350     18.51202      7.11014        -0.028611     -1.260968      0.061730
      4.45696     18.51202      7.11014         0.006724     -1.296570      0.052884
     22.28480     18.51202      7.11014        -0.008330     -1.235503      0.036370
      0.00000     16.45439      8.57585        -0.009095     -0.000970     -2.125804
     17.82780     16.45439      8.57585         0.002229      0.013798     -2.092805
      2.97131     16.45439      8.57585        -0.005382      0.004468     -2.093868
     20.79920     16.45439      8.57585        -0.002459      0.017073     -2.093288
      0.00000     13.16351      9.27660         0.008332      0.002142      2.128260
     17.82780     13.16351      9.27660         0.000937     -0.000778      2.101056
      2.97131     13.16351      9.27660         0.011589     -0.003072      2.092583
     20.79920     13.16351      9.27660         0.021333      0.003051      2.125974
      1.48565     17.77154     10.56495         0.009283     -0.037589      0.013040
     19.31350     17.77154     10.56495        -0.012365     -0.055037      0.000854
      4.45696     17.77154     10.56495         0.023894     -0.042031     -0.008185
     22.28480     17.77154     10.56495         0.003039     -0.053438      0.021180
      1.48565     15.13724     10.56495         0.012166      0.041408     -0.001759
     19.31350     15.13724     10.56495        -0.039446      0.038802     -0.001463
      4.45696     15.13724     10.56495         0.006238      0.034909      0.017304
     22.28480     15.13724     10.56495         0.024143      0.071157     -0.022339
      0.00000     13.16351     11.85855        -0.013734     -0.013330      1.396681
     17.82780     13.16351     11.85855         0.002480     -0.002266      1.366501
      2.97131     13.16351     11.85855         0.008318      0.008912      1.407991
     20.79920     13.16351     11.85855         0.013425      0.001091      1.392255
      0.00000     16.45439     12.57352        -0.025076      0.000563     -1.134611
     17.82780     16.45439     12.57352        -0.016705     -0.002072     -1.103116
      2.97131     16.45439     12.57352         0.026012     -0.009674     -1.097838
     20.79920     16.45439     12.57352        -0.000424     -0.007484     -1.096267
      1.48565     14.45029     13.86853         0.007824      0.553352     -0.015986
     19.31350     14.45029     13.86853         0.004461      0.540459     -0.007262
      4.45696     14.45029     13.86853        -0.017002      0.562133     -0.008865
     22.28480     14.45029     13.86853         0.029895      0.527798      0.012710
      1.48565     18.45849     13.86853        -0.016095     -0.566756      0.015975
     19.31350     18.45849     13.86853        -0.040815     -0.544179      0.006285
      4.45696     18.45849     13.86853        -0.002243     -0.560293      0.011155
     22.28480     18.45849     13.86853        -0.001829     -0.517627      0.029466
      0.00000     16.45439     15.16355         0.003939      0.022340      1.091242
     17.82780     16.45439     15.16355         0.006696     -0.004601      1.145085
      2.97131     16.45439     15.16355         0.015312     -0.007558      1.118897
     20.79920     16.45439     15.16355        -0.012875      0.010627      1.110007
      0.00000     13.16351     15.87852        -0.019341      0.004492     -1.397382
     17.82780     13.16351     15.87852        -0.008012      0.013497     -1.369926
      2.97131     13.16351     15.87852        -0.000742      0.027267     -1.380841
     20.79920     13.16351     15.87852        -0.008818      0.005235     -1.387367
      1.48565     17.77154     17.17212        -0.001990     -0.024209      0.000043
     19.31350     17.77154     17.17212        -0.004999     -0.054227      0.002147
      4.45696     17.77154     17.17212         0.005120     -0.052227      0.012135
     22.28480     17.77154     17.17212         0.007973     -0.050796      0.004801
      1.48565     15.13724     17.17212         0.006269      0.066967      0.009919
     19.31350     15.13724     17.17212         0.003682      0.049085     -0.002192
      4.45696     15.13724     17.17212        -0.034512      0.052641      0.014947
     22.28480     15.13724     17.17212         0.000464      0.069795     -0.022255
      0.00000     13.16351     18.46047        -0.019022     -0.003664     -2.098128
     17.82780     13.16351     18.46047         0.004966     -0.020331     -2.151148
      2.97131     13.16351     18.46047         0.022415      0.015945     -2.085864
     20.79920     13.16351     18.46047        -0.015798      0.003408     -2.076631
      0.00000     16.45439     19.16122         0.001998      0.004690      2.083322
     17.82780     16.45439     19.16122        -0.001527     -0.014656      2.084662
      2.97131     16.45439     19.16122         0.017573      0.006059      2.093237
     20.79920     16.45439     19.16122         0.002278      0.011051      2.114349
      1.48565     14.39677     20.62693        -0.006493      1.282889     -0.055206
     19.31350     14.39677     20.62693         0.035135      1.285644     -0.047134
      4.45696     14.39677     20.62693         0.003552      1.296780     -0.053833
     22.28480     14.39677     20.62693        -0.006771      1.276510     -0.038388
      1.48565     18.51202     20.62693        -0.013991     -1.258773     -0.049575
     19.31350     18.51202     20.62693        -0.027318     -1.294325     -0.069087
      4.45696     18.51202     20.62693        -0.021375     -1.291882     -0.049926
     22.28480     18.51202     20.62693         0.021102     -1.292349     -0.030703
      0.00000     16.45439     21.74323        -0.020583      0.013908      2.277117
     17.82780     16.45439     21.74323         0.004244     -0.015364      2.288803
      2.97131     16.45439     21.74323         0.027526      0.012606      2.294647
     20.79920     16.45439     21.74323         0.004708     -0.007756      2.307560
      5.94262     16.45439      5.99384        -0.015063     -0.001310     -2.278649
     23.77050     16.45439      5.99384        -0.007231      0.012729     -2.303876
      8.91392     16.45439      5.99384         0.010120     -0.008208     -2.287279
     26.74180     16.45439      5.99384        -0.031608     -0.016727     -2.287407
      7.42827     14.39677      7.11014         0.030979      1.264330      0.057799
     25.25610     14.39677      7.11014        -0.006842      1.275874      0.070232
     10.39958     14.39677      7.11014        -0.010328      1.253187      0.036223
     28.22740     14.39677      7.11014         0.005155      1.242562      0.036129
      7.42827     18.51202      7.11014        -0.003908     -1.296508      0.045537
     25.25610     18.51202      7.11014        -0.002046     -1.266991      0.047585
     10.39958     18.51202      7.11014         0.005203     -1.272624      0.045896
     28.22740     18.51202      7.11014         0.029567     -1.246601      0.052214
      5.94262     16.45439      8.57585         0.010478     -0.021169     -2.094222
     23.77050     16.45439      8.57585        -0.014887      0.005335     -2.105186
      8.91392     16.45439      8.57585         0.016857     -0.011644     -2.096590
     26.74180     16.45439      8.57585        -0.007403     -0.000506     -2.101265
      5.94262     13.16351      9.27660        -0.017506      0.000458      2.115974
     23.77050     13.16351      9.27660        -0.000234      0.001417      2.079697
      8.91392     13.16351      9.27660        -0.020581     -0.005232      2.109710
     26.74180     13.16351      9.27660         0.009408      0.012256      2.062480
      7.42827     17.77154     10.56495        -0.013926     -0.071381     -0.005095
     25.25610     17.77154     10.56495         0.023983     -0.051258      0.001317
     10.39958     17.77154     10.56495         0.029763     -0.044256      0.016601
     28.22740     17.77154     10.56495         0.006029     -0.046750     -0.005712
      7.42827     15.13724     10.56495         0.008920      0.091626     -0.003876
     25.25610     15.13724     10.56495        -0.010627      0.030140     -0.009261
     10.39958     15.13724     10.56495         0.003014      0.040018      0.005328
     28.22740     15.13724     10.56495        -0.020377      0.099387     -0.002495
      5.94262     13.16351     11.85855         0.010458      0.034553      1.386981
     23.77050     13.16351     11.85855         0.026458     -0.012159      1.372857
      8.91392     13.16351     11.85855        -0.020219     -0.000968      1.412017
     26.74180     13.16351     11.85855        -0.012234      0.013774      1.377678
      5.94262     16.45439     12.57352        -0.002956      0.007567     -1.102924
     23.77050     16.45439     12.57352         0.013312      0.012429     -1.148782
      8.91392     16.45439     12.57352         0.004895     -0.015451     -1.113536
     26.74180     16.45439     12.57352        -0.006772     -0.002119     -1.090021
      7.42827     14.45029     13.86853         0.011036      0.547908      0.009820
     25.25610     14.45029     13.86853         0.002262      0.544975     -0.026915
     10.39958     14.45029     13.86853        -0.012322      0.544606     -0.001773
     28.22740     14.45029     13.86853         0.000480      0.538196      0.009218
      7.42827     18.45849     13.86853         0.003506     -0.556330     -0.009600
     25.25610     18.45849     13.86853         0.013436     -0.539240     -0.006492
     10.39958     18.45849     13.86853        -0.016085     -0.570529     -0.007176
     28.22740     18.45849     13.86853         0.022138     -0.549539     -0.000344
      5.94262     16.45439     15.16355        -0.020742     -0.014003      1.094300
     23.77050     16.45439     15.16355        -0.004669      0.011903      1.107150
      8.91392     16.45439     15.16355         0.003866     -0.013738      1.111290
     26.74180     16.45439     15.16355        -0.007943     -0.011450      1.086862
      5.94262     13.16351     15.87852        -0.022537      0.001493     -1.378509
     23.77050     13.16351     15.87852         0.013368     -0.016089     -1.380168
      8.91392     13.16351     15.87852        -0.009328      0.022507     -1.354232
     26.74180     13.16351     15.87852         0.006271      0.002052     -1.394537
      7.42827     17.77154     17.17212        -0.013884     -0.044624     -0.005891
     25.25610     17.77154     17.17212         0.007882     -0.065683     -0.032331
     10.39958     17.77154     17.17212         0.005681     -0.037425      0.001401
     28.22740     17.77154     17.17212        -0.032087     -0.082843     -0.013463
      7.42827     15.13724     17.17212         0.005760      0.038054      0.004230
     25.25610     15.13724     17.17212         0.000086      0.061226      0.020982
     10.39958     15.13724     17.17212        -0.014195      0.064613      0.011813
     28.22740     15.13724     17.17212         0.008833      0.059595      0.000636
      5.94262     13.16351     18.46047         0.010618      0.003286     -2.094162
     23.77050     13.16351     18.46047        -0.011243      0.015908     -2.074308
      8.91392     13.16351     18.46047        -0.000992     -0.005044     -2.112592
     26.74180     13.16351     18.46047        -0.001478     -0.023116     -2.093479
      5.94262     16.45439     19.16122         0.001009     -0.035051      2.085620
     23.77050     16.45439     19.16122         0.005014      0.002183      2.109088
      8.91392     16.45439     19.16122        -0.006565      0.012576      2.082184
     26.74180     16.45439     19.16122        -0.002744      0.020184      2.098613
      7.42827     14.39677     20.62693         0.022234      1.262974     -0.041987
     25.25610     14.39677     20.62693         0.007609      1.263379     -0.043703
     10.39958     14.39677     20.62693        -0.012737      1.274604     -0.033599
     28.22740     14.39677     20.62693         0.048299      1.257900     -0.029565
      7.42827     18.51202     20.62693         0.017241     -1.263894     -0.041543
     25.25610     18.51202     20.62693         0.031647     -1.267194     -0.043538
     10.39958     18.51202     20.62693        -0.013288     -1.268314     -0.050872
     28.22740     18.51202     20.62693         0.025748     -1.294555     -0.030723
      5.94262     16.45439     21.74323        -0.024219      0.004635      2.271652
     23.77050     16.45439     21.74323        -0.019276     -0.005899      2.289646
      8.91392     16.45439     21.74323         0.014686      0.008579      2.276958
     26.74180     16.45439     21.74323         0.005976      0.016329      2.302887
     11.88523     16.45439      5.99384        -0.007335      0.010850     -2.269219
     29.71310     16.45439      5.99384        -0.033840      0.012049     -2.290249
     14.85654     16.45439      5.99384         0.022319     -0.004471     -2.254955
     32.68440     16.45439      5.99384        -0.014862     -0.011413     -2.314971
     13.37089     14.39677      7.11014         0.000638      1.285200      0.047865
     31.19870     14.39677      7.11014        -0.013716      1.262688      0.047312
     16.34219     14.39677      7.11014         0.000823      1.284702      0.057229
     34.17000     14.39677      7.11014         0.011227      1.250451      0.032205
     13.37089     18.51202      7.11014        -0.010438     -1.290700      0.035031
     31.19870     18.51202      7.11014         0.015308     -1.270038      0.050930
     16.34219     18.51202      7.11014        -0.025635     -1.287101      0.037671
     34.17000     18.51202      7.11014         0.003083     -1.252057      0.062024
     11.88523     16.45439      8.57585         0.030453     -0.001490     -2.112707
     29.71310     16.45439      8.57585         0.001764     -0.017303     -2.121491
     14.85654     16.45439      8.57585         0.008978      0.003526     -2.105326
     32.68440     16.45439      8.57585        -0.014689      0.005103     -2.120122
     11.88523     13.16351      9.27660        -0.024466      0.010767      2.136337
     29.71310     13.16351      9.27660        -0.004061      0.036861      2.106285
     14.85654     13.16351      9.27660         0.013810     -0.014876      2.083857
     32.68440     13.16351      9.27660         0.008779     -0.017196      2.112067
     13.37089     17.77154     10.56495         0.007812     -0.073938      0.011784
     31.19870     17.77154     10.56495        -0.012554     -0.053322      0.007008
     16.34219     17.77154     10.56495         0.005720     -0.090630      0.007452
     34.17000     17.77154     10.56495        -0.010340     -0.063848      0.032338
     13.37089     15.13724     10.56495        -0.003357      0.056004     -0.004374
     31.19870     15.13724     10.56495         0.015647      0.042291     -0.005974
     16.34219     15.13724     10.56495         0.032188      0.073652     -0.014906
     34.17000     15.13724     10.56495        -0.027188      0.017991     -0.003897
     11.88523     13.16351     11.85855        -0.011936      0.006488      1.383711
     29.71310     13.16351     11.85855         0.014955     -0.000972      1.408092
     14.85654     13.16351     11.85855         0.025069      0.020633      1.389955
     32.68440     13.16351     11.85855         0.011698     -0.005695      1.382150
     11.88523     16.45439     12.57352        -0.025899     -0.003537     -1.098791
     29.71310     16.45439     12.57352         0.024786     -0.020739     -1.133912
     14.85654     16.45439     12.57352        -0.028414     -0.011387     -1.130913
     32.68440     16.45439     12.57352         0.007983      0.010993     -1.107833
     13.37089     14.45029     13.86853         0.002804      0.554507     -0.003605
     31.19870     14.45029     13.86853         0.018245      0.556037     -0.029251
     16.34219     14.45029     13.86853         0.006835      0.525196      0.020836
     34.17000     14.45029     13.86853        -0.009215      0.535283      0.018194
     13.37089     18.45849     13.86853         0.023451     -0.551005     -0.020317
     31.19870     18.45849     13.86853        -0.001140     -0.507863     -0.010764
     16.34219     18.45849     13.86853         0.015543     -0.539327      0.022938
     34.17000     18.45849     13.86853         0.028533     -0.524306     -0.004147
     11.88523     16.45439     15.16355        -0.005187      0.000195      1.109938
     29.71310     16.45439     15.16355        -0.001682      0.002263      1.094115
     14.85654     16.45439     15.16355         0.005444      0.015685      1.095487
     32.68440     16.45439     15.16355        -0.032919      0.004072      1.114420
     11.88523     13.16351     15.87852         0.005399     -0.019593     -1.389357
     29.71310     13.16351     15.87852         0.006625     -0.003407     -1.380989
     14.85654     13.16351     15.87852         0.007513     -0.019600     -1.355585
     32.68440     13.16351     15.87852        -0.016490     -0.010008     -1.381276
     13.37089     17.77154     17.17212         0.005939     -0.028942     -0.020172
     31.19870     17.77154     17.17212        -0.014939     -0.029754     -0.019369
     16.34219     17.77154     17.17212        -0.016533     -0.064502      0.022689
     34.17000     17.77154     17.17212        -0.004768     -0.076015     -0.019599
     13.37089     15.13724     17.17212        -0.025585      0.058192     -0.008815
     31.19870     15.13724     17.17212        -0.006654      0.058685     -0.005530
     16.34219     15.13724     17.17212        -0.009682      0.043225      0.026596
     34.17000     15.13724     17.17212         0.001862      0.040041      0.005225
     11.88523     13.16351     18.46047         0.007183      0.012456     -2.090632
     29.71310     13.16351     18.46047        -0.011100     -0.008030     -2.088330
     14.85654     13.16351     18.46047        -0.011982      0.009230     -2.099068
     32.68440     13.16351     18.46047        -0.009504      0.029784     -2.083430
     11.88523     16.45439     19.16122         0.005534     -0.003431      2.108134
     29.71310     16.45439     19.16122        -0.002750      0.005417      2.073626
     14.85654     16.45439     19.16122        -0.001574      0.030157      2.086902
     32.68440     16.45439     19.16122        -0.007387      0.009539      2.088028
     13.37089     14.39677     20.62693        -0.002655      1.281175     -0.037853
     31.19870     14.39677     20.62693         0.017867      1.272502     -0.037986
     16.34219     14.39677     20.62693         0.005221      1.274632     -0.065363
     34.17000     14.39677     20.62693         0.033940      1.298409     -0.046354
     13.37089     18.51202     20.62693        -0.014235     -1.269313     -0.048040
     31.19870     18.51202     20.62693        -0.002492     -1.273355     -0.040187
     16.34219     18.51202     20.62693         0.010204     -1.295619     -0.052334
     34.17000     18.51202     20.62693         0.019572     -1.281431     -0.053364
     11.88523     16.45439     21.74323         0.015691      0.005043      2.270955
     29.71310     16.45439     21.74323         0.013884     -0.006875      2.275831
     14.85654     16.45439     21.74323         0.011812     -0.012790      2.255524
     32.68440     16.45439     21.74323         0.023157      0.012980      2.267812
 -----------------------------------------------------------------------------------
    total drift:                               -0.545243      0.240197     -0.048482


--------------------------------------------------------------------------------------------------------



  FREE ENERGIE OF THE ION-ELECTRON SYSTEM (eV)
  ---------------------------------------------------
  free  energy   TOTEN  =    -12614.47615450 eV

  energy  without entropy=   -12614.47615450  energy(sigma->0) =   -12614.47615450



--------------------------------------------------------------------------------------------------------


    POTLOK:  cpu time      1.0047: real time      0.8362


--------------------------------------------------------------------------------------------------------


     LOOP+:  cpu time    367.8986: real time    298.5022
    4ORBIT:  cpu time      0.0000: real time      0.0000

 total amount of memory used by VASP MPI-rank0  1518979. kBytes
=======================================================================

   base                                    :      30000. kBytes
   nonlr-proj                              :     807687. kBytes
   fftplans                                :      63636. kBytes
   grid                                    :     587030. kBytes
   one-center                              :       8398. kBytes
   wavefun                                 :      22228. kBytes

  
  
 General timing and accounting informations for this job:
 ========================================================
  
                  Total CPU time used (sec):      584.365
                            User time (sec):      525.266
                          System time (sec):       59.099
                         Elapsed time (sec):      513.610
  
                   Maximum memory used (kb):     3823020.
                   Average memory used (kb):          N/A
  
                          Minor page faults:      2308051
                          Major page faults:          233
                 Voluntary context switches:         7339
