 vasp.6.5.1 10Mar25 (build Nov  5 2025 10:40:17) complex                         
 executed on        HPECrayEX_GCC date 2025.12.21  03:42:06
 running 9216 mpi-ranks, with    1 threads/rank, on   32 nodes
 distrk:  each k-point on 2304 cores,    4 groups
 distr:  one band on NCORE=   4 cores,  576 groups


--------------------------------------------------------------------------------------------------------


 INCAR:
   AEXX = 0.25
   ENCUT = 450
   ICORELEVEL = 0
   NSW = 0
   LSORBIT = True
   EDIFF = 1e-06
   EDIFFG = -0.01
   ALGO = All
   ADDGRID = True
   HFSCREEN = 0.2
   IBRION = -1
   ICHARG = 1
   ISIF = 2
   ISYM = 0
   ISMEAR = 0
   LASPH = True
   LHFCALC = True
   LORBIT = 11
   LREAL = False
   LVHAR = True
   LWAVE = True
   NEDOS = 2000
   NELM = 6
   PREC = Accurate
   PRECFOCK = Fast
   SIGMA = 0.05
   NELECT = 588
   NCORE = 4
   KPAR = 4

 POTCAR:    PAW_PBE Cd 06Sep2000                  
 POTCAR:    PAW_PBE Te 08Apr2002                  
 -----------------------------------------------------------------------------
|                                                                             |
|           W    W    AA    RRRRR   N    N  II  N    N   GGGG   !!!           |
|           W    W   A  A   R    R  NN   N  II  NN   N  G    G  !!!           |
|           W    W  A    A  R    R  N N  N  II  N N  N  G       !!!           |
|           W WW W  AAAAAA  RRRRR   N  N N  II  N  N N  G  GGG   !            |
|           WW  WW  A    A  R   R   N   NN  II  N   NN  G    G                |
|           W    W  A    A  R    R  N    N  II  N    N   GGGG   !!!           |
|                                                                             |
|     You requested a magnetic or noncollinear calculation, but did not       |
|     specify the initial magnetic moment with the MAGMOM tag. Note that      |
|     a default of 1 will be used for all atoms. This ferromagnetic setup     |
|     may break the symmetry of the crystal, in particular it may rule        |
|     out finding an antiferromagnetic solution. Thence, we recommend         |
|     setting the initial magnetic moment manually or verifying carefully     |
|     that this magnetic setup is desired.                                    |
|                                                                             |
 -----------------------------------------------------------------------------

 POTCAR:    PAW_PBE Cd 06Sep2000                  
   VRHFIN =Cd : s2 d10                                                                              
   LEXCH  = PE                                                                                      
   EATOM  =  1293.1815 eV,   95.0462 Ry                                                             
                                                                                                    
   TITEL  = PAW_PBE Cd 06Sep2000                                                                    
   LULTRA =        F    use ultrasoft PP ?                                                          
   IUNSCR =        1    unscreen: 0-lin 1-nonlin 2-no                                               
   RPACOR =    2.000    partial core radius                                                         
   POMASS =  112.411; ZVAL   =   12.000    mass and valenz                                          
   RCORE  =    2.300    outmost cutoff radius                                                       
   RWIGS  =    2.980; RWIGS  =    1.577    wigner-seitz radius (au A)                               
   ENMAX  =  274.336; ENMIN  =  205.752 eV                                                          
   RCLOC  =    2.054    cutoff for local pot                                                        
   LCOR   =        T    correct aug charges                                                         
   LPAW   =        T    paw PP                                                                      
   EAUG   =  456.106                                                                                
   DEXC   =    0.000                                                                                
   RMAX   =    2.358    core radius for proj-oper                                                   
   RAUG   =    1.300    factor for augmentation sphere                                              
   RDEP   =    2.450    radius for radial grids                                                     
   RDEPT  =    1.955    core radius for aug-charge                                                  
                                                                                                    
   Atomic configuration                                                                             
   12 entries                                                                                       
     n  l   j            E        occ.                                                              
     1  0  0.50    -26519.7817   2.0000                                                             
     2  0  0.50     -3936.9612   2.0000                                                             
     2  1  1.50     -3532.2230   6.0000                                                             
     3  0  0.50      -733.7908   2.0000                                                             
     3  1  1.50      -601.0792   6.0000                                                             
     3  2  2.50      -393.5307  10.0000                                                             
     4  0  0.50      -105.8977   2.0000                                                             
     4  1  1.50       -66.9488   6.0000                                                             
     4  2  2.50       -11.7331  10.0000                                                             
     5  0  0.50        -5.6592   2.0000                                                             
     5  1  0.50        -1.3606   0.0000                                                             
     4  3  2.50        -1.3606   0.0000                                                             
   Description                                                                                      
     l       E           TYP  RCUT    TYP  RCUT                                                     
     2    -11.7331479     23  2.300                                                                 
     2    -13.0937305     23  2.300                                                                 
     0     -5.6591502     23  2.300                                                                 
     0     -1.5561433     23  2.300                                                                 
     1     -2.7211652     23  2.300                                                                 
     1      8.3548275     23  2.300                                                                 
  local pseudopotential read in
  partial core-charges read in
  partial kinetic energy density read in
  atomic valenz-charges read in
  non local Contribution for L=           2  read in
    real space projection operators read in
  non local Contribution for L=           2  read in
    real space projection operators read in
  non local Contribution for L=           0  read in
    real space projection operators read in
  non local Contribution for L=           0  read in
    real space projection operators read in
  non local Contribution for L=           1  read in
    real space projection operators read in
  non local Contribution for L=           1  read in
    real space projection operators read in
    PAW grid and wavefunctions read in

   number of l-projection  operators is LMAX  =           6
   number of lm-projection operators is LMMAX =          18

 POTCAR:    PAW_PBE Te 08Apr2002                  
   VRHFIN =Te: s2p4                                                                                 
   LEXCH  = PE                                                                                      
   EATOM  =   223.2721 eV,   16.4100 Ry                                                             
                                                                                                    
   TITEL  = PAW_PBE Te 08Apr2002                                                                    
   LULTRA =        F    use ultrasoft PP ?                                                          
   IUNSCR =        1    unscreen: 0-lin 1-nonlin 2-no                                               
   RPACOR =    2.200    partial core radius                                                         
   POMASS =  127.600; ZVAL   =    6.000    mass and valenz                                          
   RCORE  =    2.300    outmost cutoff radius                                                       
   RWIGS  =    2.900; RWIGS  =    1.535    wigner-seitz radius (au A)                               
   ENMAX  =  174.982; ENMIN  =  131.236 eV                                                          
   ICORE  =        3    local potential                                                             
   LCOR   =        T    correct aug charges                                                         
   LPAW   =        T    paw PP                                                                      
   EAUG   =  368.792                                                                                
   DEXC   =    0.000                                                                                
   RMAX   =    2.345    core radius for proj-oper                                                   
   RAUG   =    1.300    factor for augmentation sphere                                              
   RDEP   =    2.397    radius for radial grids                                                     
   RDEPT  =    2.174    core radius for aug-charge                                                  
                                                                                                    
   Atomic configuration                                                                             
   13 entries                                                                                       
     n  l   j            E        occ.                                                              
     1  0  0.50    -31621.2075   2.0000                                                             
     2  0  0.50     -4848.7941   2.0000                                                             
     2  1  1.50     -4352.1960   6.0000                                                             
     3  0  0.50      -964.9612   2.0000                                                             
     3  1  1.50      -803.6179   6.0000                                                             
     3  2  2.50      -559.8710  10.0000                                                             
     4  0  0.50      -164.3522   2.0000                                                             
     4  1  1.50      -114.3756   6.0000                                                             
     4  2  2.50       -41.6483  10.0000                                                             
     5  0  0.50       -15.1072   2.0000                                                             
     5  1  0.50        -5.9526   4.0000                                                             
     5  2  1.50        -5.4423   0.0000                                                             
     4  3  2.50        -5.4423   0.0000                                                             
   Description                                                                                      
     l       E           TYP  RCUT    TYP  RCUT                                                     
     0    -15.1072389     23  2.300                                                                 
     0    -16.4678215     23  2.300                                                                 
     1     -5.9526306     23  2.300                                                                 
     1     -2.4873968     23  2.300                                                                 
     2     -5.4423304     23  2.300                                                                 
     3     -1.3605826     23  2.300                                                                 
  local pseudopotential read in
  partial core-charges read in
  partial kinetic energy density read in
  atomic valenz-charges read in
  non local Contribution for L=           0  read in
    real space projection operators read in
  non local Contribution for L=           0  read in
    real space projection operators read in
  non local Contribution for L=           1  read in
    real space projection operators read in
  non local Contribution for L=           1  read in
    real space projection operators read in
  non local Contribution for L=           2  read in
    real space projection operators read in
    PAW grid and wavefunctions read in

   number of l-projection  operators is LMAX  =           5
   number of lm-projection operators is LMMAX =          13

 -----------------------------------------------------------------------------
|                                                                             |
|               ----> ADVICE to this user running VASP <----                  |
|                                                                             |
|     You have a (more or less) 'large supercell' and for larger cells it     |
|     might be more efficient to use real-space projection operators.         |
|     Therefore, try LREAL= Auto in the INCAR file.                           |
|     Mind: For very accurate calculation, you might also keep the            |
|     reciprocal projection scheme (i.e. LREAL=.FALSE.).                      |
|                                                                             |
 -----------------------------------------------------------------------------

  PAW_PBE Cd 06Sep2000                  :
 energy of atom  1       EATOM=-1293.1815
 kinetic energy error for atom=    0.0084 (will be added to EATOM!!)
  PAW_PBE Te 08Apr2002                  :
 energy of atom  2       EATOM= -223.2721
 kinetic energy error for atom=    0.0008 (will be added to EATOM!!)


 POSCAR: Cd33 Te32
  positions in direct lattice
  No initial velocities read in


 exchange-correlation table for PE
   RHO(1)=    0.500       N(1)  =     2000
   RHO(2)=  100.500       N(2)  =     4000



--------------------------------------------------------------------------------------------------------


 ion  position               nearest neighbor table
   1  0.004  0.996  0.004-  44 2.79  35 2.93  54 2.93  65 2.93  33 2.94
   2  0.001  0.999  0.497-  55 2.82  34 2.82  64 2.82  45 2.84
   3  0.001  0.503  0.001-  63 2.82  56 2.82  37 2.82  42 2.84
   4  1.000  0.501  0.499-  57 2.82  62 2.82  36 2.82  43 2.84
   5  0.497  0.999  0.001-  39 2.82  50 2.82  61 2.82  48 2.84
   6  0.499  0.000  0.499-  38 2.82  51 2.82  60 2.82  49 2.84
   7  0.499  0.501  1.000-  41 2.82  59 2.82  52 2.82  46 2.84
   8  0.501  0.499  0.501-  47 2.82  40 2.83  53 2.83  58 2.83
   9  0.001  0.251  0.253-  54 2.82  34 2.82  62 2.82  42 2.84
  10  0.004  0.254  0.746-  43 2.79  35 2.93  55 2.93  63 2.93  33 2.94
  11  1.000  0.749  0.251-  56 2.82  64 2.82  36 2.82  44 2.84
  12  0.001  0.747  0.749-  65 2.82  57 2.82  37 2.82  45 2.84
  13  0.499  0.250  0.251-  38 2.82  50 2.82  58 2.82  46 2.84
  14  0.497  0.251  0.749-  39 2.82  51 2.82  59 2.82  47 2.84
  15  0.501  0.751  0.249-  48 2.82  40 2.83  52 2.83  60 2.83
  16  0.499  0.749  0.750-  41 2.82  61 2.82  53 2.82  49 2.84
  17  0.251  0.000  0.251-  34 2.82  50 2.82  60 2.82  44 2.84
  18  0.253  0.999  0.749-  35 2.82  51 2.82  61 2.82  45 2.84
  19  0.249  0.499  0.249-  42 2.82  36 2.83  52 2.83  58 2.83
  20  0.251  0.501  0.750-  37 2.82  59 2.82  53 2.82  43 2.84
  21  0.749  0.999  0.253-  54 2.82  38 2.82  64 2.82  48 2.84
  22  0.746  0.996  0.746-  49 2.79  39 2.93  55 2.93  65 2.93  33 2.94
  23  0.750  0.501  0.251-  56 2.82  62 2.82  40 2.82  46 2.84
  24  0.749  0.503  0.749-  63 2.82  57 2.82  41 2.82  47 2.84
  25  0.253  0.251  0.001-  35 2.82  50 2.82  59 2.82  42 2.84
  26  0.251  0.250  0.499-  34 2.82  51 2.82  58 2.82  43 2.84
  27  0.251  0.749  1.000-  37 2.82  61 2.82  52 2.82  44 2.84
  28  0.249  0.751  0.501-  45 2.82  36 2.83  53 2.83  60 2.83
  29  0.746  0.254  0.004-  46 2.79  39 2.93  54 2.93  63 2.93  33 2.94
  30  0.749  0.251  0.497-  55 2.82  38 2.82  62 2.82  47 2.84
  31  0.749  0.747  0.001-  65 2.82  56 2.82  41 2.82  48 2.84
  32  0.750  0.749  0.499-  57 2.82  64 2.82  40 2.82  49 2.84
  33  0.875  0.125  0.875-   1 2.94  10 2.94  22 2.94  29 2.94  35 3.37  39 3.37  54 3.37  55 3.37
                            63 3.37  65 3.37
  34  0.127  0.125  0.375-  17 2.82  26 2.82   2 2.82   9 2.82
  35  0.133  0.125  0.875-  18 2.82  25 2.82  10 2.93   1 2.93  33 3.37
  36  0.126  0.625  0.375-   4 2.82  11 2.82  19 2.83  28 2.83
  37  0.127  0.625  0.875-  20 2.82  27 2.82   3 2.82  12 2.82
  38  0.623  0.125  0.375-  13 2.82   6 2.82  21 2.82  30 2.82
  39  0.617  0.125  0.875-  14 2.82   5 2.82  22 2.93  29 2.93  33 3.37
  40  0.624  0.625  0.375-  23 2.82  32 2.82   8 2.83  15 2.83
  41  0.623  0.625  0.875-   7 2.82  16 2.82  31 2.82  24 2.82
  42  0.125  0.375  0.125-  19 2.82   9 2.84  25 2.84   3 2.84
  43  0.127  0.377  0.623-  10 2.79   4 2.84  26 2.84  20 2.84
  44  0.127  0.873  0.127-   1 2.79  11 2.84  17 2.84  27 2.84
  45  0.125  0.875  0.625-  28 2.82  18 2.84   2 2.84  12 2.84
  46  0.623  0.377  0.127-  29 2.79  13 2.84  23 2.84   7 2.84
  47  0.625  0.375  0.625-   8 2.82  14 2.84  24 2.84  30 2.84
  48  0.625  0.875  0.125-  15 2.82  21 2.84   5 2.84  31 2.84
  49  0.623  0.873  0.623-  22 2.79  32 2.84   6 2.84  16 2.84
  50  0.375  0.125  0.127-  17 2.82  13 2.82   5 2.82  25 2.82
  51  0.375  0.125  0.623-   6 2.82  26 2.82  18 2.82  14 2.82
  52  0.375  0.625  0.126-   7 2.82  27 2.82  19 2.83  15 2.83
  53  0.375  0.625  0.624-  16 2.82  20 2.82   8 2.83  28 2.83
  54  0.875  0.125  0.133-   9 2.82  21 2.82   1 2.93  29 2.93  33 3.37
  55  0.875  0.125  0.617-  30 2.82   2 2.82  22 2.93  10 2.93  33 3.37
  56  0.875  0.625  0.127-  11 2.82  23 2.82   3 2.82  31 2.82
  57  0.875  0.625  0.623-   4 2.82  32 2.82  12 2.82  24 2.82
  58  0.375  0.376  0.375-  26 2.82  13 2.82  19 2.83   8 2.83
  59  0.375  0.377  0.875-   7 2.82  20 2.82  14 2.82  25 2.82
  60  0.375  0.874  0.375-   6 2.82  17 2.82  15 2.83  28 2.83
  61  0.375  0.873  0.875-  16 2.82  27 2.82   5 2.82  18 2.82
  62  0.875  0.377  0.375-   4 2.82  23 2.82   9 2.82  30 2.82
  63  0.875  0.383  0.875-  24 2.82   3 2.82  10 2.93  29 2.93  33 3.37
  64  0.875  0.873  0.375-  11 2.82  32 2.82   2 2.82  21 2.82
  65  0.875  0.867  0.875-  12 2.82  31 2.82   1 2.93  22 2.93  33 3.37


IMPORTANT INFORMATION: All symmetrisations will be switched off!
NOSYMM: (Re-)initialisation of all symmetry stuff for point group C_1.


----------------------------------------------------------------------------------------

                                     Primitive cell                                     

  volume of cell :    2241.2856

  direct lattice vectors                    reciprocal lattice vectors
    13.086768000  0.000000000  0.000000000     0.076413061  0.000000000  0.000000000
     0.000000000 13.086768000  0.000000000     0.000000000  0.076413061  0.000000000
     0.000000000  0.000000000 13.086768000     0.000000000  0.000000000  0.076413061

  length of vectors
    13.086768000 13.086768000 13.086768000     0.076413061  0.076413061  0.076413061

  position of ions in fractional coordinates (direct lattice)
     0.004485000  0.995515000  0.004485000
     0.001247000  0.998753000  0.496959000
     0.001247000  0.503041000  0.001247000
     0.999625000  0.501218000  0.498782000
     0.496959000  0.998753000  0.001247000
     0.498781000  0.000375000  0.498781000
     0.498781000  0.501219000  0.999625000
     0.500528000  0.499472000  0.500528000
     0.001247000  0.251247000  0.253040000
     0.004486000  0.254485000  0.745515000
     0.999625000  0.748782000  0.251218000
     0.001247000  0.746959000  0.748753000
     0.498782000  0.249625000  0.251219000
     0.496960000  0.251247000  0.748753000
     0.500528000  0.750528000  0.249472000
     0.498781000  0.748781000  0.750375000
     0.251219000  0.000375000  0.251219000
     0.253040000  0.998753000  0.748753000
     0.249472000  0.499472000  0.249472000
     0.251219000  0.501219000  0.750375000
     0.748753000  0.998753000  0.253040000
     0.745514000  0.995515000  0.745515000
     0.750375000  0.501219000  0.251219000
     0.748753000  0.503040000  0.748753000
     0.253040000  0.251247000  0.001247000
     0.251219000  0.249625000  0.498781000
     0.251219000  0.748781000  0.999625000
     0.249472000  0.750528000  0.500528000
     0.745514000  0.254485000  0.004485000
     0.748753000  0.251247000  0.496960000
     0.748753000  0.746959000  0.001247000
     0.750375000  0.748782000  0.498782000
     0.875000000  0.125000000  0.875000000
     0.126656000  0.125000000  0.375000000
     0.132779000  0.125000000  0.875000000
     0.125892000  0.625000000  0.375000000
     0.126656000  0.625000000  0.875000000
     0.623344000  0.125000000  0.375000000
     0.617221000  0.125000000  0.875000000
     0.624108000  0.625000000  0.375000000
     0.623344000  0.625000000  0.875000000
     0.124848000  0.374848000  0.124848000
     0.127488000  0.377488000  0.622512000
     0.127488000  0.872512000  0.127488000
     0.124848000  0.875152000  0.625152000
     0.622512000  0.377488000  0.127488000
     0.625152000  0.374848000  0.625152000
     0.625152000  0.875152000  0.124848000
     0.622512000  0.872512000  0.622512000
     0.375000000  0.125000000  0.126656000
     0.375000000  0.125000000  0.623344000
     0.375000000  0.625000000  0.125892000
     0.375000000  0.625000000  0.624108000
     0.875000000  0.125000000  0.132779000
     0.875000000  0.125000000  0.617221000
     0.875000000  0.625000000  0.126656000
     0.875000000  0.625000000  0.623344000
     0.375000000  0.375892000  0.375000000
     0.375000000  0.376656000  0.875000000
     0.375000000  0.874108000  0.375000000
     0.375000000  0.873344000  0.875000000
     0.875000000  0.376656000  0.375000000
     0.875000000  0.382779000  0.875000000
     0.875000000  0.873344000  0.375000000
     0.875000000  0.867221000  0.875000000

  ion indices of the primitive-cell ions
   primitive index   ion index
                 1           1
                 2           2
                 3           3
                 4           4
                 5           5
                 6           6
                 7           7
                 8           8
                 9           9
                10          10
                11          11
                12          12
                13          13
                14          14
                15          15
                16          16
                17          17
                18          18
                19          19
                20          20
                21          21
                22          22
                23          23
                24          24
                25          25
                26          26
                27          27
                28          28
                29          29
                30          30
                31          31
                32          32
                33          33
                34          34
                35          35
                36          36
                37          37
                38          38
                39          39
                40          40
                41          41
                42          42
                43          43
                44          44
                45          45
                46          46
                47          47
                48          48
                49          49
                50          50
                51          51
                52          52
                53          53
                54          54
                55          55
                56          56
                57          57
                58          58
                59          59
                60          60
                61          61
                62          62
                63          63
                64          64
                65          65

----------------------------------------------------------------------------------------



 KPOINTS: Automatically generated mesh            

Read explicit list of k-points.

 Found      8 k-points:

 Following reciprocal coordinates:
            Coordinates               Weight
  0.000000  0.000000  0.000000      0.125000
  0.500000  0.000000  0.000000      0.125000
  0.000000  0.500000  0.000000      0.125000
  0.500000  0.500000  0.000000      0.125000
  0.000000  0.000000  0.500000      0.125000
  0.500000  0.000000  0.500000      0.125000
  0.000000  0.500000  0.500000      0.125000
  0.500000  0.500000  0.500000      0.125000

 Following cartesian coordinates:
            Coordinates               Weight
  0.000000  0.000000  0.000000      0.125000
  0.038207  0.000000  0.000000      0.125000
  0.000000  0.038207  0.000000      0.125000
  0.038207  0.038207  0.000000      0.125000
  0.000000  0.000000  0.038207      0.125000
  0.038207  0.000000  0.038207      0.125000
  0.000000  0.038207  0.038207      0.125000
  0.038207  0.038207  0.038207      0.125000

 
 Subroutine IBZKPT_HF returns following result:
 ==============================================
 
 Found      8 k-points in 1st BZ
 the following      8 k-points will be used (e.g. in the exchange kernel)
 Following reciprocal coordinates:   # in IRBZ
  0.000000  0.000000  0.000000    0.12500000   1 t-inv F
  0.500000  0.000000  0.000000    0.12500000   2 t-inv F
  0.000000  0.500000  0.000000    0.12500000   3 t-inv F
  0.500000  0.500000  0.000000    0.12500000   4 t-inv F
  0.000000  0.000000  0.500000    0.12500000   5 t-inv F
  0.500000  0.000000  0.500000    0.12500000   6 t-inv F
  0.000000  0.500000  0.500000    0.12500000   7 t-inv F
  0.500000  0.500000  0.500000    0.12500000   8 t-inv F


--------------------------------------------------------------------------------------------------------




 Dimension of arrays:
   k-points           NKPTS =      8   k-points in BZ     NKDIM =      8   number of bands    NBANDS=   1152
   number of dos      NEDOS =   2000   number of ions     NIONS =     65
   non local maximal  LDIM  =      6   non local SUM 2l+1 LMDIM =     18
   total plane-waves  NPLWV = 884736
   max r-space proj   IRMAX =      1   max aug-charges    IRDMAX= 183854
   dimension x,y,z NGX =    96 NGY =   96 NGZ =   96
   dimension x,y,z NGXF=   192 NGYF=  192 NGZF=  192
   support grid    NGXF=   384 NGYF=  384 NGZF=  384
   ions per type =              33  32
   NGX,Y,Z   is equivalent  to a cutoff of  12.20, 12.20, 12.20 a.u.
   NGXF,Y,Z  is equivalent  to a cutoff of  24.39, 24.39, 24.39 a.u.

 SYSTEM =  unknown system                          
 POSCAR =  Cd33 Te32                               

 Startparameter for this run:
   NWRITE =      2    write-flag & timer
   PREC   = accura    normal or accurate (medium, high low for compatibility)
   ISTART =      0    job   : 0-new  1-cont  2-samecut
   ICHARG =      1    charge: 1-file 2-atom 10-const
   ISPIN  =      1    spin polarized calculation?
   LNONCOLLINEAR =      T non collinear calculations
   LSORBIT =      T    spin-orbit coupling
   INIWAV =      1    electr: 0-lowe 1-rand  2-diag
   LASPH  =      T    aspherical Exc in radial PAW
 Electronic Relaxation 1
   ENCUT  =  450.0 eV  33.07 Ry    5.75 a.u.  22.64 22.64 22.64*2*pi/ulx,y,z
   ENINI  =  450.0     initial cutoff
   ENAUG  =  456.1 eV  augmentation charge cutoff
   NELM   =      6;   NELMIN=  2; NELMDL= -5     # of ELM steps 
   EDIFF  = 0.1E-05   stopping-criterion for ELM
   LREAL  =      F    real-space projection
   NLSPLINE    = F    spline interpolate recip. space projectors
   LCOMPAT=      F    compatible to vasp.4.4
   GGA_COMPAT  = T    GGA compatible to vasp.4.4-vasp.4.6
   LMAXPAW     = -100 max onsite density
   LMAXMIX     =    2 max onsite mixed and CHGCAR
   VOSKOWN=      0    Vosko Wilk Nusair interpolation
   ROPT   =    0.00000   0.00000
 Ionic relaxation
   EDIFFG = -.1E-01   stopping-criterion for IOM
   NSW    =      0    number of steps for IOM
   NBLOCK =      1;   KBLOCK =      1    inner block; outer block 
   IBRION =     -1    ionic relax: 0-MD 1-quasi-New 2-CG
   NFREE  =      0    steps in history (QN), initial steepest desc. (CG)
   ISIF   =      2    stress and relaxation
   IWAVPR =     10    prediction:  0-non 1-charg 2-wave 3-comb
   ISYM   =      0    0-nonsym 1-usesym 2-fastsym
   LCORR  =      T    Harris-Foulkes like correction to forces

   POTIM  = 0.5000    time-step for ionic-motion
   TEIN   =    0.0    initial temperature
   TEBEG  =    0.0;   TEEND  =   0.0 temperature during run
   SMASS  =  -3.00    Nose mass-parameter (am)
   estimated Nose-frequenzy (Omega)   =  0.10E-29 period in steps = 0.13E+47 mass=  -0.391E-26a.u.
   SCALEE = 1.0000    scale energy and forces
   NPACO  =    256;   APACO  = 10.0  distance and # of slots for P.C.
   PSTRESS=    0.0 pullay stress

  Mass of Ions in am
   POMASS = 112.41127.60
  Ionic Valenz
   ZVAL   =  12.00  6.00
  Atomic Wigner-Seitz radii
   RWIGS  =  -1.00 -1.00
  virtual crystal weights 
   VCA    =   1.00  1.00
   NELECT =     588.0000    total number of electrons
   NUPDOWN=      -1.0000    fix difference up-down

 DOS related values:
   EMIN   =  10.00;   EMAX   =-10.00  energy-range for DOS
   EFERMI =   0.00;   METHOD = LEGACY      
   ISMEAR =     0;   SIGMA  =   0.05  broadening in eV -4-tet -1-fermi 0-gaus
   EFERMI_NEDOS =   21; number of points for ismear=-14 and -15

 Electronic relaxation 2 (details)
   IALGO  =     58    algorithm
   LDIAG  =      T    sub-space diagonalisation (order eigenvalues)
   LSUBROT=      F    optimize rotation matrix (better conditioning)
   LROBUST=      F    robust break criterion during scf (extrapolated energy error)
   ISEARCH=      0    line search for conjugate gradient (0, 1=use gradient)
   TURBO    =      0    0=normal 1=particle mesh
   IRESTART =      0    0=no restart 2=restart with 2 vectors
   NREBOOT  =      0    no. of reboots
   NMIN     =      0    reboot dimension
   EREF     =   0.00    reference energy to select bands
   IMIX   =      4    mixing-type and parameters
     AMIX     =   0.40;   BMIX     =  1.00
     AMIX_MAG =   1.60;   BMIX_MAG =  1.00
     AMIN     =   0.10
     WC   =   100.;   INIMIX=   1;  MIXPRE=   1;  MAXMIX= -45

 Intra band minimization:
   WEIMIN = 0.0000     energy-eigenvalue tresh-hold
   EBREAK =  0.22E-09  absolut break condition
   DEPER  =   0.30     relativ break condition  

   TIME   =   0.40     timestep for ELM

  volume/ion in A,a.u.               =      34.48       232.69
  Fermi-wavevector in a.u.,A,eV,Ry     =   1.048017  1.980464 14.943809  1.098339
  Thomas-Fermi vector in A             =   2.182921

 Write flags
   LWAVE        =      T    write WAVECAR
   LDOWNSAMPLE  =      F    k-point downsampling of WAVECAR
   LCHARG       =      T    write CHGCAR
   LVTOT        =      F    write LOCPOT, total local potential
   LVHAR        =      T    write LOCPOT, Hartree potential only
   WRT_POTENTIAL=  hartree ionic  ! write potential to hdf5 file
   LELF         =      F    write electronic localiz. function (ELF)
   LORBIT       =     11    0 simple, 1 ext, 2 COOP (PROOUT), +10 PAW based schemes


 Python interface
   PLUGINS active      =      F    recompile with -DPLUGINS to activate

 Dipole corrections
   LMONO      =      F    monopole corrections only (constant potential shift)
   LDIPOL     =      F    correct potential (dipole corrections)
   IDIPOL     =      0    1-x, 2-y, 3-z, 4-all directions 
   EPSILON    =  1.0000000 bulk dielectric constant
   LVACPOTAV  =      F  vacuum potentials using an averaging scheme for the charge density
   VACPOTFLAT =  0.1000000 required flatness to determine vacuum potential

Coulomb truncation method
  LTRUNCATE          =      F  Coulomb kernel truncation to be used


 Exchange correlation treatment:
   GGA     = PE    functional components
   XC_C    = 1    coefficients multiplying the functional components
   LIBXC   =     F    Libxc                    
   VOSKOWN =     0    Vosko Wilk Nusair interpolation
   EXXOEP  =     0    0=HF, 1=EXX-LHF (local Hartree Fock) 2=EXX OEP
   LHFCALC =     T    Hartree Fock is set to
   LSYMGRAD=     F    symmetrize gradient (conserves proper symmetry)
   PRECFOCK=fast      Normal, Fast or Accurate (Low or Medium for compatibility)
   LRHFCALC=     F    long range Hartree Fock
   LRSCOR  =     F    long range correlation only (use DFT for short range part)
   LTHOMAS =     F    Thomas Fermi screening in HF
   LMODELHF=     F    short range full HF, long range fraction AEXX
   FOCKCORR=     1    mode to apply convergence corrections
   LFOCKACE=     T    use Adeptively-Compressed-Exchange operator
   ENCUT4O =  -1.0   cutoff for four orbital integrals eV
   LMAXFOCK=     4    L truncation for augmentation on plane wave grid
   LMAXFOCKAE=  -1    L truncation for all-electron charge restoration on plane wave grid
   NMAXFOCKAE=   1    number of basis functions for all-electron charge restoration
   LFOCKAEDFT=     F  apply the AE augmentation even for DFT
   NKREDX  =     1    reduce k-point grid by
   NKREDY  =     1    reduce k-point grid by
   NKREDZ  =     1    reduce k-point grid by
   SHIFTRED=     F    shift reduced grid of Gamma
   HFKIDENT=     F    idential grid for each k-point
   ODDONLY =     F    use only odd q-grid points
   EVENONLY=     F    use only even q-grid points
   HFALPHA =   -1.0000 decay constant for conv. correction
   MCALPHA =    0.0000 extent of test-charge in conv. correction in multipole expansion
   AEXX    =    0.2500 exact exchange contribution
   HFSCREEN=    0.2000 screening length (either q_TF or 0.3 A-1)
   HFSCREENC=   0.2000 screening length for correlation (either q_TF or 0.3 A-1)
   HFRCUT  =    0.0000 spherical cutoff for potential kernel
   ALDAX   =    0.7500 LDA exchange part
   AGGAX   =    0.7500 GGA exchange part
   AMGGAX  =    0.7500 meta-GGA exchange part
   ALDAC   =    1.0000 LDA correlation
   AGGAC   =    1.0000 GGA correlation
   AMGGAC  =    1.0000 meta-GGA correlation
   ENCUTFOCK=  -1.0 apply spherical cutoff to Coloumb kernel
   NBANDSGWLOW=     1    first orbital included in HF term
   NBLOCK_FOCK=    64    blocking factor in FOCK_ACC

 Parameters of functionals:
   PE:
     No parameter

 Van der Waals corrections
   IVDW    =     0    specifies the selected vdW correction

 Linear response parameters
   LEPSILON=     F    determine dielectric tensor
   LRPA    =     F    only Hartree local field effects (RPA)
   LNABLA  =     F    use nabla operator in PAW spheres
   LVEL    =     F    velocity operator in full k-point grid
   CSHIFT  =0.1000    complex shift for real part using Kramers Kronig
   OMEGAMAX=  -1.0    maximum frequency
   DEG_THRESHOLD= 0.2000000E-02 threshold for treating states as degnerate
   RTIME   =   -0.100 relaxation time in fs
  (WPLASMAI=    0.000 imaginary part of plasma frequency in eV, 0.658/RTIME)
   DFIELD  = 0.0000000 0.0000000 0.0000000 field for delta impulse in time

  Optional k-point grid parameters
   LKPOINTS_OPT  =     F    use optional k-point grid
   KPOINTS_OPT_MODE=     1    mode for optional k-point grid

 Orbital magnetization related:
   ORBITALMAG=     F  switch on orbital magnetization
   LCHIMAG   =     F  perturbation theory with respect to B field
   DQ        =  0.001000  dq finite difference perturbation B field
   LLRAUG    =     F  two centre corrections for induced B field
   LBONE     =     F  B-component reconstruction in AE one-centre
   LVGVCALC  =     T  calculate vGv susceptibility
   LVGVAPPL  =     F  apply vGv susceptibility instead of pGv for G=0

 Random number generation:
   RANDOM_GENERATOR = DEFAULT
   PCG_SEED         = not used


--------------------------------------------------------------------------------------------------------


 Static calculation
 charge density and potential will be updated during run
 non collinear spin polarized calculation
 Conjugate gradient for all bands (Freysoldt, et al. PRB 79, 241103 (2009))
 preconditioned conjugated gradient                                        
 perform sub-space diagonalisation
    before iterative eigenvector-optimisation
 modified Broyden-mixing scheme, WC =      100.0
 initial mixing is a Kerker type mixing with AMIX =  0.4000 and BMIX =      1.0000
 Hartree-type preconditioning will be used
 using additional bands          858
 reciprocal scheme for non local part
 use partial core corrections
 no Harris-corrections to forces 
 use gradient corrections 
 use of overlap-Matrix (Vanderbilt PP)
 Gauss-broadening in eV      SIGMA  =   0.05


--------------------------------------------------------------------------------------------------------


  energy-cutoff  :      450.00
  volume of cell :     2241.29
      direct lattice vectors                 reciprocal lattice vectors
    13.086768000  0.000000000  0.000000000     0.076413061  0.000000000  0.000000000
     0.000000000 13.086768000  0.000000000     0.000000000  0.076413061  0.000000000
     0.000000000  0.000000000 13.086768000     0.000000000  0.000000000  0.076413061

  length of vectors
    13.086768000 13.086768000 13.086768000     0.076413061  0.076413061  0.076413061



 k-points in units of 2pi/SCALE and weight: Automatically generated mesh            
   0.00000000  0.00000000  0.00000000       0.125
   0.03820653  0.00000000  0.00000000       0.125
   0.00000000  0.03820653  0.00000000       0.125
   0.03820653  0.03820653  0.00000000       0.125
   0.00000000  0.00000000  0.03820653       0.125
   0.03820653  0.00000000  0.03820653       0.125
   0.00000000  0.03820653  0.03820653       0.125
   0.03820653  0.03820653  0.03820653       0.125

 k-points in reciprocal lattice and weights: Automatically generated mesh            
   0.00000000  0.00000000  0.00000000       0.125
   0.50000000  0.00000000  0.00000000       0.125
   0.00000000  0.50000000  0.00000000       0.125
   0.50000000  0.50000000  0.00000000       0.125
   0.00000000  0.00000000  0.50000000       0.125
   0.50000000  0.00000000  0.50000000       0.125
   0.00000000  0.50000000  0.50000000       0.125
   0.50000000  0.50000000  0.50000000       0.125

 position of ions in fractional coordinates (direct lattice) 
   0.00448500  0.99551500  0.00448500
   0.00124700  0.99875300  0.49695900
   0.00124700  0.50304100  0.00124700
   0.99962500  0.50121800  0.49878200
   0.49695900  0.99875300  0.00124700
   0.49878100  0.00037500  0.49878100
   0.49878100  0.50121900  0.99962500
   0.50052800  0.49947200  0.50052800
   0.00124700  0.25124700  0.25304000
   0.00448600  0.25448500  0.74551500
   0.99962500  0.74878200  0.25121800
   0.00124700  0.74695900  0.74875300
   0.49878200  0.24962500  0.25121900
   0.49696000  0.25124700  0.74875300
   0.50052800  0.75052800  0.24947200
   0.49878100  0.74878100  0.75037500
   0.25121900  0.00037500  0.25121900
   0.25304000  0.99875300  0.74875300
   0.24947200  0.49947200  0.24947200
   0.25121900  0.50121900  0.75037500
   0.74875300  0.99875300  0.25304000
   0.74551400  0.99551500  0.74551500
   0.75037500  0.50121900  0.25121900
   0.74875300  0.50304000  0.74875300
   0.25304000  0.25124700  0.00124700
   0.25121900  0.24962500  0.49878100
   0.25121900  0.74878100  0.99962500
   0.24947200  0.75052800  0.50052800
   0.74551400  0.25448500  0.00448500
   0.74875300  0.25124700  0.49696000
   0.74875300  0.74695900  0.00124700
   0.75037500  0.74878200  0.49878200
   0.87500000  0.12500000  0.87500000
   0.12665600  0.12500000  0.37500000
   0.13277900  0.12500000  0.87500000
   0.12589200  0.62500000  0.37500000
   0.12665600  0.62500000  0.87500000
   0.62334400  0.12500000  0.37500000
   0.61722100  0.12500000  0.87500000
   0.62410800  0.62500000  0.37500000
   0.62334400  0.62500000  0.87500000
   0.12484800  0.37484800  0.12484800
   0.12748800  0.37748800  0.62251200
   0.12748800  0.87251200  0.12748800
   0.12484800  0.87515200  0.62515200
   0.62251200  0.37748800  0.12748800
   0.62515200  0.37484800  0.62515200
   0.62515200  0.87515200  0.12484800
   0.62251200  0.87251200  0.62251200
   0.37500000  0.12500000  0.12665600
   0.37500000  0.12500000  0.62334400
   0.37500000  0.62500000  0.12589200
   0.37500000  0.62500000  0.62410800
   0.87500000  0.12500000  0.13277900
   0.87500000  0.12500000  0.61722100
   0.87500000  0.62500000  0.12665600
   0.87500000  0.62500000  0.62334400
   0.37500000  0.37589200  0.37500000
   0.37500000  0.37665600  0.87500000
   0.37500000  0.87410800  0.37500000
   0.37500000  0.87334400  0.87500000
   0.87500000  0.37665600  0.37500000
   0.87500000  0.38277900  0.87500000
   0.87500000  0.87334400  0.37500000
   0.87500000  0.86722100  0.87500000

 position of ions in cartesian coordinates  (Angst):
   0.05869415 13.02807385  0.05869415
   0.01631920 13.07044880  6.50358714
   0.01631920  6.58318086  0.01631920
  13.08186046  6.55932368  6.52744432
   6.50358714 13.07044880  0.01631920
   6.52743123  0.00490754  6.52743123
   6.52743123  6.55933677 13.08186046
   6.55029381  6.53647419  6.55029381
   0.01631920  3.28801120  3.31147577
   0.05870724  3.33038615  9.75638185
  13.08186046  9.79913632  3.28763168
   0.01631920  9.77527914  9.79875680
   6.52744432  3.26678446  3.28764477
   6.50360023  3.28801120  9.79875680
   6.55029381  9.82198581  3.26478219
   6.52743123  9.79912323  9.81998354
   3.28764477  0.00490754  3.28764477
   3.31147577 13.07044880  9.79875680
   3.26478219  6.53647419  3.26478219
   3.28764477  6.55933677  9.81998354
   9.79875680 13.07044880  3.31147577
   9.75636876 13.02807385  9.75638185
   9.81998354  6.55933677  3.28764477
   9.79875680  6.58316777  9.79875680
   3.31147577  3.28801120  0.01631920
   3.28764477  3.26678446  6.52743123
   3.28764477  9.79912323 13.08186046
   3.26478219  9.82198581  6.55029381
   9.75636876  3.33038615  0.05869415
   9.79875680  3.28801120  6.50360023
   9.79875680  9.77527914  0.01631920
   9.81998354  9.79913632  6.52744432
  11.45092200  1.63584600 11.45092200
   1.65751769  1.63584600  4.90753800
   1.73764797  1.63584600 11.45092200
   1.64751940  8.17923000  4.90753800
   1.65751769  8.17923000 11.45092200
   8.15755831  1.63584600  4.90753800
   8.07742803  1.63584600 11.45092200
   8.16755660  8.17923000  4.90753800
   8.15755831  8.17923000 11.45092200
   1.63385681  4.90554881  1.63385681
   1.66840588  4.94009788  8.14667012
   1.66840588 11.41836212  1.66840588
   1.63385681 11.45291119  8.18121919
   8.14667012  4.94009788  1.66840588
   8.18121919  4.90554881  8.18121919
   8.18121919 11.45291119  1.63385681
   8.14667012 11.41836212  8.14667012
   4.90753800  1.63584600  1.65751769
   4.90753800  1.63584600  8.15755831
   4.90753800  8.17923000  1.64751940
   4.90753800  8.17923000  8.16755660
  11.45092200  1.63584600  1.73764797
  11.45092200  1.63584600  8.07742803
  11.45092200  8.17923000  1.65751769
  11.45092200  8.17923000  8.15755831
   4.90753800  4.91921140  4.90753800
   4.90753800  4.92920969 11.45092200
   4.90753800 11.43924860  4.90753800
   4.90753800 11.42925031 11.45092200
  11.45092200  4.92920969  4.90753800
  11.45092200  5.00933997 11.45092200
  11.45092200 11.42925031  4.90753800
  11.45092200 11.34912003 11.45092200

 Euler angles ALPHA=     0.0000000  BETA=     0.0000000

 transformation matrix from SAXIS to cartesian coordinates
 ---------------------------------------------------------
     1.0000000 m_x    -0.0000000 m_y     0.0000000 m_z
     0.0000000 m_x     1.0000000 m_y     0.0000000 m_z
    -0.0000000 m_x     0.0000000 m_y     1.0000000 m_z

 transformation matrix from cartesian coordinates to SAXIS
 ---------------------------------------------------------
     1.0000000 m_x     0.0000000 m_y    -0.0000000 m_z
    -0.0000000 m_x     1.0000000 m_y     0.0000000 m_z
     0.0000000 m_x     0.0000000 m_y     1.0000000 m_z




--------------------------------------------------------------------------------------------------------


 k-point     1 :   0.0000 0.0000 0.0000  plane waves:   97002
 k-point     2 :   0.5000 0.0000 0.0000  plane waves:   97356
 k-point     3 :   0.0000 0.5000 0.0000  plane waves:   97356
 k-point     4 :   0.5000 0.5000 0.0000  plane waves:   96960
 k-point     5 :   0.0000 0.0000 0.5000  plane waves:   97356
 k-point     6 :   0.5000 0.0000 0.5000  plane waves:   96960
 k-point     7 :   0.0000 0.5000 0.5000  plane waves:   96960
 k-point     8 :   0.5000 0.5000 0.5000  plane waves:   96832

 maximum and minimum number of plane-waves per node :     24376    24184

 maximum number of plane-waves:     97356
 maximum index in each direction: 
   IXMAX=   22   IYMAX=   22   IZMAX=   22
   IXMIN=  -23   IYMIN=  -23   IZMIN=  -23


 parallel 3D FFT for wavefunctions:
    minimum data exchange during FFTs selected (reduces bandwidth)
 parallel 3D FFT for charge:
    minimum data exchange during FFTs selected (reduces bandwidth)


 FFT grid for exact exchange (Hartree Fock) 
  NGX = 48; NGY = 48; NGZ = 48


 Radii for the augmentation spheres in the non-local exchange
 for species   1 augmentation radius   1.444 (default was   1.070)
       energy cutoff for augmentation   1800.0
 for species   2 augmentation radius   1.606 (default was   1.190)
       energy cutoff for augmentation   1800.0

 real space projection operators:
  total allocation   :       9375.20 KBytes
  max/ min on nodes  :       2371.68       2281.25

 Maximum index for augmentation-charges in exchange          207
  SETUP_FOCK is finished

 total amount of memory used by VASP MPI-rank0   149220. kBytes
=======================================================================

   base                                    :      30000. kBytes
   nonl-proj                               :      42375. kBytes
   fftplans                                :      14364. kBytes
   grid                                    :      37158. kBytes
   one-center                              :       1057. kBytes
   HF                                      :        129. kBytes
   nonlr-proj                              :       3791. kBytes
   wavefun                                 :      20346. kBytes

     INWAV:  cpu time      0.0000: real time      0.0000
 Broyden mixing: mesh for mixing (old mesh)
   NGX = 45   NGY = 45   NGZ = 45
  (NGX  =192   NGY  =192   NGZ  =192)
  gives a total of  91125 points

 initial charge density was supplied:
 charge density of overlapping atoms calculated
 number of electron     588.0000000 magnetization      65.0000000     65.0000000     65.0000000
 keeping initial charge density in first step


--------------------------------------------------------------------------------------------------------


 Maximum index for augmentation-charges         3093 (set IRDMAX)


--------------------------------------------------------------------------------------------------------


 First call to EWALD:  gamma=   0.135
 Maximum number of real-space cells   3x   3x   3
 Maximum number of reciprocal cells   3x   3x   3

    FEWALD:  cpu time      0.0580: real time      0.0601


--------------------------------------- Ionic step        1  -------------------------------------------




--------------------------------------- Iteration      1(   1)  ---------------------------------------


    POTLOK:  cpu time      0.5125: real time      0.5200
    SETDIJ:  cpu time      0.4771: real time      0.4823
    TRIAL :  cpu time     52.3864: real time     52.8099
    CORREC:  cpu time      0.0203: real time      0.0206
    --------------------------------------------
      LOOP:  cpu time     53.5260: real time     53.9638

 eigenvalue-minimisations  : 18432
 total energy-change (2. order) :-0.6637016E+05  (-0.2874407E+05)
 number of electron     588.0000000 magnetization      65.0000000     65.0000000     65.0000000
 augmentation part      588.0000000 magnetization      65.0000000     65.0000000     65.0000000

 Free energy of the ion-electron system (eV)
  ---------------------------------------------------
  alpha Z        PSCENC =      1642.45118531
  Ewald energy   TEWEN  =    -33940.17512409
  -Hartree energ DENC   =    -17077.89199325
  -exchange      EXHF   =         0.00000000
  -V(xc)+E(xc)   XCENC  =      -705.19542617
  PAW double counting   =     46123.44547363  -111597.00895027
  entropy T*S    EENTRO =        -0.01539254
  eigenvalues    EBANDS =      -565.19450912
  atomic energy  EATOM  =     49749.42546354
  ---------------------------------------------------
  free energy    TOTEN  =    -66370.15927296 eV

  energy without entropy =   -66370.14388042  energy(sigma->0) =   -66370.15157669
  exchange ACFDT corr.  =         0.00000000  see jH, gK, PRB 81, 115126


--------------------------------------------------------------------------------------------------------




--------------------------------------- Iteration      1(   2)  ---------------------------------------


    TRIAL :  cpu time    143.7971: real time    144.9350
    CORREC:  cpu time      0.0035: real time      0.0035
    --------------------------------------------
      LOOP:  cpu time    143.9050: real time    145.0465

 eigenvalue-minimisations  : 23616
 total energy-change (2. order) :-0.2975242E+04  (-0.2860855E+04)
 number of electron     588.0000000 magnetization      65.0000000     65.0000000     65.0000000
 augmentation part      588.0000000 magnetization      65.0000000     65.0000000     65.0000000

 Free energy of the ion-electron system (eV)
  ---------------------------------------------------
  alpha Z        PSCENC =      1642.45118531
  Ewald energy   TEWEN  =    -33940.17512409
  -Hartree energ DENC   =    -17077.89199325
  -exchange      EXHF   =         0.00000000
  -V(xc)+E(xc)   XCENC  =      -705.19542617
  PAW double counting   =     46123.44547363  -111597.00895027
  entropy T*S    EENTRO =        -0.01587272
  eigenvalues    EBANDS =     -3540.43554402
  atomic energy  EATOM  =     49749.42546354
  ---------------------------------------------------
  free energy    TOTEN  =    -69345.40078804 eV

  energy without entropy =   -69345.38491532  energy(sigma->0) =   -69345.39285168
  exchange ACFDT corr.  =         0.00000000  see jH, gK, PRB 81, 115126


--------------------------------------------------------------------------------------------------------




--------------------------------------- Iteration      1(   3)  ---------------------------------------


    TRIAL :  cpu time     98.2608: real time     99.0289
    CORREC:  cpu time      0.0035: real time      0.0036
    --------------------------------------------
      LOOP:  cpu time     98.3475: real time     99.1378

 eigenvalue-minimisations  : 23040
 total energy-change (2. order) :-0.1076041E+03  (-0.1074427E+03)
 number of electron     588.0000000 magnetization      65.0000000     65.0000000     65.0000000
 augmentation part      588.0000000 magnetization      65.0000000     65.0000000     65.0000000

 Free energy of the ion-electron system (eV)
  ---------------------------------------------------
  alpha Z        PSCENC =      1642.45118531
  Ewald energy   TEWEN  =    -33940.17512409
  -Hartree energ DENC   =    -17077.89199325
  -exchange      EXHF   =         0.00000000
  -V(xc)+E(xc)   XCENC  =      -705.19542617
  PAW double counting   =     46123.44547363  -111597.00895027
  entropy T*S    EENTRO =        -0.01431479
  eigenvalues    EBANDS =     -3648.04124303
  atomic energy  EATOM  =     49749.42546354
  ---------------------------------------------------
  free energy    TOTEN  =    -69453.00492912 eV

  energy without entropy =   -69452.99061433  energy(sigma->0) =   -69452.99777173
  exchange ACFDT corr.  =         0.00000000  see jH, gK, PRB 81, 115126


--------------------------------------------------------------------------------------------------------




--------------------------------------- Iteration      1(   4)  ---------------------------------------


    TRIAL :  cpu time    227.9526: real time    229.7329
    CORREC:  cpu time      0.0037: real time      0.0037
    --------------------------------------------
      LOOP:  cpu time    228.0513: real time    229.8412

 eigenvalue-minimisations  : 32256
 total energy-change (2. order) :-0.2046624E+01  (-0.2046470E+01)
 number of electron     588.0000000 magnetization      65.0000000     65.0000000     65.0000000
 augmentation part      588.0000000 magnetization      65.0000000     65.0000000     65.0000000

 Free energy of the ion-electron system (eV)
  ---------------------------------------------------
  alpha Z        PSCENC =      1642.45118531
  Ewald energy   TEWEN  =    -33940.17512409
  -Hartree energ DENC   =    -17077.89199325
  -exchange      EXHF   =         0.00000000
  -V(xc)+E(xc)   XCENC  =      -705.19542617
  PAW double counting   =     46123.44547363  -111597.00895027
  entropy T*S    EENTRO =        -0.01428731
  eigenvalues    EBANDS =     -3650.08789430
  atomic energy  EATOM  =     49749.42546354
  ---------------------------------------------------
  free energy    TOTEN  =    -69455.05155291 eV

  energy without entropy =   -69455.03726560  energy(sigma->0) =   -69455.04440925
  exchange ACFDT corr.  =         0.00000000  see jH, gK, PRB 81, 115126


--------------------------------------------------------------------------------------------------------




--------------------------------------- Iteration      1(   5)  ---------------------------------------


    POTLOK:  cpu time      0.4981: real time      0.5030
    SETDIJ:  cpu time      1.2743: real time      1.2866
    TRIAL :  cpu time    156.3086: real time    157.7760
    CORREC:  cpu time      0.0043: real time      0.0043



 total charge

# of ion       s       p       d       tot
------------------------------------------
    1        0.370   0.244   9.551  10.164
    2        0.385   0.261   9.556  10.201
    3        0.385   0.261   9.556  10.201
    4        0.383   0.261   9.556  10.199
    5        0.385   0.261   9.556  10.201
    6        0.383   0.261   9.556  10.199
    7        0.383   0.261   9.556  10.199
    8        0.381   0.258   9.556  10.195
    9        0.385   0.261   9.556  10.201
   10        0.370   0.244   9.551  10.164
   11        0.383   0.261   9.556  10.199
   12        0.385   0.261   9.556  10.201
   13        0.383   0.261   9.556  10.199
   14        0.385   0.261   9.556  10.201
   15        0.381   0.258   9.556  10.195
   16        0.383   0.261   9.556  10.199
   17        0.383   0.261   9.556  10.199
   18        0.385   0.261   9.556  10.201
   19        0.381   0.258   9.556  10.195
   20        0.383   0.261   9.556  10.199
   21        0.385   0.261   9.556  10.201
   22        0.370   0.244   9.551  10.164
   23        0.383   0.261   9.556  10.199
   24        0.385   0.260   9.556  10.201
   25        0.385   0.261   9.556  10.201
   26        0.383   0.261   9.556  10.199
   27        0.383   0.261   9.556  10.199
   28        0.381   0.258   9.556  10.195
   29        0.370   0.244   9.551  10.164
   30        0.385   0.261   9.556  10.201
   31        0.385   0.261   9.556  10.201
   32        0.383   0.261   9.556  10.199
   33        0.685   0.139   9.533  10.357
   34        1.322   2.379   0.019   3.720
   35        1.333   2.354   0.020   3.706
   36        1.322   2.379   0.019   3.719
   37        1.322   2.379   0.019   3.720
   38        1.322   2.379   0.019   3.720
   39        1.333   2.354   0.020   3.706
   40        1.322   2.379   0.019   3.719
   41        1.322   2.379   0.019   3.720
   42        1.322   2.377   0.018   3.717
   43        1.321   2.370   0.019   3.711
   44        1.321   2.370   0.019   3.711
   45        1.322   2.377   0.018   3.717
   46        1.321   2.370   0.019   3.711
   47        1.322   2.377   0.018   3.717
   48        1.322   2.377   0.018   3.717
   49        1.321   2.370   0.019   3.711
   50        1.322   2.379   0.019   3.720
   51        1.322   2.379   0.019   3.720
   52        1.322   2.379   0.019   3.719
   53        1.322   2.379   0.019   3.719
   54        1.333   2.354   0.020   3.706
   55        1.333   2.354   0.020   3.706
   56        1.322   2.379   0.019   3.720
   57        1.322   2.379   0.019   3.720
   58        1.322   2.379   0.019   3.719
   59        1.322   2.379   0.019   3.720
   60        1.322   2.379   0.019   3.719
   61        1.322   2.379   0.019   3.720
   62        1.322   2.379   0.019   3.720
   63        1.333   2.354   0.020   3.706
   64        1.322   2.379   0.019   3.720
   65        1.333   2.354   0.020   3.706
--------------------------------------------------
tot         55.265  84.329 315.906 455.501



 magnetization (x)

# of ion       s       p       d       tot
------------------------------------------
    1       -0.004  -0.003   0.005  -0.003
    2       -0.005  -0.003   0.004  -0.004
    3       -0.004  -0.003   0.004  -0.004
    4       -0.004  -0.003   0.004  -0.003
    5       -0.005  -0.003   0.004  -0.004
    6       -0.004  -0.003   0.004  -0.003
    7       -0.004  -0.003   0.004  -0.003
    8       -0.004  -0.003   0.004  -0.004
    9       -0.004  -0.003   0.004  -0.004
   10       -0.004  -0.003   0.005  -0.003
   11       -0.004  -0.003   0.004  -0.003
   12       -0.005  -0.003   0.004  -0.004
   13       -0.004  -0.003   0.004  -0.003
   14       -0.005  -0.003   0.004  -0.004
   15       -0.004  -0.003   0.004  -0.004
   16       -0.004  -0.003   0.004  -0.003
   17       -0.004  -0.003   0.004  -0.003
   18       -0.004  -0.003   0.004  -0.004
   19       -0.004  -0.003   0.004  -0.004
   20       -0.004  -0.003   0.004  -0.003
   21       -0.005  -0.003   0.004  -0.004
   22       -0.004  -0.003   0.005  -0.003
   23       -0.004  -0.003   0.004  -0.003
   24       -0.005  -0.003   0.004  -0.004
   25       -0.005  -0.003   0.004  -0.004
   26       -0.004  -0.003   0.004  -0.003
   27       -0.004  -0.003   0.004  -0.003
   28       -0.004  -0.003   0.004  -0.004
   29       -0.005  -0.003   0.005  -0.003
   30       -0.004  -0.003   0.004  -0.004
   31       -0.004  -0.003   0.004  -0.004
   32       -0.004  -0.003   0.004  -0.003
   33        0.033  -0.003   0.003   0.032
   34        0.009   0.030  -0.000   0.038
   35        0.009   0.034  -0.000   0.043
   36        0.009   0.029  -0.000   0.038
   37        0.009   0.030  -0.000   0.038
   38        0.009   0.030  -0.000   0.038
   39        0.009   0.034  -0.000   0.043
   40        0.009   0.029  -0.000   0.038
   41        0.009   0.030  -0.000   0.038
   42        0.009   0.030  -0.000   0.038
   43        0.009   0.030  -0.000   0.039
   44        0.009   0.030  -0.000   0.039
   45        0.009   0.030  -0.000   0.038
   46        0.009   0.030  -0.000   0.039
   47        0.009   0.030  -0.000   0.038
   48        0.009   0.030  -0.000   0.038
   49        0.009   0.030  -0.000   0.039
   50        0.009   0.030  -0.000   0.038
   51        0.009   0.030  -0.000   0.038
   52        0.009   0.029  -0.000   0.038
   53        0.009   0.029  -0.000   0.038
   54        0.009   0.034  -0.000   0.043
   55        0.009   0.034  -0.000   0.043
   56        0.009   0.030  -0.000   0.038
   57        0.009   0.030  -0.000   0.038
   58        0.009   0.029  -0.000   0.038
   59        0.009   0.030  -0.000   0.038
   60        0.009   0.029  -0.000   0.038
   61        0.009   0.030  -0.000   0.038
   62        0.009   0.030  -0.000   0.038
   63        0.009   0.034  -0.000   0.043
   64        0.009   0.030  -0.000   0.038
   65        0.009   0.034  -0.000   0.043
--------------------------------------------------
tot          0.177   0.870   0.126   1.174



 magnetization (y)

# of ion       s       p       d       tot
------------------------------------------
    1       -0.005  -0.003   0.005  -0.003
    2       -0.004  -0.003   0.004  -0.004
    3       -0.005  -0.003   0.004  -0.004
    4       -0.004  -0.003   0.004  -0.003
    5       -0.004  -0.003   0.004  -0.004
    6       -0.004  -0.003   0.004  -0.003
    7       -0.004  -0.003   0.004  -0.003
    8       -0.004  -0.003   0.004  -0.004
    9       -0.004  -0.003   0.004  -0.004
   10       -0.004  -0.003   0.005  -0.003
   11       -0.004  -0.003   0.004  -0.003
   12       -0.005  -0.003   0.004  -0.004
   13       -0.004  -0.003   0.004  -0.003
   14       -0.005  -0.003   0.004  -0.004
   15       -0.004  -0.003   0.004  -0.004
   16       -0.004  -0.003   0.004  -0.003
   17       -0.004  -0.003   0.004  -0.003
   18       -0.005  -0.003   0.004  -0.004
   19       -0.004  -0.003   0.004  -0.004
   20       -0.004  -0.003   0.004  -0.003
   21       -0.005  -0.003   0.004  -0.004
   22       -0.004  -0.003   0.005  -0.003
   23       -0.004  -0.003   0.004  -0.003
   24       -0.004  -0.003   0.004  -0.004
   25       -0.004  -0.003   0.004  -0.004
   26       -0.004  -0.003   0.004  -0.003
   27       -0.004  -0.003   0.004  -0.003
   28       -0.004  -0.003   0.004  -0.004
   29       -0.004  -0.003   0.005  -0.003
   30       -0.005  -0.003   0.004  -0.004
   31       -0.005  -0.003   0.004  -0.004
   32       -0.004  -0.003   0.004  -0.003
   33        0.033  -0.003   0.003   0.032
   34        0.009   0.030  -0.000   0.038
   35        0.009   0.034  -0.000   0.043
   36        0.009   0.029  -0.000   0.038
   37        0.009   0.030  -0.000   0.038
   38        0.009   0.030  -0.000   0.038
   39        0.009   0.034  -0.000   0.043
   40        0.009   0.029  -0.000   0.038
   41        0.009   0.030  -0.000   0.038
   42        0.009   0.030  -0.000   0.038
   43        0.009   0.030  -0.000   0.039
   44        0.009   0.030  -0.000   0.039
   45        0.009   0.030  -0.000   0.038
   46        0.009   0.030  -0.000   0.039
   47        0.009   0.030  -0.000   0.038
   48        0.009   0.030  -0.000   0.038
   49        0.009   0.030  -0.000   0.039
   50        0.009   0.030  -0.000   0.038
   51        0.009   0.030  -0.000   0.038
   52        0.009   0.029  -0.000   0.038
   53        0.009   0.029  -0.000   0.038
   54        0.009   0.034  -0.000   0.043
   55        0.009   0.034  -0.000   0.043
   56        0.009   0.030  -0.000   0.038
   57        0.009   0.030  -0.000   0.038
   58        0.009   0.029  -0.000   0.038
   59        0.009   0.030  -0.000   0.038
   60        0.009   0.029  -0.000   0.038
   61        0.009   0.030  -0.000   0.038
   62        0.009   0.030  -0.000   0.038
   63        0.009   0.034  -0.000   0.043
   64        0.009   0.030  -0.000   0.038
   65        0.009   0.034  -0.000   0.043
--------------------------------------------------
tot          0.177   0.870   0.126   1.174



 magnetization (z)

# of ion       s       p       d       tot
------------------------------------------
    1       -0.004  -0.003   0.005  -0.003
    2       -0.005  -0.003   0.004  -0.004
    3       -0.004  -0.003   0.004  -0.004
    4       -0.004  -0.003   0.004  -0.003
    5       -0.005  -0.003   0.004  -0.004
    6       -0.004  -0.003   0.004  -0.003
    7       -0.004  -0.003   0.004  -0.003
    8       -0.004  -0.003   0.004  -0.004
    9       -0.005  -0.003   0.004  -0.004
   10       -0.005  -0.003   0.005  -0.003
   11       -0.004  -0.003   0.004  -0.003
   12       -0.004  -0.003   0.004  -0.004
   13       -0.004  -0.003   0.004  -0.003
   14       -0.004  -0.003   0.004  -0.004
   15       -0.004  -0.003   0.004  -0.004
   16       -0.004  -0.003   0.004  -0.003
   17       -0.004  -0.003   0.004  -0.003
   18       -0.005  -0.003   0.004  -0.004
   19       -0.004  -0.003   0.004  -0.004
   20       -0.004  -0.003   0.004  -0.003
   21       -0.004  -0.003   0.004  -0.004
   22       -0.004  -0.003   0.005  -0.003
   23       -0.004  -0.003   0.004  -0.003
   24       -0.005  -0.003   0.004  -0.004
   25       -0.004  -0.003   0.004  -0.004
   26       -0.004  -0.003   0.004  -0.003
   27       -0.004  -0.003   0.004  -0.003
   28       -0.004  -0.003   0.004  -0.004
   29       -0.004  -0.003   0.005  -0.003
   30       -0.005  -0.003   0.004  -0.004
   31       -0.005  -0.003   0.004  -0.004
   32       -0.004  -0.003   0.004  -0.003
   33        0.032  -0.003   0.003   0.032
   34        0.009   0.030  -0.000   0.038
   35        0.009   0.034  -0.000   0.043
   36        0.009   0.029  -0.000   0.038
   37        0.009   0.030  -0.000   0.038
   38        0.009   0.030  -0.000   0.038
   39        0.009   0.034  -0.000   0.043
   40        0.009   0.029  -0.000   0.038
   41        0.009   0.030  -0.000   0.038
   42        0.009   0.030  -0.000   0.038
   43        0.009   0.030  -0.000   0.039
   44        0.009   0.030  -0.000   0.039
   45        0.009   0.030  -0.000   0.038
   46        0.009   0.030  -0.000   0.039
   47        0.009   0.030  -0.000   0.038
   48        0.009   0.030  -0.000   0.038
   49        0.009   0.030  -0.000   0.039
   50        0.009   0.030  -0.000   0.038
   51        0.009   0.030  -0.000   0.038
   52        0.009   0.029  -0.000   0.038
   53        0.009   0.029  -0.000   0.038
   54        0.009   0.034  -0.000   0.043
   55        0.009   0.034  -0.000   0.043
   56        0.009   0.030  -0.000   0.038
   57        0.009   0.030  -0.000   0.038
   58        0.009   0.029  -0.000   0.038
   59        0.009   0.030  -0.000   0.038
   60        0.009   0.029  -0.000   0.038
   61        0.009   0.030  -0.000   0.038
   62        0.009   0.030  -0.000   0.038
   63        0.009   0.034  -0.000   0.043
   64        0.009   0.030  -0.000   0.038
   65        0.009   0.034  -0.000   0.043
--------------------------------------------------
tot          0.177   0.870   0.126   1.174

    CHARGE:  cpu time      1.3406: real time      1.3538
    --------------------------------------------
      LOOP:  cpu time    159.5470: real time    161.0685

 eigenvalue-minimisations  : 18432
 total energy-change (2. order) : 0.6927769E+05  (-0.3356907E+02)
 number of electron     588.0000006 magnetization       0.1772456      0.1772442      0.1772471
 augmentation part      151.8739985 magnetization       0.5322650      0.5321771      0.5322130

 Free energy of the ion-electron system (eV)
  ---------------------------------------------------
  alpha Z        PSCENC =      1642.45118531
  Ewald energy   TEWEN  =    -33940.17512409
  -Hartree energ DENC   =    -17077.89199325
  -exchange      EXHF   =      1182.03986247
  -V(xc)+E(xc)   XCENC  =      -617.56595420
  PAW double counting   =     46020.13618676   -43994.38423556
  entropy T*S    EENTRO =        -0.00646335
  eigenvalues    EBANDS =     -3141.38809757
  atomic energy  EATOM  =     49749.42546354
  ---------------------------------------------------
  free energy    TOTEN  =      -177.35916995 eV

  energy without entropy =     -177.35270660  energy(sigma->0) =     -177.35593827
  exchange ACFDT corr.  =        -0.02542896  see jH, gK, PRB 81, 115126


--------------------------------------------------------------------------------------------------------




--------------------------------------- Iteration      1(   6)  ---------------------------------------


    POTLOK:  cpu time      0.3738: real time      0.3775
    SETDIJ:  cpu time      0.6568: real time      0.6631
    TRIAL :  cpu time    104.8092: real time    105.8990
    CORREC:  cpu time    105.6020: real time    106.6814
    EDDIAG:  cpu time    104.5526: real time    105.6329
    CHARGE:  cpu time      1.0972: real time      1.1069
    --------------------------------------------
      LOOP:  cpu time    317.1962: real time    320.4751

 eigenvalue-minimisations  :     0
 total energy-change (2. order) :-0.7036908E+01  (-0.1009837E+02)
 number of electron     588.0000006 magnetization       0.0703156      0.0703207      0.0703126
 augmentation part      154.9463356 magnetization       0.2055008      0.2055918      0.2054882

 Free energy of the ion-electron system (eV)
  ---------------------------------------------------
  alpha Z        PSCENC =      1642.45118531
  Ewald energy   TEWEN  =    -33940.17512409
  -Hartree energ DENC   =    -16869.87931397
  -exchange      EXHF   =      1143.52057089
  -V(xc)+E(xc)   XCENC  =      -625.23142567
  PAW double counting   =    105471.34000434  -103393.78726057
  entropy T*S    EENTRO =        -0.00646335
  eigenvalues    EBANDS =     -3367.09955484
  atomic energy  EATOM  =     49749.42546354
  ---------------------------------------------------
  free energy    TOTEN  =      -184.39607834 eV

  energy without entropy =     -184.38961499  energy(sigma->0) =     -184.39284667
  exchange ACFDT corr.  =        -0.01392604  see jH, gK, PRB 81, 115126


--------------------------------------------------------------------------------------------------------


  average scaling for gradient   0.9900


 average (electrostatic) potential at core
  the test charge radii are     1.0698  1.1897
  (the norm of the test charge is              1.0000)
       1 -33.1169       2 -32.9320       3 -32.9321       4 -32.9905       5 -32.9320
       6 -32.9909       7 -32.9907       8 -32.9765       9 -32.9319      10 -33.1170
      11 -32.9910      12 -32.9322      13 -32.9909      14 -32.9322      15 -32.9767
      16 -32.9910      17 -32.9905      18 -32.9321      19 -32.9766      20 -32.9908
      21 -32.9320      22 -33.1167      23 -32.9906      24 -32.9323      25 -32.9322
      26 -32.9906      27 -32.9908      28 -32.9765      29 -33.1170      30 -32.9321
      31 -32.9322      32 -32.9908      33 -32.2584      34 -86.7152      35 -86.6453
      36 -86.7193      37 -86.7151      38 -86.7152      39 -86.6450      40 -86.7193
      41 -86.7150      42 -86.6817      43 -86.8319      44 -86.8318      45 -86.6819
      46 -86.8318      47 -86.6816      48 -86.6817      49 -86.8317      50 -86.7151
      51 -86.7150      52 -86.7197      53 -86.7196      54 -86.6448      55 -86.6452
      56 -86.7150      57 -86.7149      58 -86.7196      59 -86.7151      60 -86.7196
      61 -86.7150      62 -86.7150      63 -86.6452      64 -86.7152      65 -86.6451



 E-fermi :   3.3271     XC(G=0):  -7.0401     alpha+bet : -7.2837

 WARNING: Could not determine fundamental gap because eigenvalues are not
     sorted.

 Fermi energy:         3.3271105218

 k-point     1 :       0.0000    0.0000    0.0000
  band No.  band energies     occupation 
      1     -10.0441      1.00000
      2     -10.0122      1.00000
      3      -9.8827      1.00000
      4      -9.8825      1.00000
      5      -9.8822      1.00000
      6      -9.8468      1.00000
      7      -9.8466      1.00000
      8      -9.8464      1.00000
      9      -9.8352      1.00000
     10      -9.8351      1.00000
     11      -9.8129      1.00000
     12      -9.7998      1.00000
     13      -9.7998      1.00000
     14      -9.7975      1.00000
     15      -9.7773      1.00000
     16      -9.7769      1.00000
     17      -9.7756      1.00000
     18      -9.7735      1.00000
     19      -9.7696      1.00000
     20      -9.7659      1.00000
     21      -9.7628      1.00000
     22      -9.7613      1.00000
     23      -9.7599      1.00000
     24      -9.7570      1.00000
     25      -9.7539      1.00000
     26      -9.7512      1.00000
     27      -9.7416      1.00000
     28      -9.7384      1.00000
     29      -9.7378      1.00000
     30      -9.7342      1.00000
     31      -9.7322      1.00000
     32      -9.7223      1.00000
     33      -9.7207      1.00000
     34      -9.7190      1.00000
     35      -9.7108      1.00000
     36      -9.7092      1.00000
     37      -9.7076      1.00000
     38      -9.7012      1.00000
     39      -9.7002      1.00000
     40      -9.6984      1.00000
     41      -9.6946      1.00000
     42      -9.6911      1.00000
     43      -9.6886      1.00000
     44      -9.6763      1.00000
     45      -9.6762      1.00000
     46      -9.6676      1.00000
     47      -9.6640      1.00000
     48      -9.6587      1.00000
     49      -9.6578      1.00000
     50      -9.6574      1.00000
     51      -9.6562      1.00000
     52      -9.6497      1.00000
     53      -9.6410      1.00000
     54      -9.6346      1.00000
     55      -9.6331      1.00000
     56      -9.6318      1.00000
     57      -9.6284      1.00000
     58      -9.6140      1.00000
     59      -9.6113      1.00000
     60      -9.6002      1.00000
     61      -9.5986      1.00000
     62      -9.5841      1.00000
     63      -9.5812      1.00000
     64      -9.5793      1.00000
     65      -8.5396      1.00000
     66      -8.5367      1.00000
     67      -8.5359      1.00000
     68      -8.5327      1.00000
     69      -8.5188      1.00000
     70      -8.5153      1.00000
     71      -8.5121      1.00000
     72      -8.5069      1.00000
     73      -8.4815      1.00000
     74      -8.4810      1.00000
     75      -8.4798      1.00000
     76      -8.4792      1.00000
     77      -8.4300      1.00000
     78      -8.4283      1.00000
     79      -8.4278      1.00000
     80      -8.4264      1.00000
     81      -8.4239      1.00000
     82      -8.4226      1.00000
     83      -8.4218      1.00000
     84      -8.4204      1.00000
     85      -8.4146      1.00000
     86      -8.4139      1.00000
     87      -8.4125      1.00000
     88      -8.4118      1.00000
     89      -8.4041      1.00000
     90      -8.4033      1.00000
     91      -8.4012      1.00000
     92      -8.4012      1.00000
     93      -8.3999      1.00000
     94      -8.3998      1.00000
     95      -8.3987      1.00000
     96      -8.3979      1.00000
     97      -8.3977      1.00000
     98      -8.3966      1.00000
     99      -8.3963      1.00000
    100      -8.3962      1.00000
    101      -8.3865      1.00000
    102      -8.3861      1.00000
    103      -8.3860      1.00000
    104      -8.3852      1.00000
    105      -8.3844      1.00000
    106      -8.3837      1.00000
    107      -8.3794      1.00000
    108      -8.3794      1.00000
    109      -8.3783      1.00000
    110      -8.3779      1.00000
    111      -8.3777      1.00000
    112      -8.3775      1.00000
    113      -8.3685      1.00000
    114      -8.3684      1.00000
    115      -8.3683      1.00000
    116      -8.3681      1.00000
    117      -8.3681      1.00000
    118      -8.3658      1.00000
    119      -8.3643      1.00000
    120      -8.3624      1.00000
    121      -8.3522      1.00000
    122      -8.3522      1.00000
    123      -8.3514      1.00000
    124      -8.3514      1.00000
    125      -8.3372      1.00000
    126      -8.3372      1.00000
    127      -8.3349      1.00000
    128      -8.3348      1.00000
    129      -8.3218      1.00000
    130      -8.3192      1.00000
    131      -8.2958      1.00000
    132      -8.2957      1.00000
    133      -8.2952      1.00000
    134      -8.2949      1.00000
    135      -8.2940      1.00000
    136      -8.2923      1.00000
    137      -8.2887      1.00000
    138      -8.2877      1.00000
    139      -8.2871      1.00000
    140      -8.2864      1.00000
    141      -8.2761      1.00000
    142      -8.2759      1.00000
    143      -8.2758      1.00000
    144      -8.2752      1.00000
    145      -8.2751      1.00000
    146      -8.2750      1.00000
    147      -8.2708      1.00000
    148      -8.2697      1.00000
    149      -8.2564      1.00000
    150      -8.2546      1.00000
    151      -8.2545      1.00000
    152      -8.2545      1.00000
    153      -8.2544      1.00000
    154      -8.2541      1.00000
    155      -8.2501      1.00000
    156      -8.2500      1.00000
    157      -8.2492      1.00000
    158      -8.2492      1.00000
    159      -8.2447      1.00000
    160      -8.2445      1.00000
    161      -8.1571      1.00000
    162      -8.1561      1.00000
    163      -8.1344      1.00000
    164      -8.1339      1.00000
    165      -8.1334      1.00000
    166      -8.1323      1.00000
    167      -8.1317      1.00000
    168      -8.1302      1.00000
    169      -8.1236      1.00000
    170      -8.1232      1.00000
    171      -8.1220      1.00000
    172      -8.1215      1.00000
    173      -8.0746      1.00000
    174      -8.0735      1.00000
    175      -8.0562      1.00000
    176      -8.0553      1.00000
    177      -8.0421      1.00000
    178      -8.0417      1.00000
    179      -8.0412      1.00000
    180      -8.0408      1.00000
    181      -8.0344      1.00000
    182      -8.0343      1.00000
    183      -8.0342      1.00000
    184      -8.0341      1.00000
    185      -8.0143      1.00000
    186      -8.0132      1.00000
    187      -7.9686      1.00000
    188      -7.9671      1.00000
    189      -7.9671      1.00000
    190      -7.9657      1.00000
    191      -7.9467      1.00000
    192      -7.9460      1.00000
    193      -7.9458      1.00000
    194      -7.9448      1.00000
    195      -7.9362      1.00000
    196      -7.9355      1.00000
    197      -7.8682      1.00000
    198      -7.8651      1.00000
    199      -7.8345      1.00000
    200      -7.8306      1.00000
    201      -7.7925      1.00000
    202      -7.7922      1.00000
    203      -7.7915      1.00000
    204      -7.7908      1.00000
    205      -7.7810      1.00000
    206      -7.7784      1.00000
    207      -7.7706      1.00000
    208      -7.7688      1.00000
    209      -7.7395      1.00000
    210      -7.7377      1.00000
    211      -7.7374      1.00000
    212      -7.7370      1.00000
    213      -7.7363      1.00000
    214      -7.7360      1.00000
    215      -7.7319      1.00000
    216      -7.7318      1.00000
    217      -7.7308      1.00000
    218      -7.7307      1.00000
    219      -7.7302      1.00000
    220      -7.7293      1.00000
    221      -7.7288      1.00000
    222      -7.7280      1.00000
    223      -7.7279      1.00000
    224      -7.7265      1.00000
    225      -7.7142      1.00000
    226      -7.7126      1.00000
    227      -7.7121      1.00000
    228      -7.7115      1.00000
    229      -7.7112      1.00000
    230      -7.7108      1.00000
    231      -7.6950      1.00000
    232      -7.6949      1.00000
    233      -7.6945      1.00000
    234      -7.6943      1.00000
    235      -7.6915      1.00000
    236      -7.6905      1.00000
    237      -7.6901      1.00000
    238      -7.6885      1.00000
    239      -7.6872      1.00000
    240      -7.6868      1.00000
    241      -7.6832      1.00000
    242      -7.6828      1.00000
    243      -7.6811      1.00000
    244      -7.6811      1.00000
    245      -7.6792      1.00000
    246      -7.6789      1.00000
    247      -7.6778      1.00000
    248      -7.6778      1.00000
    249      -7.6699      1.00000
    250      -7.6696      1.00000
    251      -7.6686      1.00000
    252      -7.6684      1.00000
    253      -7.6669      1.00000
    254      -7.6664      1.00000
    255      -7.6662      1.00000
    256      -7.6651      1.00000
    257      -7.6641      1.00000
    258      -7.6629      1.00000
    259      -7.6618      1.00000
    260      -7.6607      1.00000
    261      -7.6598      1.00000
    262      -7.6596      1.00000
    263      -7.6589      1.00000
    264      -7.6587      1.00000
    265      -7.6484      1.00000
    266      -7.6463      1.00000
    267      -7.6407      1.00000
    268      -7.6402      1.00000
    269      -7.6401      1.00000
    270      -7.6391      1.00000
    271      -7.6391      1.00000
    272      -7.6391      1.00000
    273      -7.6360      1.00000
    274      -7.6357      1.00000
    275      -7.6347      1.00000
    276      -7.6344      1.00000
    277      -7.6284      1.00000
    278      -7.6274      1.00000
    279      -7.6171      1.00000
    280      -7.6168      1.00000
    281      -7.6164      1.00000
    282      -7.6161      1.00000
    283      -7.6159      1.00000
    284      -7.6158      1.00000
    285      -7.6140      1.00000
    286      -7.6128      1.00000
    287      -7.6123      1.00000
    288      -7.6121      1.00000
    289      -7.6090      1.00000
    290      -7.6085      1.00000
    291      -7.6085      1.00000
    292      -7.6083      1.00000
    293      -7.6072      1.00000
    294      -7.6072      1.00000
    295      -7.5963      1.00000
    296      -7.5958      1.00000
    297      -7.5955      1.00000
    298      -7.5951      1.00000
    299      -7.5950      1.00000
    300      -7.5941      1.00000
    301      -7.5908      1.00000
    302      -7.5903      1.00000
    303      -7.5858      1.00000
    304      -7.5848      1.00000
    305      -7.5844      1.00000
    306      -7.5836      1.00000
    307      -7.5771      1.00000
    308      -7.5755      1.00000
    309      -7.5752      1.00000
    310      -7.5749      1.00000
    311      -7.5745      1.00000
    312      -7.5741      1.00000
    313      -7.5734      1.00000
    314      -7.5728      1.00000
    315      -7.5724      1.00000
    316      -7.5720      1.00000
    317      -7.5717      1.00000
    318      -7.5711      1.00000
    319      -7.5705      1.00000
    320      -7.5689      1.00000
    321      -7.5671      1.00000
    322      -7.5660      1.00000
    323      -7.5200      1.00000
    324      -7.5184      1.00000
    325      -7.5175      1.00000
    326      -7.5155      1.00000
    327      -7.5150      1.00000
    328      -7.5109      1.00000
    329      -7.5065      1.00000
    330      -7.5064      1.00000
    331      -7.5048      1.00000
    332      -7.5039      1.00000
    333      -7.5006      1.00000
    334      -7.5005      1.00000
    335      -7.4537      1.00000
    336      -7.4492      1.00000
    337      -7.4484      1.00000
    338      -7.4434      1.00000
    339      -7.3778      1.00000
    340      -7.3748      1.00000
    341      -7.3453      1.00000
    342      -7.3433      1.00000
    343      -7.3407      1.00000
    344      -7.3387      1.00000
    345      -7.3271      1.00000
    346      -7.3222      1.00000
    347      -7.3136      1.00000
    348      -7.3133      1.00000
    349      -7.3123      1.00000
    350      -7.3119      1.00000
    351      -7.2401      1.00000
    352      -7.2385      1.00000
    353      -7.2329      1.00000
    354      -7.2314      1.00000
    355      -7.2146      1.00000
    356      -7.2029      1.00000
    357      -7.1979      1.00000
    358      -7.1941      1.00000
    359      -7.1917      1.00000
    360      -7.1897      1.00000
    361      -7.1882      1.00000
    362      -7.1805      1.00000
    363      -7.1786      1.00000
    364      -7.1771      1.00000
    365      -7.1752      1.00000
    366      -7.1732      1.00000
    367      -7.1727      1.00000
    368      -7.1715      1.00000
    369      -7.1694      1.00000
    370      -7.1649      1.00000
    371      -7.0255      1.00000
    372      -7.0243      1.00000
    373      -7.0182      1.00000
    374      -7.0179      1.00000
    375      -7.0157      1.00000
    376      -7.0095      1.00000
    377      -7.0063      1.00000
    378      -7.0027      1.00000
    379      -7.0024      1.00000
    380      -6.9989      1.00000
    381      -6.9979      1.00000
    382      -6.9972      1.00000
    383      -6.9211      1.00000
    384      -6.9193      1.00000
    385      -6.9113      1.00000
    386      -6.9089      1.00000
    387      -6.8818      1.00000
    388      -6.8742      1.00000
    389      -6.8022      1.00000
    390      -6.7960      1.00000
    391      -6.7535      1.00000
    392      -6.7504      1.00000
    393      -6.7378      1.00000
    394      -6.7369      1.00000
    395      -3.2682      1.00000
    396      -3.2662      1.00000
    397      -2.8517      1.00000
    398      -2.8507      1.00000
    399      -2.8497      1.00000
    400      -2.8329      1.00000
    401      -2.8318      1.00000
    402      -2.8310      1.00000
    403      -2.7754      1.00000
    404      -2.7743      1.00000
    405      -2.7731      1.00000
    406      -2.7555      1.00000
    407      -2.7540      1.00000
    408      -2.7528      1.00000
    409      -2.7264      1.00000
    410      -2.7208      1.00000
    411      -2.7121      1.00000
    412      -2.7076      1.00000
    413      -2.7021      1.00000
    414      -2.7012      1.00000
    415      -2.4868      1.00000
    416      -2.4867      1.00000
    417      -2.4839      1.00000
    418      -2.4742      1.00000
    419      -2.4719      1.00000
    420      -2.4690      1.00000
    421      -2.4389      1.00000
    422      -2.4318      1.00000
    423      -2.1869      1.00000
    424      -2.1866      1.00000
    425      -2.1865      1.00000
    426      -2.1840      1.00000
    427      -2.1817      1.00000
    428      -2.1792      1.00000
    429      -2.1710      1.00000
    430      -2.1674      1.00000
    431      -2.1669      1.00000
    432      -2.1633      1.00000
    433      -2.0897      1.00000
    434      -2.0857      1.00000
    435      -1.9995      1.00000
    436      -1.9992      1.00000
    437      -1.9972      1.00000
    438      -1.9962      1.00000
    439      -1.9922      1.00000
    440      -1.9904      1.00000
    441      -1.9888      1.00000
    442      -1.9856      1.00000
    443      -1.9847      1.00000
    444      -1.9810      1.00000
    445      -1.1763      1.00000
    446      -1.1737      1.00000
    447      -0.9854      1.00000
    448      -0.9849      1.00000
    449      -0.9848      1.00000
    450      -0.9842      1.00000
    451      -0.9800      1.00000
    452      -0.9797      1.00000
    453      -0.9680      1.00000
    454      -0.9678      1.00000
    455      -0.9672      1.00000
    456      -0.9671      1.00000
    457      -0.9257      1.00000
    458      -0.9255      1.00000
    459      -0.8939      1.00000
    460      -0.8918      1.00000
    461      -0.8885      1.00000
    462      -0.8865      1.00000
    463      -0.7673      1.00000
    464      -0.7653      1.00000
    465      -0.6123      1.00000
    466      -0.6079      1.00000
    467      -0.5637      1.00000
    468      -0.5633      1.00000
    469      -0.5619      1.00000
    470      -0.5617      1.00000
    471      -0.5205      1.00000
    472      -0.5184      1.00000
    473      -0.5166      1.00000
    474      -0.5144      1.00000
    475      -0.4791      1.00000
    476      -0.4784      1.00000
    477      -0.4708      1.00000
    478      -0.4665      1.00000
    479      -0.4497      1.00000
    480      -0.4479      1.00000
    481      -0.4444      1.00000
    482      -0.4435      1.00000
    483      -0.3872      1.00000
    484      -0.3872      1.00000
    485      -0.3812      1.00000
    486      -0.3812      1.00000
    487      -0.3578      1.00000
    488      -0.3562      1.00000
    489      -0.3549      1.00000
    490      -0.3524      1.00000
    491      -0.3409      1.00000
    492      -0.3391      1.00000
    493      -0.3041      1.00000
    494      -0.3038      1.00000
    495      -0.3013      1.00000
    496      -0.3007      1.00000
    497      -0.2943      1.00000
    498      -0.2887      1.00000
    499      -0.2763      1.00000
    500      -0.2734      1.00000
    501      -0.2587      1.00000
    502      -0.2580      1.00000
    503      -0.2561      1.00000
    504      -0.2554      1.00000
    505      -0.2360      1.00000
    506      -0.2356      1.00000
    507      -0.2351      1.00000
    508      -0.2286      1.00000
    509      -0.2268      1.00000
    510      -0.2265      1.00000
    511       0.0528      1.00000
    512       0.0535      1.00000
    513       0.0592      1.00000
    514       0.0611      1.00000
    515       0.1014      1.00000
    516       0.1069      1.00000
    517       0.5017      1.00000
    518       0.5119      1.00000
    519       0.5394      1.00000
    520       0.5449      1.00000
    521       0.5483      1.00000
    522       0.5583      1.00000
    523       0.5617      1.00000
    524       0.5638      1.00000
    525       0.5757      1.00000
    526       0.5763      1.00000
    527       0.5865      1.00000
    528       0.5867      1.00000
    529       0.7853      1.00000
    530       0.7976      1.00000
    531       0.8052      1.00000
    532       0.8113      1.00000
    533       0.8178      1.00000
    534       0.8218      1.00000
    535       0.8245      1.00000
    536       0.8355      1.00000
    537       0.8981      1.00000
    538       0.8991      1.00000
    539       0.9060      1.00000
    540       0.9089      1.00000
    541       0.9102      1.00000
    542       0.9129      1.00000
    543       0.9226      1.00000
    544       0.9286      1.00000
    545       0.9353      1.00000
    546       0.9356      1.00000
    547       0.9610      1.00000
    548       0.9700      1.00000
    549       1.0223      1.00000
    550       1.0247      1.00000
    551       1.0284      1.00000
    552       1.0378      1.00000
    553       1.0398      1.00000
    554       1.0428      1.00000
    555       1.0439      1.00000
    556       1.0563      1.00000
    557       1.0581      1.00000
    558       1.0608      1.00000
    559       1.0619      1.00000
    560       1.0644      1.00000
    561       1.0645      1.00000
    562       1.0738      1.00000
    563       1.0743      1.00000
    564       1.0749      1.00000
    565       1.0814      1.00000
    566       1.0831      1.00000
    567       1.0844      1.00000
    568       1.0963      1.00000
    569       1.0996      1.00000
    570       1.1003      1.00000
    571       1.1226      1.00000
    572       1.1227      1.00000
    573       1.3052      1.00000
    574       1.3143      1.00000
    575       1.3237      1.00000
    576       1.3254      1.00000
    577       1.3282      1.00000
    578       1.3356      1.00000
    579       1.3471      1.00000
    580       1.3536      1.00000
    581       1.3611      1.00000
    582       1.3699      1.00000
    583       2.1352      1.00000
    584       2.1556      1.00000
    585       2.1750      1.00000
    586       2.1932      1.00000
    587       2.6759      1.00000
    588       2.6934      1.00000
    589       3.5494      0.33327
    590       3.5497      0.00000
    591       4.1704      0.00000
    592       4.1717      0.00000
    593       4.1727      0.00000
    594       4.2803      0.00000
    595       4.1411      0.00000
    596       4.1422      0.00000
    597       4.1435      0.00000
    598       4.2528      0.00000
    599       4.9905      0.00000
    600       4.9882      0.00000
    601       5.1343      0.00000
    602       5.1412      0.00000
    603       5.1448      0.00000
    604       5.2729      0.00000
    605       5.2744      0.00000
    606       5.2760      0.00000
    607       5.3577      0.00000
    608       4.9484      0.00000
    609       4.9494      0.00000
    610       5.3330      0.00000
    611       5.5239      0.00000
    612       5.5258      0.00000
    613       5.1251      0.00000
    614       5.1399      0.00000
    615       5.5385      0.00000
    616       5.1534      0.00000
    617       5.5437      0.00000
    618       5.5839      0.00000
    619       5.5656      0.00000
    620       5.4183      0.00000
    621       5.4931      0.00000
    622       5.3571      0.00000
    623       5.6063      0.00000
    624       5.6508      0.00000
    625       5.3716      0.00000
    626       5.6068      0.00000
    627       5.4832      0.00000
    628       5.6266      0.00000
    629       5.5771      0.00000
    630       5.6729      0.00000
    631       5.7006      0.00000
    632       5.3589      0.00000
    633       5.7423      0.00000
    634       5.7439      0.00000
    635       5.7466      0.00000
    636       5.7694      0.00000
    637       5.7694      0.00000
    638       5.5114      0.00000
    639       5.5113      0.00000
    640       5.5610      0.00000
    641       5.5855      0.00000
    642       5.5828      0.00000
    643       5.6027      0.00000
    644       5.6567      0.00000
    645       5.6659      0.00000
    646       5.6573      0.00000
    647       5.6643      0.00000
    648       5.6749      0.00000
    649       5.7107      0.00000
    650       5.7093      0.00000
    651       5.7201      0.00000
    652       5.7116      0.00000
    653       5.7246      0.00000
    654       5.7276      0.00000
    655       5.7511      0.00000
    656       5.7509      0.00000
    657       6.4454      0.00000
    658       6.6679      0.00000
    659       6.6931      0.00000
    660       6.6605      0.00000
    661       6.7031      0.00000
    662       6.8620      0.00000
    663       6.7810      0.00000
    664       6.6351      0.00000
    665       6.9310      0.00000
    666       7.0803      0.00000
    667       7.0028      0.00000
    668       7.0807      0.00000
    669       7.1426      0.00000
    670       7.1499      0.00000
    671       7.1618      0.00000
    672       7.1526      0.00000
    673       7.0602      0.00000
    674       7.0628      0.00000
    675       7.0797      0.00000
    676       7.0551      0.00000
    677       7.0172      0.00000
    678       7.0225      0.00000
    679       7.0838      0.00000
    680       7.2743      0.00000
    681       7.1209      0.00000
    682       7.1602      0.00000
    683       7.1208      0.00000
    684       7.2964      0.00000
    685       7.1678      0.00000
    686       7.1706      0.00000
    687       7.1783      0.00000
    688       7.1409      0.00000
    689       7.3843      0.00000
    690       7.1816      0.00000
    691       7.2052      0.00000
    692       7.6674      0.00000
    693       7.3564      0.00000
    694       7.6925      0.00000
    695       7.6178      0.00000
    696       7.6524      0.00000
    697       7.5970      0.00000
    698       7.7045      0.00000
    699       7.6469      0.00000
    700       7.4590      0.00000
    701       7.7239      0.00000
    702       7.7811      0.00000
    703       7.7674      0.00000
    704       7.6853      0.00000
    705       7.8009      0.00000
    706       7.7564      0.00000
    707       7.6909      0.00000
    708       7.7879      0.00000
    709       7.7028      0.00000
    710       7.7950      0.00000
    711       7.9197      0.00000
    712       7.9382      0.00000
    713       7.9324      0.00000
    714       7.9525      0.00000
    715       7.7389      0.00000
    716       7.9041      0.00000
    717       7.8107      0.00000
    718       7.9965      0.00000
    719       7.9289      0.00000
    720       7.9528      0.00000
    721       7.9757      0.00000
    722       7.9457      0.00000
    723       7.9943      0.00000
    724       7.9593      0.00000
    725       7.8759      0.00000
    726       7.9906      0.00000
    727       7.8959      0.00000
    728       7.9372      0.00000
    729       7.8548      0.00000
    730       7.9000      0.00000
    731       7.8722      0.00000
    732       7.9315      0.00000
    733       7.9993      0.00000
    734       7.8465      0.00000
    735       8.0979      0.00000
    736       7.8742      0.00000
    737       8.0495      0.00000
    738       7.9409      0.00000
    739       7.8617      0.00000
    740       8.0709      0.00000
    741       8.0181      0.00000
    742       8.0808      0.00000
    743       8.0872      0.00000
    744       7.8525      0.00000
    745       8.0258      0.00000
    746       8.0106      0.00000
    747       8.0301      0.00000
    748       8.0726      0.00000
    749       8.1111      0.00000
    750       8.1793      0.00000
    751       8.3020      0.00000
    752       8.2980      0.00000
    753       8.2233      0.00000
    754       8.1825      0.00000
    755       8.1895      0.00000
    756       8.2025      0.00000
    757       8.2208      0.00000
    758       8.2348      0.00000
    759       8.2450      0.00000
    760       8.4334      0.00000
    761       8.3949      0.00000
    762       8.4327      0.00000
    763       8.2457      0.00000
    764       8.4334      0.00000
    765       8.4191      0.00000
    766       8.1544      0.00000
    767       8.4652      0.00000
    768       8.4694      0.00000
    769       8.2052      0.00000
    770       8.4726      0.00000
    771       8.2899      0.00000
    772       8.1851      0.00000
    773       8.3092      0.00000
    774       8.5073      0.00000
    775       8.7940      0.00000
    776       8.7055      0.00000
    777       8.6480      0.00000
    778       8.4324      0.00000
    779       8.3515      0.00000
    780       8.5062      0.00000
    781       8.8499      0.00000
    782       8.8584      0.00000
    783       8.8587      0.00000
    784       8.4195      0.00000
    785       8.4222      0.00000
    786       8.4260      0.00000
    787       8.4346      0.00000
    788       8.4340      0.00000
    789       8.4498      0.00000
    790       8.4512      0.00000
    791       8.4521      0.00000
    792       8.4877      0.00000
    793       9.0094      0.00000
    794       9.0082      0.00000
    795       9.0288      0.00000
    796       9.0351      0.00000
    797       9.0841      0.00000
    798       9.0559      0.00000
    799       9.0833      0.00000
    800       8.8281      0.00000
    801       8.8694      0.00000
    802       9.0754      0.00000
    803       8.8396      0.00000
    804       9.0398      0.00000
    805       9.1397      0.00000
    806       9.1508      0.00000
    807       9.1438      0.00000
    808       8.8509      0.00000
    809       8.9185      0.00000
    810       9.1467      0.00000
    811       8.8624      0.00000
    812       9.2390      0.00000
    813       9.2649      0.00000
    814       9.2864      0.00000
    815       9.2637      0.00000
    816       9.2709      0.00000
    817       9.0471      0.00000
    818       9.0651      0.00000
    819       9.4098      0.00000
    820       9.0583      0.00000
    821       9.1067      0.00000
    822       9.0841      0.00000
    823       9.0913      0.00000
    824       9.1464      0.00000
    825       9.1480      0.00000
    826       9.1564      0.00000
    827       9.1759      0.00000
    828       9.1837      0.00000
    829       9.2430      0.00000
    830       9.2275      0.00000
    831       9.3180      0.00000
    832       9.5847      0.00000
    833       9.6443      0.00000
    834       9.6449      0.00000
    835       9.3489      0.00000
    836       9.3213      0.00000
    837       9.3459      0.00000
    838       9.3372      0.00000
    839       9.4461      0.00000
    840       9.6302      0.00000
    841       9.6299      0.00000
    842       9.6304      0.00000
    843      10.0414      0.00000
    844      10.3621      0.00000
    845      10.3692      0.00000
    846      10.3768      0.00000
    847      10.0149      0.00000
    848      10.6068      0.00000
    849      10.6087      0.00000
    850      10.6098      0.00000
    851      10.6124      0.00000
    852      10.6197      0.00000
    853      10.6216      0.00000
    854      10.6231      0.00000
    855      10.6414      0.00000
    856      10.6415      0.00000
    857      10.3499      0.00000
    858      10.3569      0.00000
    859      10.3644      0.00000
    860      10.5907      0.00000
    861      10.5925      0.00000
    862      10.5941      0.00000
    863      10.5954      0.00000
    864      10.6042      0.00000
    865      10.6058      0.00000
    866      10.6072      0.00000
    867      10.6251      0.00000
    868      10.6250      0.00000
    869      11.3462      0.00000
    870      11.3451      0.00000
    871      11.3517      0.00000
    872      11.3445      0.00000
    873      11.4384      0.00000
    874      11.4540      0.00000
    875      11.4685      0.00000
    876      11.4510      0.00000
    877      11.4665      0.00000
    878      11.4147      0.00000
    879      11.3631      0.00000
    880      11.3608      0.00000
    881      11.3556      0.00000
    882      11.3812      0.00000
    883      11.9057      0.00000
    884      11.8593      0.00000
    885      11.8823      0.00000
    886      12.0251      0.00000
    887      12.0251      0.00000
    888      11.9710      0.00000
    889      12.0056      0.00000
    890      11.9983      0.00000
    891      12.1284      0.00000
    892      11.9541      0.00000
    893      12.0537      0.00000
    894      12.1409      0.00000
    895      11.9440      0.00000
    896      12.1522      0.00000
    897      12.2064      0.00000
    898      12.1803      0.00000
    899      12.2133      0.00000
    900      12.2169      0.00000
    901      11.9762      0.00000
    902      12.2136      0.00000
    903      12.2199      0.00000
    904      12.2293      0.00000
    905      12.2309      0.00000
    906      12.2569      0.00000
    907      12.0538      0.00000
    908      12.2674      0.00000
    909      12.2732      0.00000
    910      12.0140      0.00000
    911      12.1307      0.00000
    912      12.2080      0.00000
    913      12.2764      0.00000
    914      12.0245      0.00000
    915      12.0227      0.00000
    916      12.2982      0.00000
    917      12.5576      0.00000
    918      12.5565      0.00000
    919      12.1995      0.00000
    920      12.1956      0.00000
    921      12.1913      0.00000
    922      12.6192      0.00000
    923      12.6038      0.00000
    924      12.6066      0.00000
    925      12.5629      0.00000
    926      12.1885      0.00000
    927      12.2063      0.00000
    928      12.3632      0.00000
    929      12.2462      0.00000
    930      12.4423      0.00000
    931      12.3173      0.00000
    932      12.4066      0.00000
    933      12.3211      0.00000
    934      12.2604      0.00000
    935      12.2790      0.00000
    936      12.2817      0.00000
    937      12.3184      0.00000
    938      12.4679      0.00000
    939      12.5577      0.00000
    940      12.5534      0.00000
    941      12.4577      0.00000
    942      12.5190      0.00000
    943      12.7745      0.00000
    944      12.5656      0.00000
    945      12.8728      0.00000
    946      12.5766      0.00000
    947      12.5721      0.00000
    948      12.9027      0.00000
    949      12.9142      0.00000
    950      12.6222      0.00000
    951      12.6285      0.00000
    952      12.6171      0.00000
    953      12.6150      0.00000
    954      12.8310      0.00000
    955      12.6345      0.00000
    956      12.6433      0.00000
    957      12.7773      0.00000
    958      13.0111      0.00000
    959      13.0412      0.00000
    960      13.0436      0.00000
    961      13.1295      0.00000
    962      12.7743      0.00000
    963      12.8945      0.00000
    964      12.9600      0.00000
    965      12.9844      0.00000
    966      13.0307      0.00000
    967      13.1098      0.00000
    968      13.3184      0.00000
    969      13.3201      0.00000
    970      13.3212      0.00000
    971      13.4094      0.00000
    972      13.4716      0.00000
    973      13.1767      0.00000
    974      13.1504      0.00000
    975      13.4826      0.00000
    976      13.4827      0.00000
    977      13.1958      0.00000
    978      13.4893      0.00000
    979      13.4798      0.00000
    980      13.3953      0.00000
    981      13.6088      0.00000
    982      13.4677      0.00000
    983      13.8084      0.00000
    984      13.8038      0.00000
    985      13.7950      0.00000
    986      13.3067      0.00000
    987      13.3035      0.00000
    988      13.3023      0.00000
    989      13.3323      0.00000
    990      13.3339      0.00000
    991      13.8700      0.00000
    992      13.7463      0.00000
    993      13.7162      0.00000
    994      13.7073      0.00000
    995      13.8060      0.00000
    996      13.7748      0.00000
    997      13.7596      0.00000
    998      13.7831      0.00000
    999      13.7570      0.00000
   1000      13.6586      0.00000
   1001      13.6753      0.00000
   1002      13.4725      0.00000
   1003      13.7973      0.00000
   1004      13.8541      0.00000
   1005      13.8658      0.00000
   1006      13.8429      0.00000
   1007      13.8958      0.00000
   1008      13.6284      0.00000
   1009      13.6596      0.00000
   1010      13.8738      0.00000
   1011      13.9617      0.00000
   1012      13.9674      0.00000
   1013      13.9572      0.00000
   1014      13.6799      0.00000
   1015      14.0167      0.00000
   1016      14.0356      0.00000
   1017      14.0237      0.00000
   1018      14.0883      0.00000
   1019      14.0961      0.00000
   1020      14.0629      0.00000
   1021      14.0626      0.00000
   1022      14.0567      0.00000
   1023      14.0815      0.00000
   1024      14.0587      0.00000
   1025      14.0932      0.00000
   1026      14.0976      0.00000
   1027      14.0775      0.00000
   1028      14.0935      0.00000
   1029      14.1222      0.00000
   1030      13.7612      0.00000
   1031      13.9185      0.00000
   1032      13.8618      0.00000
   1033      13.9074      0.00000
   1034      14.0475      0.00000
   1035      14.0735      0.00000
   1036      13.9983      0.00000
   1037      14.0772      0.00000
   1038      14.1321      0.00000
   1039      13.9796      0.00000
   1040      13.8206      0.00000
   1041      14.1820      0.00000
   1042      14.0567      0.00000
   1043      13.8221      0.00000
   1044      13.9060      0.00000
   1045      14.2999      0.00000
   1046      14.0723      0.00000
   1047      14.2508      0.00000
   1048      14.1389      0.00000
   1049      14.2978      0.00000
   1050      14.2689      0.00000
   1051      14.1489      0.00000
   1052      14.2460      0.00000
   1053      14.0767      0.00000
   1054      13.9710      0.00000
   1055      14.0158      0.00000
   1056      13.9728      0.00000
   1057      13.9851      0.00000
   1058      14.3083      0.00000
   1059      14.3283      0.00000
   1060      14.3467      0.00000
   1061      13.9746      0.00000
   1062      14.2848      0.00000
   1063      14.0600      0.00000
   1064      14.3663      0.00000
   1065      14.3743      0.00000
   1066      14.0273      0.00000
   1067      14.0628      0.00000
   1068      14.0382      0.00000
   1069      14.3836      0.00000
   1070      14.1831      0.00000
   1071      14.2880      0.00000
   1072      14.3278      0.00000
   1073      14.3423      0.00000
   1074      14.3099      0.00000
   1075      14.0564      0.00000
   1076      14.0510      0.00000
   1077      14.0400      0.00000
   1078      14.0495      0.00000
   1079      14.0518      0.00000
   1080      14.0997      0.00000
   1081      14.0886      0.00000
   1082      14.0962      0.00000
   1083      14.1036      0.00000
   1084      14.1199      0.00000
   1085      14.1250      0.00000
   1086      14.1212      0.00000
   1087      14.4188      0.00000
   1088      14.4241      0.00000
   1089      14.3377      0.00000
   1090      14.2821      0.00000
   1091      14.4160      0.00000
   1092      14.3310      0.00000
   1093      14.4059      0.00000
   1094      14.4302      0.00000
   1095      14.3896      0.00000
   1096      14.4463      0.00000
   1097      14.3496      0.00000
   1098      14.4265      0.00000
   1099      14.2992      0.00000
   1100      14.3117      0.00000
   1101      14.3025      0.00000
   1102      14.2965      0.00000
   1103      14.3211      0.00000
   1104      14.3009      0.00000
   1105      14.3183      0.00000
   1106      14.5304      0.00000
   1107      14.3836      0.00000
   1108      14.5982      0.00000
   1109      14.5976      0.00000
   1110      14.3646      0.00000
   1111      14.4524      0.00000
   1112      14.3886      0.00000
   1113      14.4363      0.00000
   1114      14.6678      0.00000
   1115      14.3989      0.00000
   1116      14.6099      0.00000
   1117      14.6991      0.00000
   1118      14.4079      0.00000
   1119      14.6974      0.00000
   1120      14.4543      0.00000
   1121      14.7316      0.00000
   1122      14.6978      0.00000
   1123      14.7075      0.00000
   1124      14.4373      0.00000
   1125      14.7280      0.00000
   1126      14.6738      0.00000
   1127      14.4098      0.00000
   1128      14.7449      0.00000
   1129      14.4392      0.00000
   1130      14.4255      0.00000
   1131      14.4878      0.00000
   1132      14.6941      0.00000
   1133      14.6376      0.00000
   1134      14.7382      0.00000
   1135      14.7800      0.00000
   1136      14.7790      0.00000
   1137      14.8195      0.00000
   1138      14.8194      0.00000
   1139      14.8201      0.00000
   1140      14.5267      0.00000
   1141      14.5560      0.00000
   1142      14.5594      0.00000
   1143      14.6507      0.00000
   1144      14.6528      0.00000
   1145      14.6200      0.00000
   1146      14.7184      0.00000
   1147      14.7282      0.00000
   1148      14.7123      0.00000
   1149      14.6963      0.00000
   1150      14.7380      0.00000
   1151      14.7673      0.00000
   1152      14.7746      0.00000

 k-point     2 :       0.5000    0.0000    0.0000
  band No.  band energies     occupation 
      1      -9.9869      1.00000
      2      -9.9790      1.00000
      3      -9.9539      1.00000
      4      -9.9439      1.00000
      5      -9.8845      1.00000
      6      -9.8759      1.00000
      7      -9.8460      1.00000
      8      -9.8374      1.00000
      9      -9.8174      1.00000
     10      -9.8129      1.00000
     11      -9.8119      1.00000
     12      -9.8113      1.00000
     13      -9.7984      1.00000
     14      -9.7923      1.00000
     15      -9.7845      1.00000
     16      -9.7820      1.00000
     17      -9.7789      1.00000
     18      -9.7773      1.00000
     19      -9.7699      1.00000
     20      -9.7679      1.00000
     21      -9.7623      1.00000
     22      -9.7569      1.00000
     23      -9.7542      1.00000
     24      -9.7526      1.00000
     25      -9.7503      1.00000
     26      -9.7488      1.00000
     27      -9.7455      1.00000
     28      -9.7422      1.00000
     29      -9.7328      1.00000
     30      -9.7305      1.00000
     31      -9.7236      1.00000
     32      -9.7223      1.00000
     33      -9.7190      1.00000
     34      -9.7181      1.00000
     35      -9.7136      1.00000
     36      -9.7090      1.00000
     37      -9.7072      1.00000
     38      -9.7019      1.00000
     39      -9.6977      1.00000
     40      -9.6936      1.00000
     41      -9.6908      1.00000
     42      -9.6855      1.00000
     43      -9.6797      1.00000
     44      -9.6765      1.00000
     45      -9.6755      1.00000
     46      -9.6696      1.00000
     47      -9.6667      1.00000
     48      -9.6644      1.00000
     49      -9.6605      1.00000
     50      -9.6592      1.00000
     51      -9.6512      1.00000
     52      -9.6486      1.00000
     53      -9.6413      1.00000
     54      -9.6356      1.00000
     55      -9.6318      1.00000
     56      -9.6288      1.00000
     57      -9.6219      1.00000
     58      -9.6167      1.00000
     59      -9.6092      1.00000
     60      -9.6041      1.00000
     61      -9.5980      1.00000
     62      -9.5875      1.00000
     63      -9.5846      1.00000
     64      -9.5773      1.00000
     65      -8.5412      1.00000
     66      -8.5378      1.00000
     67      -8.5334      1.00000
     68      -8.5293      1.00000
     69      -8.5168      1.00000
     70      -8.5144      1.00000
     71      -8.5134      1.00000
     72      -8.5092      1.00000
     73      -8.4821      1.00000
     74      -8.4812      1.00000
     75      -8.4803      1.00000
     76      -8.4794      1.00000
     77      -8.4295      1.00000
     78      -8.4292      1.00000
     79      -8.4278      1.00000
     80      -8.4260      1.00000
     81      -8.4226      1.00000
     82      -8.4217      1.00000
     83      -8.4167      1.00000
     84      -8.4152      1.00000
     85      -8.4118      1.00000
     86      -8.4114      1.00000
     87      -8.4108      1.00000
     88      -8.4104      1.00000
     89      -8.4093      1.00000
     90      -8.4083      1.00000
     91      -8.4074      1.00000
     92      -8.4062      1.00000
     93      -8.4014      1.00000
     94      -8.4005      1.00000
     95      -8.4001      1.00000
     96      -8.3994      1.00000
     97      -8.3976      1.00000
     98      -8.3967      1.00000
     99      -8.3951      1.00000
    100      -8.3939      1.00000
    101      -8.3911      1.00000
    102      -8.3905      1.00000
    103      -8.3874      1.00000
    104      -8.3867      1.00000
    105      -8.3796      1.00000
    106      -8.3788      1.00000
    107      -8.3781      1.00000
    108      -8.3770      1.00000
    109      -8.3766      1.00000
    110      -8.3756      1.00000
    111      -8.3750      1.00000
    112      -8.3745      1.00000
    113      -8.3712      1.00000
    114      -8.3699      1.00000
    115      -8.3683      1.00000
    116      -8.3673      1.00000
    117      -8.3657      1.00000
    118      -8.3639      1.00000
    119      -8.3609      1.00000
    120      -8.3591      1.00000
    121      -8.3533      1.00000
    122      -8.3527      1.00000
    123      -8.3526      1.00000
    124      -8.3519      1.00000
    125      -8.3415      1.00000
    126      -8.3405      1.00000
    127      -8.3398      1.00000
    128      -8.3392      1.00000
    129      -8.3331      1.00000
    130      -8.3323      1.00000
    131      -8.3304      1.00000
    132      -8.3287      1.00000
    133      -8.2981      1.00000
    134      -8.2976      1.00000
    135      -8.2973      1.00000
    136      -8.2970      1.00000
    137      -8.2923      1.00000
    138      -8.2912      1.00000
    139      -8.2900      1.00000
    140      -8.2894      1.00000
    141      -8.2808      1.00000
    142      -8.2803      1.00000
    143      -8.2780      1.00000
    144      -8.2777      1.00000
    145      -8.2768      1.00000
    146      -8.2761      1.00000
    147      -8.2722      1.00000
    148      -8.2711      1.00000
    149      -8.2415      1.00000
    150      -8.2407      1.00000
    151      -8.2400      1.00000
    152      -8.2395      1.00000
    153      -8.2332      1.00000
    154      -8.2323      1.00000
    155      -8.2257      1.00000
    156      -8.2246      1.00000
    157      -8.2229      1.00000
    158      -8.2216      1.00000
    159      -8.2089      1.00000
    160      -8.2084      1.00000
    161      -8.1708      1.00000
    162      -8.1704      1.00000
    163      -8.1701      1.00000
    164      -8.1691      1.00000
    165      -8.1520      1.00000
    166      -8.1516      1.00000
    167      -8.1368      1.00000
    168      -8.1354      1.00000
    169      -8.1317      1.00000
    170      -8.1300      1.00000
    171      -8.1274      1.00000
    172      -8.1257      1.00000
    173      -8.0679      1.00000
    174      -8.0667      1.00000
    175      -8.0656      1.00000
    176      -8.0649      1.00000
    177      -8.0570      1.00000
    178      -8.0554      1.00000
    179      -8.0546      1.00000
    180      -8.0533      1.00000
    181      -8.0203      1.00000
    182      -8.0184      1.00000
    183      -8.0060      1.00000
    184      -8.0047      1.00000
    185      -7.9871      1.00000
    186      -7.9870      1.00000
    187      -7.9805      1.00000
    188      -7.9801      1.00000
    189      -7.9605      1.00000
    190      -7.9596      1.00000
    191      -7.9573      1.00000
    192      -7.9571      1.00000
    193      -7.9547      1.00000
    194      -7.9532      1.00000
    195      -7.9379      1.00000
    196      -7.9361      1.00000
    197      -7.8606      1.00000
    198      -7.8576      1.00000
    199      -7.8348      1.00000
    200      -7.8314      1.00000
    201      -7.7930      1.00000
    202      -7.7921      1.00000
    203      -7.7908      1.00000
    204      -7.7895      1.00000
    205      -7.7745      1.00000
    206      -7.7724      1.00000
    207      -7.7660      1.00000
    208      -7.7655      1.00000
    209      -7.7590      1.00000
    210      -7.7564      1.00000
    211      -7.7442      1.00000
    212      -7.7432      1.00000
    213      -7.7398      1.00000
    214      -7.7387      1.00000
    215      -7.7380      1.00000
    216      -7.7369      1.00000
    217      -7.7329      1.00000
    218      -7.7326      1.00000
    219      -7.7298      1.00000
    220      -7.7293      1.00000
    221      -7.7269      1.00000
    222      -7.7263      1.00000
    223      -7.7236      1.00000
    224      -7.7225      1.00000
    225      -7.7148      1.00000
    226      -7.7128      1.00000
    227      -7.7116      1.00000
    228      -7.7103      1.00000
    229      -7.7083      1.00000
    230      -7.7077      1.00000
    231      -7.7062      1.00000
    232      -7.7062      1.00000
    233      -7.7038      1.00000
    234      -7.7030      1.00000
    235      -7.6976      1.00000
    236      -7.6968      1.00000
    237      -7.6920      1.00000
    238      -7.6908      1.00000
    239      -7.6875      1.00000
    240      -7.6869      1.00000
    241      -7.6863      1.00000
    242      -7.6857      1.00000
    243      -7.6816      1.00000
    244      -7.6809      1.00000
    245      -7.6787      1.00000
    246      -7.6785      1.00000
    247      -7.6757      1.00000
    248      -7.6747      1.00000
    249      -7.6716      1.00000
    250      -7.6708      1.00000
    251      -7.6698      1.00000
    252      -7.6691      1.00000
    253      -7.6686      1.00000
    254      -7.6680      1.00000
    255      -7.6676      1.00000
    256      -7.6666      1.00000
    257      -7.6624      1.00000
    258      -7.6613      1.00000
    259      -7.6603      1.00000
    260      -7.6591      1.00000
    261      -7.6575      1.00000
    262      -7.6554      1.00000
    263      -7.6529      1.00000
    264      -7.6506      1.00000
    265      -7.6407      1.00000
    266      -7.6394      1.00000
    267      -7.6384      1.00000
    268      -7.6372      1.00000
    269      -7.6354      1.00000
    270      -7.6348      1.00000
    271      -7.6319      1.00000
    272      -7.6311      1.00000
    273      -7.6310      1.00000
    274      -7.6303      1.00000
    275      -7.6293      1.00000
    276      -7.6288      1.00000
    277      -7.6285      1.00000
    278      -7.6275      1.00000
    279      -7.6270      1.00000
    280      -7.6261      1.00000
    281      -7.6215      1.00000
    282      -7.6209      1.00000
    283      -7.6191      1.00000
    284      -7.6170      1.00000
    285      -7.6163      1.00000
    286      -7.6153      1.00000
    287      -7.6150      1.00000
    288      -7.6147      1.00000
    289      -7.6121      1.00000
    290      -7.6118      1.00000
    291      -7.6090      1.00000
    292      -7.6085      1.00000
    293      -7.6078      1.00000
    294      -7.6066      1.00000
    295      -7.6041      1.00000
    296      -7.6030      1.00000
    297      -7.5938      1.00000
    298      -7.5933      1.00000
    299      -7.5926      1.00000
    300      -7.5913      1.00000
    301      -7.5911      1.00000
    302      -7.5896      1.00000
    303      -7.5893      1.00000
    304      -7.5889      1.00000
    305      -7.5822      1.00000
    306      -7.5809      1.00000
    307      -7.5798      1.00000
    308      -7.5787      1.00000
    309      -7.5776      1.00000
    310      -7.5773      1.00000
    311      -7.5765      1.00000
    312      -7.5760      1.00000
    313      -7.5746      1.00000
    314      -7.5737      1.00000
    315      -7.5731      1.00000
    316      -7.5722      1.00000
    317      -7.5713      1.00000
    318      -7.5701      1.00000
    319      -7.5698      1.00000
    320      -7.5690      1.00000
    321      -7.5673      1.00000
    322      -7.5660      1.00000
    323      -7.5654      1.00000
    324      -7.5647      1.00000
    325      -7.5175      1.00000
    326      -7.5157      1.00000
    327      -7.5023      1.00000
    328      -7.4995      1.00000
    329      -7.4767      1.00000
    330      -7.4755      1.00000
    331      -7.4739      1.00000
    332      -7.4717      1.00000
    333      -7.4653      1.00000
    334      -7.4632      1.00000
    335      -7.4384      1.00000
    336      -7.4353      1.00000
    337      -7.4333      1.00000
    338      -7.4314      1.00000
    339      -7.4065      1.00000
    340      -7.4028      1.00000
    341      -7.3973      1.00000
    342      -7.3942      1.00000
    343      -7.3820      1.00000
    344      -7.3792      1.00000
    345      -7.2989      1.00000
    346      -7.2954      1.00000
    347      -7.2920      1.00000
    348      -7.2897      1.00000
    349      -7.2728      1.00000
    350      -7.2717      1.00000
    351      -7.2670      1.00000
    352      -7.2653      1.00000
    353      -7.2512      1.00000
    354      -7.2438      1.00000
    355      -7.2027      1.00000
    356      -7.1991      1.00000
    357      -7.1941      1.00000
    358      -7.1912      1.00000
    359      -7.1813      1.00000
    360      -7.1784      1.00000
    361      -7.1760      1.00000
    362      -7.1723      1.00000
    363      -7.1665      1.00000
    364      -7.1592      1.00000
    365      -7.1449      1.00000
    366      -7.1403      1.00000
    367      -7.1148      1.00000
    368      -7.1080      1.00000
    369      -7.1068      1.00000
    370      -7.1020      1.00000
    371      -7.0994      1.00000
    372      -7.0947      1.00000
    373      -7.0460      1.00000
    374      -7.0368      1.00000
    375      -7.0342      1.00000
    376      -7.0280      1.00000
    377      -7.0138      1.00000
    378      -7.0093      1.00000
    379      -7.0067      1.00000
    380      -6.9952      1.00000
    381      -6.9508      1.00000
    382      -6.9463      1.00000
    383      -6.9424      1.00000
    384      -6.9384      1.00000
    385      -6.9367      1.00000
    386      -6.9282      1.00000
    387      -6.9167      1.00000
    388      -6.9063      1.00000
    389      -6.8215      1.00000
    390      -6.8123      1.00000
    391      -6.7762      1.00000
    392      -6.7639      1.00000
    393      -6.7593      1.00000
    394      -6.7459      1.00000
    395      -3.1749      1.00000
    396      -3.1646      1.00000
    397      -2.7719      1.00000
    398      -2.7637      1.00000
    399      -2.7601      1.00000
    400      -2.7522      1.00000
    401      -2.6308      1.00000
    402      -2.6276      1.00000
    403      -2.6251      1.00000
    404      -2.6196      1.00000
    405      -2.6173      1.00000
    406      -2.6150      1.00000
    407      -2.6100      1.00000
    408      -2.6089      1.00000
    409      -2.6022      1.00000
    410      -2.5977      1.00000
    411      -2.5885      1.00000
    412      -2.5876      1.00000
    413      -2.5841      1.00000
    414      -2.5810      1.00000
    415      -2.5777      1.00000
    416      -2.5712      1.00000
    417      -2.5681      1.00000
    418      -2.5628      1.00000
    419      -2.5416      1.00000
    420      -2.5328      1.00000
    421      -2.4997      1.00000
    422      -2.4958      1.00000
    423      -2.4892      1.00000
    424      -2.4857      1.00000
    425      -2.4790      1.00000
    426      -2.4692      1.00000
    427      -2.3923      1.00000
    428      -2.3881      1.00000
    429      -2.3843      1.00000
    430      -2.3822      1.00000
    431      -2.3791      1.00000
    432      -2.3729      1.00000
    433      -2.3660      1.00000
    434      -2.3593      1.00000
    435      -2.2608      1.00000
    436      -2.2478      1.00000
    437      -2.2216      1.00000
    438      -2.2090      1.00000
    439      -1.6685      1.00000
    440      -1.6662      1.00000
    441      -1.4896      1.00000
    442      -1.4872      1.00000
    443      -1.4855      1.00000
    444      -1.4835      1.00000
    445      -1.4546      1.00000
    446      -1.4529      1.00000
    447      -1.4273      1.00000
    448      -1.4241      1.00000
    449      -1.3696      1.00000
    450      -1.3669      1.00000
    451      -1.3585      1.00000
    452      -1.3554      1.00000
    453      -1.3457      1.00000
    454      -1.3436      1.00000
    455      -1.0937      1.00000
    456      -1.0884      1.00000
    457      -0.9642      1.00000
    458      -0.9607      1.00000
    459      -0.9479      1.00000
    460      -0.9450      1.00000
    461      -0.9229      1.00000
    462      -0.9201      1.00000
    463      -0.7518      1.00000
    464      -0.7513      1.00000
    465      -0.6714      1.00000
    466      -0.6689      1.00000
    467      -0.6480      1.00000
    468      -0.6452      1.00000
    469      -0.6174      1.00000
    470      -0.6163      1.00000
    471      -0.5930      1.00000
    472      -0.5892      1.00000
    473      -0.5816      1.00000
    474      -0.5791      1.00000
    475      -0.3609      1.00000
    476      -0.3588      1.00000
    477      -0.3523      1.00000
    478      -0.3476      1.00000
    479      -0.2177      1.00000
    480      -0.2116      1.00000
    481      -0.2047      1.00000
    482      -0.2035      1.00000
    483      -0.1476      1.00000
    484      -0.1422      1.00000
    485      -0.1398      1.00000
    486      -0.1344      1.00000
    487      -0.0500      1.00000
    488      -0.0432      1.00000
    489      -0.0370      1.00000
    490      -0.0303      1.00000
    491       0.1110      1.00000
    492       0.1187      1.00000
    493       0.1237      1.00000
    494       0.1366      1.00000
    495       0.1428      1.00000
    496       0.1489      1.00000
    497       0.1577      1.00000
    498       0.1619      1.00000
    499       0.1974      1.00000
    500       0.2006      1.00000
    501       0.2030      1.00000
    502       0.2080      1.00000
    503       0.2197      1.00000
    504       0.2240      1.00000
    505       0.2256      1.00000
    506       0.2317      1.00000
    507       0.2322      1.00000
    508       0.2394      1.00000
    509       0.2459      1.00000
    510       0.2518      1.00000
    511       0.2669      1.00000
    512       0.2717      1.00000
    513       0.2801      1.00000
    514       0.2847      1.00000
    515       0.2910      1.00000
    516       0.2928      1.00000
    517       0.2942      1.00000
    518       0.2992      1.00000
    519       0.3410      1.00000
    520       0.3427      1.00000
    521       0.3528      1.00000
    522       0.3550      1.00000
    523       0.3559      1.00000
    524       0.3584      1.00000
    525       0.3587      1.00000
    526       0.3617      1.00000
    527       0.3649      1.00000
    528       0.3652      1.00000
    529       0.3753      1.00000
    530       0.3804      1.00000
    531       0.3868      1.00000
    532       0.3891      1.00000
    533       0.3946      1.00000
    534       0.3991      1.00000
    535       0.4053      1.00000
    536       0.4077      1.00000
    537       0.4110      1.00000
    538       0.4118      1.00000
    539       0.4132      1.00000
    540       0.4213      1.00000
    541       0.4230      1.00000
    542       0.4289      1.00000
    543       0.4881      1.00000
    544       0.4995      1.00000
    545       0.5038      1.00000
    546       0.5138      1.00000
    547       0.9814      1.00000
    548       0.9931      1.00000
    549       0.9996      1.00000
    550       1.0114      1.00000
    551       1.0258      1.00000
    552       1.0319      1.00000
    553       1.0387      1.00000
    554       1.0449      1.00000
    555       1.0765      1.00000
    556       1.0807      1.00000
    557       1.0840      1.00000
    558       1.0855      1.00000
    559       1.0914      1.00000
    560       1.0933      1.00000
    561       1.0969      1.00000
    562       1.1064      1.00000
    563       1.1105      1.00000
    564       1.1142      1.00000
    565       1.1197      1.00000
    566       1.1237      1.00000
    567       1.1273      1.00000
    568       1.1308      1.00000
    569       1.1354      1.00000
    570       1.1398      1.00000
    571       1.1439      1.00000
    572       1.1470      1.00000
    573       1.1557      1.00000
    574       1.1608      1.00000
    575       1.1632      1.00000
    576       1.1742      1.00000
    577       1.1800      1.00000
    578       1.2041      1.00000
    579       1.3224      1.00000
    580       1.3251      1.00000
    581       1.3442      1.00000
    582       1.3461      1.00000
    583       1.7092      1.00000
    584       1.7351      1.00000
    585       1.7367      1.00000
    586       1.7612      1.00000
    587       3.0905      1.00000
    588       3.1473      0.94647
    589       4.4398      0.00000
    590       4.5575      0.00000
    591       4.6979      0.00000
    592       4.7000      0.00000
    593       4.4586      0.00000
    594       4.8358      0.00000
    595       4.5596      0.00000
    596       4.9307      0.00000
    597       4.8838      0.00000
    598       4.9014      0.00000
    599       4.9929      0.00000
    600       4.9154      0.00000
    601       4.8868      0.00000
    602       4.8686      0.00000
    603       5.1043      0.00000
    604       4.8593      0.00000
    605       5.1588      0.00000
    606       4.9518      0.00000
    607       4.9802      0.00000
    608       5.0247      0.00000
    609       5.0546      0.00000
    610       5.1216      0.00000
    611       5.3018      0.00000
    612       5.4937      0.00000
    613       5.4555      0.00000
    614       5.2972      0.00000
    615       5.3272      0.00000
    616       5.5552      0.00000
    617       5.1789      0.00000
    618       5.4973      0.00000
    619       5.6416      0.00000
    620       5.6525      0.00000
    621       5.6692      0.00000
    622       5.7000      0.00000
    623       5.7194      0.00000
    624       5.6679      0.00000
    625       5.7470      0.00000
    626       5.7284      0.00000
    627       5.6211      0.00000
    628       5.5814      0.00000
    629       5.4793      0.00000
    630       5.8205      0.00000
    631       5.5491      0.00000
    632       5.6687      0.00000
    633       5.7640      0.00000
    634       5.6608      0.00000
    635       5.6408      0.00000
    636       5.9052      0.00000
    637       5.9657      0.00000
    638       5.9122      0.00000
    639       5.7706      0.00000
    640       5.8817      0.00000
    641       5.8594      0.00000
    642       5.6862      0.00000
    643       5.8432      0.00000
    644       5.8054      0.00000
    645       5.7539      0.00000
    646       5.7513      0.00000
    647       6.1074      0.00000
    648       5.8184      0.00000
    649       6.1365      0.00000
    650       6.1714      0.00000
    651       5.8581      0.00000
    652       6.1755      0.00000
    653       5.9039      0.00000
    654       6.2245      0.00000
    655       5.9601      0.00000
    656       5.9929      0.00000
    657       6.0657      0.00000
    658       6.1102      0.00000
    659       6.3460      0.00000
    660       6.3553      0.00000
    661       6.1343      0.00000
    662       6.3997      0.00000
    663       6.4321      0.00000
    664       6.4518      0.00000
    665       6.2061      0.00000
    666       6.4567      0.00000
    667       6.4707      0.00000
    668       6.2328      0.00000
    669       6.4047      0.00000
    670       6.2743      0.00000
    671       6.4932      0.00000
    672       6.2562      0.00000
    673       6.2883      0.00000
    674       6.3829      0.00000
    675       6.3906      0.00000
    676       6.3915      0.00000
    677       6.4287      0.00000
    678       6.4467      0.00000
    679       6.4634      0.00000
    680       6.4681      0.00000
    681       6.4456      0.00000
    682       6.4590      0.00000
    683       7.0328      0.00000
    684       7.0293      0.00000
    685       7.0539      0.00000
    686       7.1483      0.00000
    687       7.0878      0.00000
    688       7.3310      0.00000
    689       7.2854      0.00000
    690       7.3034      0.00000
    691       7.3140      0.00000
    692       7.3701      0.00000
    693       7.4103      0.00000
    694       7.4224      0.00000
    695       7.4251      0.00000
    696       7.4374      0.00000
    697       7.4838      0.00000
    698       7.5157      0.00000
    699       7.2929      0.00000
    700       7.4974      0.00000
    701       7.4973      0.00000
    702       7.4986      0.00000
    703       7.5961      0.00000
    704       7.6035      0.00000
    705       7.4798      0.00000
    706       7.6627      0.00000
    707       7.5025      0.00000
    708       7.6365      0.00000
    709       7.5975      0.00000
    710       7.4327      0.00000
    711       7.5553      0.00000
    712       7.5398      0.00000
    713       7.5847      0.00000
    714       7.7217      0.00000
    715       7.5499      0.00000
    716       7.4943      0.00000
    717       7.4975      0.00000
    718       7.5840      0.00000
    719       7.5653      0.00000
    720       7.7274      0.00000
    721       7.8335      0.00000
    722       7.9416      0.00000
    723       7.8467      0.00000
    724       7.7414      0.00000
    725       7.7870      0.00000
    726       7.8949      0.00000
    727       7.9616      0.00000
    728       7.9740      0.00000
    729       7.9923      0.00000
    730       8.0055      0.00000
    731       8.0101      0.00000
    732       8.0136      0.00000
    733       8.0096      0.00000
    734       8.0135      0.00000
    735       8.0456      0.00000
    736       8.0508      0.00000
    737       8.0486      0.00000
    738       8.0232      0.00000
    739       8.0408      0.00000
    740       8.0480      0.00000
    741       7.9677      0.00000
    742       7.9871      0.00000
    743       7.8449      0.00000
    744       8.0600      0.00000
    745       8.0562      0.00000
    746       7.7380      0.00000
    747       7.7786      0.00000
    748       7.8095      0.00000
    749       7.9510      0.00000
    750       7.9348      0.00000
    751       7.9500      0.00000
    752       7.9504      0.00000
    753       7.9676      0.00000
    754       7.9708      0.00000
    755       7.9983      0.00000
    756       8.0074      0.00000
    757       8.0030      0.00000
    758       8.0116      0.00000
    759       8.0092      0.00000
    760       8.0135      0.00000
    761       8.0397      0.00000
    762       8.0466      0.00000
    763       8.0317      0.00000
    764       8.0341      0.00000
    765       7.9972      0.00000
    766       8.0331      0.00000
    767       8.0176      0.00000
    768       8.0176      0.00000
    769       8.0367      0.00000
    770       8.0386      0.00000
    771       8.7630      0.00000
    772       8.8010      0.00000
    773       8.8380      0.00000
    774       8.8758      0.00000
    775       8.8988      0.00000
    776       8.9193      0.00000
    777       8.9478      0.00000
    778       8.9616      0.00000
    779       9.1862      0.00000
    780       8.7802      0.00000
    781       9.2826      0.00000
    782       8.8111      0.00000
    783       9.3429      0.00000
    784       8.8576      0.00000
    785       9.3718      0.00000
    786       8.9040      0.00000
    787       9.4168      0.00000
    788       8.9136      0.00000
    789       9.2260      0.00000
    790       9.1421      0.00000
    791       8.9655      0.00000
    792       9.4726      0.00000
    793       9.4664      0.00000
    794       8.9868      0.00000
    795       9.5277      0.00000
    796       9.1985      0.00000
    797       9.2934      0.00000
    798       9.3812      0.00000
    799       9.3815      0.00000
    800       9.4199      0.00000
    801       9.4647      0.00000
    802       9.4863      0.00000
    803       9.4875      0.00000
    804       9.8285      0.00000
    805       9.8496      0.00000
    806       9.5340      0.00000
    807       9.9783      0.00000
    808      10.0217      0.00000
    809      10.0376      0.00000
    810      10.0339      0.00000
    811      10.0497      0.00000
    812      10.0599      0.00000
    813      10.0815      0.00000
    814      10.1056      0.00000
    815      10.0819      0.00000
    816      10.1275      0.00000
    817      10.1150      0.00000
    818      10.0160      0.00000
    819      10.1001      0.00000
    820      10.1647      0.00000
    821      10.1238      0.00000
    822       9.9822      0.00000
    823      10.1985      0.00000
    824      10.2205      0.00000
    825      10.2208      0.00000
    826      10.3000      0.00000
    827      10.3023      0.00000
    828      10.3109      0.00000
    829      10.2709      0.00000
    830      10.1628      0.00000
    831      10.2927      0.00000
    832      10.3995      0.00000
    833      10.3394      0.00000
    834      10.3051      0.00000
    835      10.1082      0.00000
    836      10.0709      0.00000
    837      10.0601      0.00000
    838      10.0746      0.00000
    839      10.0944      0.00000
    840      10.1288      0.00000
    841      10.1336      0.00000
    842      10.1271      0.00000
    843      10.2589      0.00000
    844      10.2482      0.00000
    845      10.3046      0.00000
    846      10.2603      0.00000
    847      10.4187      0.00000
    848      10.2878      0.00000
    849      10.3656      0.00000
    850      10.2864      0.00000
    851      10.3072      0.00000
    852      10.4582      0.00000
    853      10.4390      0.00000
    854      10.3860      0.00000
    855      10.4975      0.00000
    856      10.5257      0.00000
    857      10.3626      0.00000
    858      10.5215      0.00000
    859      10.3368      0.00000
    860      10.3058      0.00000
    861      10.3383      0.00000
    862      10.3821      0.00000
    863      10.3507      0.00000
    864      10.3609      0.00000
    865      10.6158      0.00000
    866      10.6419      0.00000
    867      10.7582      0.00000
    868      10.7637      0.00000
    869      10.8048      0.00000
    870      10.7837      0.00000
    871      10.5437      0.00000
    872      10.5935      0.00000
    873      10.6070      0.00000
    874      10.6423      0.00000
    875      10.6337      0.00000
    876      10.6457      0.00000
    877      10.6899      0.00000
    878      10.6973      0.00000
    879      10.8746      0.00000
    880      10.8997      0.00000
    881      10.7964      0.00000
    882      10.8545      0.00000
    883      10.8709      0.00000
    884      11.2886      0.00000
    885      11.3120      0.00000
    886      11.2877      0.00000
    887      11.3130      0.00000
    888      11.2544      0.00000
    889      11.2904      0.00000
    890      11.3809      0.00000
    891      11.4022      0.00000
    892      11.1711      0.00000
    893      11.4259      0.00000
    894      11.4185      0.00000
    895      11.4518      0.00000
    896      11.5464      0.00000
    897      11.5287      0.00000
    898      11.5569      0.00000
    899      11.5926      0.00000
    900      11.5980      0.00000
    901      11.6045      0.00000
    902      11.2724      0.00000
    903      11.3413      0.00000
    904      11.3011      0.00000
    905      11.3285      0.00000
    906      11.3505      0.00000
    907      11.4232      0.00000
    908      11.4360      0.00000
    909      11.4294      0.00000
    910      11.4390      0.00000
    911      11.4445      0.00000
    912      11.4692      0.00000
    913      11.5819      0.00000
    914      11.8527      0.00000
    915      11.5940      0.00000
    916      11.6254      0.00000
    917      11.6772      0.00000
    918      11.6117      0.00000
    919      11.6370      0.00000
    920      12.0746      0.00000
    921      12.1546      0.00000
    922      12.1077      0.00000
    923      12.1071      0.00000
    924      12.1346      0.00000
    925      12.1431      0.00000
    926      12.1498      0.00000
    927      12.1593      0.00000
    928      12.1686      0.00000
    929      12.1625      0.00000
    930      12.1640      0.00000
    931      12.1881      0.00000
    932      12.2459      0.00000
    933      11.9741      0.00000
    934      12.3882      0.00000
    935      12.4363      0.00000
    936      12.2433      0.00000
    937      12.4541      0.00000
    938      12.1011      0.00000
    939      12.1874      0.00000
    940      12.4485      0.00000
    941      12.2726      0.00000
    942      12.1802      0.00000
    943      12.3672      0.00000
    944      12.3554      0.00000
    945      12.1652      0.00000
    946      12.2993      0.00000
    947      12.1969      0.00000
    948      12.5157      0.00000
    949      12.1696      0.00000
    950      12.2971      0.00000
    951      12.1696      0.00000
    952      12.3608      0.00000
    953      12.3803      0.00000
    954      12.3885      0.00000
    955      12.4778      0.00000
    956      12.7171      0.00000
    957      12.7331      0.00000
    958      12.4335      0.00000
    959      12.7444      0.00000
    960      12.4530      0.00000
    961      12.4666      0.00000
    962      12.4730      0.00000
    963      12.4985      0.00000
    964      12.5191      0.00000
    965      12.7840      0.00000
    966      12.5924      0.00000
    967      12.8916      0.00000
    968      12.9124      0.00000
    969      12.9399      0.00000
    970      12.9443      0.00000
    971      12.9695      0.00000
    972      12.9773      0.00000
    973      12.9955      0.00000
    974      13.2077      0.00000
    975      12.7602      0.00000
    976      12.7689      0.00000
    977      13.1803      0.00000
    978      12.8238      0.00000
    979      13.0832      0.00000
    980      13.0932      0.00000
    981      13.1025      0.00000
    982      13.1261      0.00000
    983      13.0909      0.00000
    984      13.0044      0.00000
    985      13.0809      0.00000
    986      13.0996      0.00000
    987      13.1422      0.00000
    988      13.1129      0.00000
    989      12.9437      0.00000
    990      12.9334      0.00000
    991      12.9528      0.00000
    992      12.9517      0.00000
    993      12.9890      0.00000
    994      12.9775      0.00000
    995      12.9959      0.00000
    996      13.0770      0.00000
    997      13.1395      0.00000
    998      13.1293      0.00000
    999      13.1298      0.00000
   1000      13.1068      0.00000
   1001      13.1178      0.00000
   1002      13.1261      0.00000
   1003      13.1298      0.00000
   1004      13.1920      0.00000
   1005      13.1293      0.00000
   1006      13.2924      0.00000
   1007      13.5092      0.00000
   1008      13.7907      0.00000
   1009      13.7983      0.00000
   1010      13.7614      0.00000
   1011      13.8558      0.00000
   1012      13.8421      0.00000
   1013      13.8029      0.00000
   1014      13.7969      0.00000
   1015      13.8080      0.00000
   1016      13.7934      0.00000
   1017      13.7993      0.00000
   1018      13.8224      0.00000
   1019      13.8459      0.00000
   1020      13.8503      0.00000
   1021      13.9632      0.00000
   1022      13.9764      0.00000
   1023      14.0059      0.00000
   1024      14.0278      0.00000
   1025      14.0294      0.00000
   1026      14.0406      0.00000
   1027      13.6822      0.00000
   1028      14.0681      0.00000
   1029      14.0737      0.00000
   1030      14.0745      0.00000
   1031      14.0926      0.00000
   1032      14.0773      0.00000
   1033      14.0723      0.00000
   1034      14.1259      0.00000
   1035      13.7504      0.00000
   1036      14.1551      0.00000
   1037      14.1304      0.00000
   1038      13.7836      0.00000
   1039      13.7930      0.00000
   1040      13.8739      0.00000
   1041      13.8290      0.00000
   1042      13.8150      0.00000
   1043      13.8193      0.00000
   1044      13.9045      0.00000
   1045      13.8404      0.00000
   1046      13.8610      0.00000
   1047      13.9930      0.00000
   1048      13.9789      0.00000
   1049      13.9430      0.00000
   1050      13.9569      0.00000
   1051      13.9858      0.00000
   1052      13.9934      0.00000
   1053      14.0179      0.00000
   1054      14.0716      0.00000
   1055      14.0455      0.00000
   1056      14.0720      0.00000
   1057      14.1007      0.00000
   1058      14.0872      0.00000
   1059      14.0977      0.00000
   1060      14.1057      0.00000
   1061      14.1402      0.00000
   1062      14.1348      0.00000
   1063      14.1501      0.00000
   1064      14.1672      0.00000
   1065      14.2138      0.00000
   1066      14.2698      0.00000
   1067      14.6523      0.00000
   1068      14.6564      0.00000
   1069      14.6671      0.00000
   1070      14.7458      0.00000
   1071      14.7754      0.00000
   1072      14.7957      0.00000
   1073      14.8163      0.00000
   1074      14.8505      0.00000
   1075      14.6746      0.00000
   1076      14.7865      0.00000
   1077      14.8427      0.00000
   1078      14.9565      0.00000
   1079      14.9717      0.00000
   1080      14.8160      0.00000
   1081      14.7902      0.00000
   1082      14.8050      0.00000
   1083      15.0151      0.00000
   1084      14.8345      0.00000
   1085      14.8412      0.00000
   1086      15.1559      0.00000
   1087      15.1247      0.00000
   1088      15.1027      0.00000
   1089      15.0386      0.00000
   1090      15.2219      0.00000
   1091      15.2342      0.00000
   1092      15.2486      0.00000
   1093      15.2387      0.00000
   1094      15.3180      0.00000
   1095      15.3132      0.00000
   1096      15.3401      0.00000
   1097      15.3433      0.00000
   1098      15.4015      0.00000
   1099      15.4078      0.00000
   1100      15.4000      0.00000
   1101      15.4139      0.00000
   1102      15.4431      0.00000
   1103      15.3934      0.00000
   1104      15.5881      0.00000
   1105      15.6165      0.00000
   1106      15.6320      0.00000
   1107      15.6577      0.00000
   1108      15.7445      0.00000
   1109      15.7051      0.00000
   1110      15.7401      0.00000
   1111      15.6776      0.00000
   1112      15.7298      0.00000
   1113      15.7225      0.00000
   1114      15.6066      0.00000
   1115      15.7414      0.00000
   1116      15.7064      0.00000
   1117      15.5959      0.00000
   1118      15.6069      0.00000
   1119      15.5898      0.00000
   1120      15.6251      0.00000
   1121      15.6711      0.00000
   1122      15.7635      0.00000
   1123      15.7259      0.00000
   1124      15.7607      0.00000
   1125      15.7164      0.00000
   1126      16.0144      0.00000
   1127      15.8473      0.00000
   1128      16.0395      0.00000
   1129      15.9239      0.00000
   1130      16.0483      0.00000
   1131      16.0437      0.00000
   1132      16.1022      0.00000
   1133      16.0995      0.00000
   1134      16.1268      0.00000
   1135      16.0113      0.00000
   1136      16.1694      0.00000
   1137      16.1734      0.00000
   1138      16.1587      0.00000
   1139      16.1627      0.00000
   1140      16.1913      0.00000
   1141      16.1950      0.00000
   1142      16.2396      0.00000
   1143      16.2452      0.00000
   1144      16.2329      0.00000
   1145      16.2729      0.00000
   1146      16.2818      0.00000
   1147      16.3126      0.00000
   1148      16.3501      0.00000
   1149      16.3832      0.00000
   1150      16.4970      0.00000
   1151      16.5319      0.00000
   1152      16.5358      0.00000

 k-point     3 :       0.0000    0.5000    0.0000
  band No.  band energies     occupation 
      1      -9.9869      1.00000
      2      -9.9790      1.00000
      3      -9.9539      1.00000
      4      -9.9439      1.00000
      5      -9.8845      1.00000
      6      -9.8759      1.00000
      7      -9.8460      1.00000
      8      -9.8374      1.00000
      9      -9.8173      1.00000
     10      -9.8129      1.00000
     11      -9.8119      1.00000
     12      -9.8113      1.00000
     13      -9.7984      1.00000
     14      -9.7923      1.00000
     15      -9.7845      1.00000
     16      -9.7820      1.00000
     17      -9.7789      1.00000
     18      -9.7774      1.00000
     19      -9.7699      1.00000
     20      -9.7679      1.00000
     21      -9.7623      1.00000
     22      -9.7569      1.00000
     23      -9.7542      1.00000
     24      -9.7526      1.00000
     25      -9.7503      1.00000
     26      -9.7488      1.00000
     27      -9.7455      1.00000
     28      -9.7422      1.00000
     29      -9.7329      1.00000
     30      -9.7305      1.00000
     31      -9.7236      1.00000
     32      -9.7223      1.00000
     33      -9.7190      1.00000
     34      -9.7181      1.00000
     35      -9.7136      1.00000
     36      -9.7090      1.00000
     37      -9.7073      1.00000
     38      -9.7019      1.00000
     39      -9.6976      1.00000
     40      -9.6935      1.00000
     41      -9.6908      1.00000
     42      -9.6855      1.00000
     43      -9.6796      1.00000
     44      -9.6766      1.00000
     45      -9.6755      1.00000
     46      -9.6696      1.00000
     47      -9.6667      1.00000
     48      -9.6644      1.00000
     49      -9.6605      1.00000
     50      -9.6592      1.00000
     51      -9.6512      1.00000
     52      -9.6486      1.00000
     53      -9.6413      1.00000
     54      -9.6356      1.00000
     55      -9.6318      1.00000
     56      -9.6287      1.00000
     57      -9.6219      1.00000
     58      -9.6167      1.00000
     59      -9.6092      1.00000
     60      -9.6041      1.00000
     61      -9.5980      1.00000
     62      -9.5875      1.00000
     63      -9.5847      1.00000
     64      -9.5773      1.00000
     65      -8.5412      1.00000
     66      -8.5378      1.00000
     67      -8.5334      1.00000
     68      -8.5293      1.00000
     69      -8.5168      1.00000
     70      -8.5144      1.00000
     71      -8.5134      1.00000
     72      -8.5092      1.00000
     73      -8.4821      1.00000
     74      -8.4812      1.00000
     75      -8.4803      1.00000
     76      -8.4794      1.00000
     77      -8.4295      1.00000
     78      -8.4292      1.00000
     79      -8.4278      1.00000
     80      -8.4260      1.00000
     81      -8.4226      1.00000
     82      -8.4217      1.00000
     83      -8.4167      1.00000
     84      -8.4152      1.00000
     85      -8.4117      1.00000
     86      -8.4114      1.00000
     87      -8.4108      1.00000
     88      -8.4104      1.00000
     89      -8.4093      1.00000
     90      -8.4082      1.00000
     91      -8.4074      1.00000
     92      -8.4062      1.00000
     93      -8.4014      1.00000
     94      -8.4005      1.00000
     95      -8.4001      1.00000
     96      -8.3995      1.00000
     97      -8.3976      1.00000
     98      -8.3967      1.00000
     99      -8.3951      1.00000
    100      -8.3939      1.00000
    101      -8.3911      1.00000
    102      -8.3905      1.00000
    103      -8.3874      1.00000
    104      -8.3867      1.00000
    105      -8.3795      1.00000
    106      -8.3788      1.00000
    107      -8.3781      1.00000
    108      -8.3770      1.00000
    109      -8.3766      1.00000
    110      -8.3756      1.00000
    111      -8.3750      1.00000
    112      -8.3745      1.00000
    113      -8.3712      1.00000
    114      -8.3699      1.00000
    115      -8.3684      1.00000
    116      -8.3673      1.00000
    117      -8.3657      1.00000
    118      -8.3639      1.00000
    119      -8.3609      1.00000
    120      -8.3591      1.00000
    121      -8.3533      1.00000
    122      -8.3527      1.00000
    123      -8.3526      1.00000
    124      -8.3519      1.00000
    125      -8.3415      1.00000
    126      -8.3405      1.00000
    127      -8.3398      1.00000
    128      -8.3392      1.00000
    129      -8.3332      1.00000
    130      -8.3323      1.00000
    131      -8.3304      1.00000
    132      -8.3287      1.00000
    133      -8.2982      1.00000
    134      -8.2976      1.00000
    135      -8.2973      1.00000
    136      -8.2970      1.00000
    137      -8.2922      1.00000
    138      -8.2912      1.00000
    139      -8.2900      1.00000
    140      -8.2894      1.00000
    141      -8.2808      1.00000
    142      -8.2803      1.00000
    143      -8.2780      1.00000
    144      -8.2777      1.00000
    145      -8.2768      1.00000
    146      -8.2761      1.00000
    147      -8.2722      1.00000
    148      -8.2711      1.00000
    149      -8.2415      1.00000
    150      -8.2407      1.00000
    151      -8.2400      1.00000
    152      -8.2395      1.00000
    153      -8.2332      1.00000
    154      -8.2323      1.00000
    155      -8.2257      1.00000
    156      -8.2246      1.00000
    157      -8.2229      1.00000
    158      -8.2216      1.00000
    159      -8.2089      1.00000
    160      -8.2084      1.00000
    161      -8.1708      1.00000
    162      -8.1704      1.00000
    163      -8.1701      1.00000
    164      -8.1691      1.00000
    165      -8.1520      1.00000
    166      -8.1516      1.00000
    167      -8.1368      1.00000
    168      -8.1354      1.00000
    169      -8.1317      1.00000
    170      -8.1300      1.00000
    171      -8.1274      1.00000
    172      -8.1257      1.00000
    173      -8.0679      1.00000
    174      -8.0667      1.00000
    175      -8.0656      1.00000
    176      -8.0649      1.00000
    177      -8.0570      1.00000
    178      -8.0554      1.00000
    179      -8.0546      1.00000
    180      -8.0533      1.00000
    181      -8.0203      1.00000
    182      -8.0184      1.00000
    183      -8.0060      1.00000
    184      -8.0047      1.00000
    185      -7.9871      1.00000
    186      -7.9870      1.00000
    187      -7.9805      1.00000
    188      -7.9801      1.00000
    189      -7.9605      1.00000
    190      -7.9596      1.00000
    191      -7.9573      1.00000
    192      -7.9571      1.00000
    193      -7.9547      1.00000
    194      -7.9532      1.00000
    195      -7.9379      1.00000
    196      -7.9361      1.00000
    197      -7.8606      1.00000
    198      -7.8576      1.00000
    199      -7.8348      1.00000
    200      -7.8314      1.00000
    201      -7.7930      1.00000
    202      -7.7921      1.00000
    203      -7.7908      1.00000
    204      -7.7895      1.00000
    205      -7.7744      1.00000
    206      -7.7724      1.00000
    207      -7.7660      1.00000
    208      -7.7655      1.00000
    209      -7.7590      1.00000
    210      -7.7564      1.00000
    211      -7.7442      1.00000
    212      -7.7432      1.00000
    213      -7.7398      1.00000
    214      -7.7388      1.00000
    215      -7.7380      1.00000
    216      -7.7369      1.00000
    217      -7.7329      1.00000
    218      -7.7326      1.00000
    219      -7.7298      1.00000
    220      -7.7293      1.00000
    221      -7.7269      1.00000
    222      -7.7263      1.00000
    223      -7.7236      1.00000
    224      -7.7225      1.00000
    225      -7.7148      1.00000
    226      -7.7128      1.00000
    227      -7.7116      1.00000
    228      -7.7103      1.00000
    229      -7.7083      1.00000
    230      -7.7077      1.00000
    231      -7.7062      1.00000
    232      -7.7062      1.00000
    233      -7.7038      1.00000
    234      -7.7030      1.00000
    235      -7.6976      1.00000
    236      -7.6968      1.00000
    237      -7.6920      1.00000
    238      -7.6908      1.00000
    239      -7.6875      1.00000
    240      -7.6869      1.00000
    241      -7.6862      1.00000
    242      -7.6857      1.00000
    243      -7.6816      1.00000
    244      -7.6809      1.00000
    245      -7.6787      1.00000
    246      -7.6785      1.00000
    247      -7.6757      1.00000
    248      -7.6746      1.00000
    249      -7.6716      1.00000
    250      -7.6708      1.00000
    251      -7.6699      1.00000
    252      -7.6691      1.00000
    253      -7.6686      1.00000
    254      -7.6680      1.00000
    255      -7.6676      1.00000
    256      -7.6666      1.00000
    257      -7.6624      1.00000
    258      -7.6613      1.00000
    259      -7.6603      1.00000
    260      -7.6591      1.00000
    261      -7.6575      1.00000
    262      -7.6554      1.00000
    263      -7.6529      1.00000
    264      -7.6506      1.00000
    265      -7.6407      1.00000
    266      -7.6394      1.00000
    267      -7.6384      1.00000
    268      -7.6372      1.00000
    269      -7.6354      1.00000
    270      -7.6348      1.00000
    271      -7.6319      1.00000
    272      -7.6311      1.00000
    273      -7.6310      1.00000
    274      -7.6303      1.00000
    275      -7.6293      1.00000
    276      -7.6288      1.00000
    277      -7.6285      1.00000
    278      -7.6275      1.00000
    279      -7.6270      1.00000
    280      -7.6261      1.00000
    281      -7.6215      1.00000
    282      -7.6209      1.00000
    283      -7.6191      1.00000
    284      -7.6170      1.00000
    285      -7.6162      1.00000
    286      -7.6153      1.00000
    287      -7.6150      1.00000
    288      -7.6147      1.00000
    289      -7.6121      1.00000
    290      -7.6118      1.00000
    291      -7.6091      1.00000
    292      -7.6085      1.00000
    293      -7.6078      1.00000
    294      -7.6066      1.00000
    295      -7.6041      1.00000
    296      -7.6030      1.00000
    297      -7.5938      1.00000
    298      -7.5933      1.00000
    299      -7.5926      1.00000
    300      -7.5913      1.00000
    301      -7.5911      1.00000
    302      -7.5896      1.00000
    303      -7.5893      1.00000
    304      -7.5889      1.00000
    305      -7.5823      1.00000
    306      -7.5809      1.00000
    307      -7.5798      1.00000
    308      -7.5787      1.00000
    309      -7.5776      1.00000
    310      -7.5773      1.00000
    311      -7.5765      1.00000
    312      -7.5760      1.00000
    313      -7.5746      1.00000
    314      -7.5737      1.00000
    315      -7.5731      1.00000
    316      -7.5722      1.00000
    317      -7.5713      1.00000
    318      -7.5701      1.00000
    319      -7.5698      1.00000
    320      -7.5690      1.00000
    321      -7.5673      1.00000
    322      -7.5660      1.00000
    323      -7.5654      1.00000
    324      -7.5647      1.00000
    325      -7.5175      1.00000
    326      -7.5157      1.00000
    327      -7.5023      1.00000
    328      -7.4995      1.00000
    329      -7.4768      1.00000
    330      -7.4755      1.00000
    331      -7.4739      1.00000
    332      -7.4717      1.00000
    333      -7.4653      1.00000
    334      -7.4632      1.00000
    335      -7.4384      1.00000
    336      -7.4353      1.00000
    337      -7.4333      1.00000
    338      -7.4314      1.00000
    339      -7.4065      1.00000
    340      -7.4028      1.00000
    341      -7.3973      1.00000
    342      -7.3942      1.00000
    343      -7.3820      1.00000
    344      -7.3792      1.00000
    345      -7.2989      1.00000
    346      -7.2954      1.00000
    347      -7.2919      1.00000
    348      -7.2897      1.00000
    349      -7.2728      1.00000
    350      -7.2717      1.00000
    351      -7.2670      1.00000
    352      -7.2653      1.00000
    353      -7.2512      1.00000
    354      -7.2438      1.00000
    355      -7.2027      1.00000
    356      -7.1991      1.00000
    357      -7.1941      1.00000
    358      -7.1912      1.00000
    359      -7.1813      1.00000
    360      -7.1784      1.00000
    361      -7.1760      1.00000
    362      -7.1723      1.00000
    363      -7.1665      1.00000
    364      -7.1591      1.00000
    365      -7.1449      1.00000
    366      -7.1403      1.00000
    367      -7.1148      1.00000
    368      -7.1080      1.00000
    369      -7.1067      1.00000
    370      -7.1020      1.00000
    371      -7.0994      1.00000
    372      -7.0947      1.00000
    373      -7.0460      1.00000
    374      -7.0368      1.00000
    375      -7.0342      1.00000
    376      -7.0280      1.00000
    377      -7.0138      1.00000
    378      -7.0094      1.00000
    379      -7.0067      1.00000
    380      -6.9952      1.00000
    381      -6.9508      1.00000
    382      -6.9463      1.00000
    383      -6.9424      1.00000
    384      -6.9384      1.00000
    385      -6.9367      1.00000
    386      -6.9282      1.00000
    387      -6.9167      1.00000
    388      -6.9063      1.00000
    389      -6.8215      1.00000
    390      -6.8123      1.00000
    391      -6.7762      1.00000
    392      -6.7639      1.00000
    393      -6.7593      1.00000
    394      -6.7459      1.00000
    395      -3.1749      1.00000
    396      -3.1646      1.00000
    397      -2.7719      1.00000
    398      -2.7638      1.00000
    399      -2.7600      1.00000
    400      -2.7522      1.00000
    401      -2.6308      1.00000
    402      -2.6275      1.00000
    403      -2.6251      1.00000
    404      -2.6196      1.00000
    405      -2.6173      1.00000
    406      -2.6151      1.00000
    407      -2.6100      1.00000
    408      -2.6089      1.00000
    409      -2.6022      1.00000
    410      -2.5978      1.00000
    411      -2.5885      1.00000
    412      -2.5876      1.00000
    413      -2.5841      1.00000
    414      -2.5810      1.00000
    415      -2.5777      1.00000
    416      -2.5712      1.00000
    417      -2.5681      1.00000
    418      -2.5629      1.00000
    419      -2.5416      1.00000
    420      -2.5328      1.00000
    421      -2.4997      1.00000
    422      -2.4958      1.00000
    423      -2.4892      1.00000
    424      -2.4857      1.00000
    425      -2.4790      1.00000
    426      -2.4692      1.00000
    427      -2.3923      1.00000
    428      -2.3882      1.00000
    429      -2.3842      1.00000
    430      -2.3822      1.00000
    431      -2.3792      1.00000
    432      -2.3728      1.00000
    433      -2.3660      1.00000
    434      -2.3593      1.00000
    435      -2.2609      1.00000
    436      -2.2478      1.00000
    437      -2.2216      1.00000
    438      -2.2090      1.00000
    439      -1.6684      1.00000
    440      -1.6663      1.00000
    441      -1.4896      1.00000
    442      -1.4872      1.00000
    443      -1.4854      1.00000
    444      -1.4835      1.00000
    445      -1.4547      1.00000
    446      -1.4528      1.00000
    447      -1.4273      1.00000
    448      -1.4242      1.00000
    449      -1.3695      1.00000
    450      -1.3669      1.00000
    451      -1.3585      1.00000
    452      -1.3554      1.00000
    453      -1.3457      1.00000
    454      -1.3436      1.00000
    455      -1.0937      1.00000
    456      -1.0884      1.00000
    457      -0.9642      1.00000
    458      -0.9607      1.00000
    459      -0.9479      1.00000
    460      -0.9450      1.00000
    461      -0.9229      1.00000
    462      -0.9200      1.00000
    463      -0.7517      1.00000
    464      -0.7513      1.00000
    465      -0.6714      1.00000
    466      -0.6690      1.00000
    467      -0.6480      1.00000
    468      -0.6452      1.00000
    469      -0.6174      1.00000
    470      -0.6162      1.00000
    471      -0.5930      1.00000
    472      -0.5892      1.00000
    473      -0.5817      1.00000
    474      -0.5791      1.00000
    475      -0.3609      1.00000
    476      -0.3588      1.00000
    477      -0.3524      1.00000
    478      -0.3476      1.00000
    479      -0.2178      1.00000
    480      -0.2116      1.00000
    481      -0.2048      1.00000
    482      -0.2035      1.00000
    483      -0.1476      1.00000
    484      -0.1422      1.00000
    485      -0.1397      1.00000
    486      -0.1344      1.00000
    487      -0.0500      1.00000
    488      -0.0432      1.00000
    489      -0.0370      1.00000
    490      -0.0303      1.00000
    491       0.1110      1.00000
    492       0.1187      1.00000
    493       0.1237      1.00000
    494       0.1366      1.00000
    495       0.1428      1.00000
    496       0.1489      1.00000
    497       0.1577      1.00000
    498       0.1619      1.00000
    499       0.1974      1.00000
    500       0.2006      1.00000
    501       0.2030      1.00000
    502       0.2080      1.00000
    503       0.2197      1.00000
    504       0.2240      1.00000
    505       0.2256      1.00000
    506       0.2317      1.00000
    507       0.2322      1.00000
    508       0.2394      1.00000
    509       0.2459      1.00000
    510       0.2518      1.00000
    511       0.2669      1.00000
    512       0.2717      1.00000
    513       0.2801      1.00000
    514       0.2847      1.00000
    515       0.2911      1.00000
    516       0.2928      1.00000
    517       0.2942      1.00000
    518       0.2992      1.00000
    519       0.3410      1.00000
    520       0.3427      1.00000
    521       0.3528      1.00000
    522       0.3550      1.00000
    523       0.3559      1.00000
    524       0.3584      1.00000
    525       0.3587      1.00000
    526       0.3617      1.00000
    527       0.3649      1.00000
    528       0.3652      1.00000
    529       0.3753      1.00000
    530       0.3805      1.00000
    531       0.3868      1.00000
    532       0.3891      1.00000
    533       0.3946      1.00000
    534       0.3991      1.00000
    535       0.4053      1.00000
    536       0.4077      1.00000
    537       0.4110      1.00000
    538       0.4118      1.00000
    539       0.4132      1.00000
    540       0.4213      1.00000
    541       0.4230      1.00000
    542       0.4289      1.00000
    543       0.4881      1.00000
    544       0.4995      1.00000
    545       0.5038      1.00000
    546       0.5138      1.00000
    547       0.9814      1.00000
    548       0.9931      1.00000
    549       0.9996      1.00000
    550       1.0114      1.00000
    551       1.0258      1.00000
    552       1.0319      1.00000
    553       1.0387      1.00000
    554       1.0449      1.00000
    555       1.0764      1.00000
    556       1.0807      1.00000
    557       1.0840      1.00000
    558       1.0855      1.00000
    559       1.0914      1.00000
    560       1.0934      1.00000
    561       1.0969      1.00000
    562       1.1064      1.00000
    563       1.1105      1.00000
    564       1.1142      1.00000
    565       1.1197      1.00000
    566       1.1238      1.00000
    567       1.1273      1.00000
    568       1.1308      1.00000
    569       1.1354      1.00000
    570       1.1398      1.00000
    571       1.1439      1.00000
    572       1.1470      1.00000
    573       1.1557      1.00000
    574       1.1608      1.00000
    575       1.1632      1.00000
    576       1.1743      1.00000
    577       1.1800      1.00000
    578       1.2041      1.00000
    579       1.3224      1.00000
    580       1.3251      1.00000
    581       1.3442      1.00000
    582       1.3461      1.00000
    583       1.7092      1.00000
    584       1.7350      1.00000
    585       1.7367      1.00000
    586       1.7612      1.00000
    587       3.0904      1.00000
    588       3.1473      0.94654
    589       4.4398      0.00000
    590       4.5575      0.00000
    591       4.6978      0.00000
    592       4.7000      0.00000
    593       4.4586      0.00000
    594       4.8358      0.00000
    595       4.5596      0.00000
    596       4.9307      0.00000
    597       4.8838      0.00000
    598       4.9014      0.00000
    599       4.9929      0.00000
    600       4.9153      0.00000
    601       4.8871      0.00000
    602       4.8686      0.00000
    603       5.1044      0.00000
    604       4.8592      0.00000
    605       5.1588      0.00000
    606       4.9518      0.00000
    607       4.9802      0.00000
    608       5.0248      0.00000
    609       5.0546      0.00000
    610       5.1224      0.00000
    611       5.3008      0.00000
    612       5.4938      0.00000
    613       5.4554      0.00000
    614       5.2921      0.00000
    615       5.3324      0.00000
    616       5.5552      0.00000
    617       5.1789      0.00000
    618       5.4973      0.00000
    619       5.6416      0.00000
    620       5.6524      0.00000
    621       5.6692      0.00000
    622       5.7000      0.00000
    623       5.7193      0.00000
    624       5.6680      0.00000
    625       5.7470      0.00000
    626       5.7283      0.00000
    627       5.6017      0.00000
    628       5.6006      0.00000
    629       5.4794      0.00000
    630       5.8204      0.00000
    631       5.5486      0.00000
    632       5.6674      0.00000
    633       5.7657      0.00000
    634       5.6606      0.00000
    635       5.6409      0.00000
    636       5.9051      0.00000
    637       5.9659      0.00000
    638       5.9119      0.00000
    639       5.7704      0.00000
    640       5.8825      0.00000
    641       5.8590      0.00000
    642       5.6864      0.00000
    643       5.8419      0.00000
    644       5.8063      0.00000
    645       5.7533      0.00000
    646       5.7514      0.00000
    647       6.1077      0.00000
    648       5.8184      0.00000
    649       6.1366      0.00000
    650       6.1715      0.00000
    651       5.8581      0.00000
    652       6.1755      0.00000
    653       5.9039      0.00000
    654       6.2245      0.00000
    655       5.9601      0.00000
    656       5.9929      0.00000
    657       6.0656      0.00000
    658       6.1106      0.00000
    659       6.3458      0.00000
    660       6.3552      0.00000
    661       6.1341      0.00000
    662       6.3998      0.00000
    663       6.4322      0.00000
    664       6.4516      0.00000
    665       6.2062      0.00000
    666       6.4568      0.00000
    667       6.4707      0.00000
    668       6.2328      0.00000
    669       6.4047      0.00000
    670       6.2743      0.00000
    671       6.4932      0.00000
    672       6.2562      0.00000
    673       6.2883      0.00000
    674       6.3829      0.00000
    675       6.3905      0.00000
    676       6.3915      0.00000
    677       6.4287      0.00000
    678       6.4467      0.00000
    679       6.4634      0.00000
    680       6.4681      0.00000
    681       6.4456      0.00000
    682       6.4590      0.00000
    683       7.0328      0.00000
    684       7.0293      0.00000
    685       7.0539      0.00000
    686       7.1483      0.00000
    687       7.0878      0.00000
    688       7.3313      0.00000
    689       7.2851      0.00000
    690       7.3029      0.00000
    691       7.3142      0.00000
    692       7.3706      0.00000
    693       7.4103      0.00000
    694       7.4226      0.00000
    695       7.4251      0.00000
    696       7.4373      0.00000
    697       7.4836      0.00000
    698       7.5161      0.00000
    699       7.2928      0.00000
    700       7.4963      0.00000
    701       7.4983      0.00000
    702       7.4986      0.00000
    703       7.5961      0.00000
    704       7.6035      0.00000
    705       7.4798      0.00000
    706       7.6626      0.00000
    707       7.5026      0.00000
    708       7.6373      0.00000
    709       7.5968      0.00000
    710       7.4326      0.00000
    711       7.5555      0.00000
    712       7.5397      0.00000
    713       7.5841      0.00000
    714       7.7222      0.00000
    715       7.5499      0.00000
    716       7.4943      0.00000
    717       7.4977      0.00000
    718       7.5834      0.00000
    719       7.5655      0.00000
    720       7.7276      0.00000
    721       7.8334      0.00000
    722       7.9417      0.00000
    723       7.8473      0.00000
    724       7.7416      0.00000
    725       7.7856      0.00000
    726       7.8956      0.00000
    727       7.9617      0.00000
    728       7.9740      0.00000
    729       7.9923      0.00000
    730       8.0050      0.00000
    731       8.0105      0.00000
    732       8.0137      0.00000
    733       8.0096      0.00000
    734       8.0135      0.00000
    735       8.0456      0.00000
    736       8.0509      0.00000
    737       8.0486      0.00000
    738       8.0232      0.00000
    739       8.0409      0.00000
    740       8.0480      0.00000
    741       7.9666      0.00000
    742       7.9874      0.00000
    743       7.8458      0.00000
    744       8.0601      0.00000
    745       8.0562      0.00000
    746       7.7380      0.00000
    747       7.7786      0.00000
    748       7.8096      0.00000
    749       7.9510      0.00000
    750       7.9348      0.00000
    751       7.9500      0.00000
    752       7.9504      0.00000
    753       7.9676      0.00000
    754       7.9708      0.00000
    755       7.9983      0.00000
    756       8.0074      0.00000
    757       8.0030      0.00000
    758       8.0116      0.00000
    759       8.0091      0.00000
    760       8.0135      0.00000
    761       8.0397      0.00000
    762       8.0466      0.00000
    763       8.0317      0.00000
    764       8.0341      0.00000
    765       7.9972      0.00000
    766       8.0331      0.00000
    767       8.0177      0.00000
    768       8.0176      0.00000
    769       8.0367      0.00000
    770       8.0386      0.00000
    771       8.7629      0.00000
    772       8.8010      0.00000
    773       8.8380      0.00000
    774       8.8758      0.00000
    775       8.8988      0.00000
    776       8.9193      0.00000
    777       8.9478      0.00000
    778       8.9617      0.00000
    779       9.1862      0.00000
    780       8.7802      0.00000
    781       9.2826      0.00000
    782       8.8111      0.00000
    783       9.3430      0.00000
    784       8.8571      0.00000
    785       9.3721      0.00000
    786       8.9040      0.00000
    787       9.4169      0.00000
    788       8.9136      0.00000
    789       9.2254      0.00000
    790       9.1426      0.00000
    791       8.9655      0.00000
    792       9.4727      0.00000
    793       9.4664      0.00000
    794       8.9868      0.00000
    795       9.5277      0.00000
    796       9.1985      0.00000
    797       9.2934      0.00000
    798       9.3812      0.00000
    799       9.3815      0.00000
    800       9.4199      0.00000
    801       9.4647      0.00000
    802       9.4863      0.00000
    803       9.4875      0.00000
    804       9.8285      0.00000
    805       9.8497      0.00000
    806       9.5340      0.00000
    807       9.9783      0.00000
    808      10.0219      0.00000
    809      10.0375      0.00000
    810      10.0339      0.00000
    811      10.0497      0.00000
    812      10.0599      0.00000
    813      10.0815      0.00000
    814      10.1056      0.00000
    815      10.0819      0.00000
    816      10.1275      0.00000
    817      10.1150      0.00000
    818      10.0172      0.00000
    819      10.0990      0.00000
    820      10.1647      0.00000
    821      10.1239      0.00000
    822       9.9821      0.00000
    823      10.1986      0.00000
    824      10.2204      0.00000
    825      10.2209      0.00000
    826      10.3001      0.00000
    827      10.3023      0.00000
    828      10.3118      0.00000
    829      10.2695      0.00000
    830      10.1633      0.00000
    831      10.2925      0.00000
    832      10.3994      0.00000
    833      10.3389      0.00000
    834      10.3058      0.00000
    835      10.1081      0.00000
    836      10.0709      0.00000
    837      10.0601      0.00000
    838      10.0746      0.00000
    839      10.0944      0.00000
    840      10.1289      0.00000
    841      10.1336      0.00000
    842      10.1271      0.00000
    843      10.2592      0.00000
    844      10.2480      0.00000
    845      10.3047      0.00000
    846      10.2598      0.00000
    847      10.4192      0.00000
    848      10.2881      0.00000
    849      10.3653      0.00000
    850      10.2865      0.00000
    851      10.3067      0.00000
    852      10.4584      0.00000
    853      10.4392      0.00000
    854      10.3854      0.00000
    855      10.4979      0.00000
    856      10.5260      0.00000
    857      10.3624      0.00000
    858      10.5208      0.00000
    859      10.3374      0.00000
    860      10.3059      0.00000
    861      10.3383      0.00000
    862      10.3819      0.00000
    863      10.3507      0.00000
    864      10.3608      0.00000
    865      10.6161      0.00000
    866      10.6418      0.00000
    867      10.7582      0.00000
    868      10.7637      0.00000
    869      10.8048      0.00000
    870      10.7836      0.00000
    871      10.5436      0.00000
    872      10.5936      0.00000
    873      10.6071      0.00000
    874      10.6423      0.00000
    875      10.6336      0.00000
    876      10.6457      0.00000
    877      10.6898      0.00000
    878      10.6974      0.00000
    879      10.8730      0.00000
    880      10.9012      0.00000
    881      10.7964      0.00000
    882      10.8545      0.00000
    883      10.8710      0.00000
    884      11.2886      0.00000
    885      11.3121      0.00000
    886      11.2877      0.00000
    887      11.3128      0.00000
    888      11.2546      0.00000
    889      11.2904      0.00000
    890      11.3806      0.00000
    891      11.4019      0.00000
    892      11.1715      0.00000
    893      11.4259      0.00000
    894      11.4186      0.00000
    895      11.4519      0.00000
    896      11.5466      0.00000
    897      11.5287      0.00000
    898      11.5568      0.00000
    899      11.5926      0.00000
    900      11.5980      0.00000
    901      11.6045      0.00000
    902      11.2725      0.00000
    903      11.3412      0.00000
    904      11.3008      0.00000
    905      11.3286      0.00000
    906      11.3503      0.00000
    907      11.4231      0.00000
    908      11.4360      0.00000
    909      11.4295      0.00000
    910      11.4390      0.00000
    911      11.4445      0.00000
    912      11.4692      0.00000
    913      11.5820      0.00000
    914      11.8525      0.00000
    915      11.5940      0.00000
    916      11.6253      0.00000
    917      11.6773      0.00000
    918      11.6116      0.00000
    919      11.6370      0.00000
    920      12.0746      0.00000
    921      12.1546      0.00000
    922      12.1077      0.00000
    923      12.1072      0.00000
    924      12.1347      0.00000
    925      12.1431      0.00000
    926      12.1498      0.00000
    927      12.1592      0.00000
    928      12.1686      0.00000
    929      12.1624      0.00000
    930      12.1642      0.00000
    931      12.1881      0.00000
    932      12.2459      0.00000
    933      11.9741      0.00000
    934      12.3882      0.00000
    935      12.4363      0.00000
    936      12.2422      0.00000
    937      12.4545      0.00000
    938      12.0991      0.00000
    939      12.1896      0.00000
    940      12.4476      0.00000
    941      12.2741      0.00000
    942      12.1800      0.00000
    943      12.3663      0.00000
    944      12.3576      0.00000
    945      12.1623      0.00000
    946      12.3010      0.00000
    947      12.1966      0.00000
    948      12.5155      0.00000
    949      12.1697      0.00000
    950      12.2975      0.00000
    951      12.1696      0.00000
    952      12.3607      0.00000
    953      12.3803      0.00000
    954      12.3859      0.00000
    955      12.4804      0.00000
    956      12.7167      0.00000
    957      12.7313      0.00000
    958      12.4355      0.00000
    959      12.7442      0.00000
    960      12.4532      0.00000
    961      12.4667      0.00000
    962      12.4730      0.00000
    963      12.4980      0.00000
    964      12.5206      0.00000
    965      12.7868      0.00000
    966      12.5887      0.00000
    967      12.8917      0.00000
    968      12.9124      0.00000
    969      12.9399      0.00000
    970      12.9445      0.00000
    971      12.9692      0.00000
    972      12.9772      0.00000
    973      12.9955      0.00000
    974      13.2077      0.00000
    975      12.7601      0.00000
    976      12.7691      0.00000
    977      13.1777      0.00000
    978      12.8268      0.00000
    979      13.0832      0.00000
    980      13.0927      0.00000
    981      13.1029      0.00000
    982      13.1293      0.00000
    983      13.0895      0.00000
    984      12.9735      0.00000
    985      13.1121      0.00000
    986      13.0975      0.00000
    987      13.1423      0.00000
    988      13.1164      0.00000
    989      12.9402      0.00000
    990      12.9334      0.00000
    991      12.9527      0.00000
    992      12.9517      0.00000
    993      12.9892      0.00000
    994      12.9773      0.00000
    995      12.9959      0.00000
    996      13.0778      0.00000
    997      13.1331      0.00000
    998      13.1320      0.00000
    999      13.1336      0.00000
   1000      13.1066      0.00000
   1001      13.1203      0.00000
   1002      13.1226      0.00000
   1003      13.1284      0.00000
   1004      13.1911      0.00000
   1005      13.1319      0.00000
   1006      13.2918      0.00000
   1007      13.5098      0.00000
   1008      13.7909      0.00000
   1009      13.7984      0.00000
   1010      13.7612      0.00000
   1011      13.8557      0.00000
   1012      13.8423      0.00000
   1013      13.8032      0.00000
   1014      13.7968      0.00000
   1015      13.8084      0.00000
   1016      13.7932      0.00000
   1017      13.7994      0.00000
   1018      13.8222      0.00000
   1019      13.8460      0.00000
   1020      13.8503      0.00000
   1021      13.9629      0.00000
   1022      13.9769      0.00000
   1023      14.0058      0.00000
   1024      14.0279      0.00000
   1025      14.0267      0.00000
   1026      14.0487      0.00000
   1027      13.6755      0.00000
   1028      14.0690      0.00000
   1029      14.0738      0.00000
   1030      14.0747      0.00000
   1031      14.0927      0.00000
   1032      14.0777      0.00000
   1033      14.0723      0.00000
   1034      14.1256      0.00000
   1035      13.7511      0.00000
   1036      14.1553      0.00000
   1037      14.1293      0.00000
   1038      13.7836      0.00000
   1039      13.7918      0.00000
   1040      13.8749      0.00000
   1041      13.8315      0.00000
   1042      13.8173      0.00000
   1043      13.8169      0.00000
   1044      13.9041      0.00000
   1045      13.8411      0.00000
   1046      13.8612      0.00000
   1047      13.9838      0.00000
   1048      13.9859      0.00000
   1049      13.9433      0.00000
   1050      13.9567      0.00000
   1051      13.9856      0.00000
   1052      13.9935      0.00000
   1053      14.0180      0.00000
   1054      14.0719      0.00000
   1055      14.0451      0.00000
   1056      14.0720      0.00000
   1057      14.1005      0.00000
   1058      14.0873      0.00000
   1059      14.0979      0.00000
   1060      14.1058      0.00000
   1061      14.1402      0.00000
   1062      14.1349      0.00000
   1063      14.1501      0.00000
   1064      14.1671      0.00000
   1065      14.2139      0.00000
   1066      14.2698      0.00000
   1067      14.6583      0.00000
   1068      14.6586      0.00000
   1069      14.6617      0.00000
   1070      14.7434      0.00000
   1071      14.7819      0.00000
   1072      14.7897      0.00000
   1073      14.8169      0.00000
   1074      14.8488      0.00000
   1075      14.6704      0.00000
   1076      14.7745      0.00000
   1077      14.8654      0.00000
   1078      14.9523      0.00000
   1079      14.9619      0.00000
   1080      14.8282      0.00000
   1081      14.8091      0.00000
   1082      15.0017      0.00000
   1083      14.8230      0.00000
   1084      14.8249      0.00000
   1085      14.8420      0.00000
   1086      15.1581      0.00000
   1087      15.1368      0.00000
   1088      15.0178      0.00000
   1089      15.1559      0.00000
   1090      15.1884      0.00000
   1091      15.2381      0.00000
   1092      15.2728      0.00000
   1093      15.2539      0.00000
   1094      15.2844      0.00000
   1095      15.3108      0.00000
   1096      15.3413      0.00000
   1097      15.3504      0.00000
   1098      15.3854      0.00000
   1099      15.4025      0.00000
   1100      15.3512      0.00000
   1101      15.4445      0.00000
   1102      15.4904      0.00000
   1103      15.4790      0.00000
   1104      15.5800      0.00000
   1105      15.6005      0.00000
   1106      15.6666      0.00000
   1107      15.6553      0.00000
   1108      15.7077      0.00000
   1109      15.7147      0.00000
   1110      15.6527      0.00000
   1111      15.7075      0.00000
   1112      15.7201      0.00000
   1113      15.6695      0.00000
   1114      15.7381      0.00000
   1115      15.7221      0.00000
   1116      15.6150      0.00000
   1117      15.5755      0.00000
   1118      15.6143      0.00000
   1119      15.6390      0.00000
   1120      15.6743      0.00000
   1121      15.7350      0.00000
   1122      15.7573      0.00000
   1123      15.6961      0.00000
   1124      15.7162      0.00000
   1125      15.7514      0.00000
   1126      15.9880      0.00000
   1127      15.9354      0.00000
   1128      15.9342      0.00000
   1129      16.0411      0.00000
   1130      15.9725      0.00000
   1131      16.0504      0.00000
   1132      16.1138      0.00000
   1133      16.1349      0.00000
   1134      16.0974      0.00000
   1135      16.0797      0.00000
   1136      16.0951      0.00000
   1137      16.1694      0.00000
   1138      16.1547      0.00000
   1139      16.1563      0.00000
   1140      16.2209      0.00000
   1141      16.1878      0.00000
   1142      16.2409      0.00000
   1143      16.2353      0.00000
   1144      16.2450      0.00000
   1145      16.2723      0.00000
   1146      16.2830      0.00000
   1147      16.3146      0.00000
   1148      16.3040      0.00000
   1149      16.3541      0.00000
   1150      16.3715      0.00000
   1151      16.4875      0.00000
   1152      16.5416      0.00000

 k-point     4 :       0.5000    0.5000    0.0000
  band No.  band energies     occupation 
      1      -9.9430      1.00000
      2      -9.9381      1.00000
      3      -9.9365      1.00000
      4      -9.9252      1.00000
      5      -9.9082      1.00000
      6      -9.9025      1.00000
      7      -9.9015      1.00000
      8      -9.8882      1.00000
      9      -9.8278      1.00000
     10      -9.8259      1.00000
     11      -9.8180      1.00000
     12      -9.8148      1.00000
     13      -9.7979      1.00000
     14      -9.7918      1.00000
     15      -9.7885      1.00000
     16      -9.7875      1.00000
     17      -9.7820      1.00000
     18      -9.7799      1.00000
     19      -9.7771      1.00000
     20      -9.7622      1.00000
     21      -9.7599      1.00000
     22      -9.7577      1.00000
     23      -9.7558      1.00000
     24      -9.7451      1.00000
     25      -9.7420      1.00000
     26      -9.7383      1.00000
     27      -9.7349      1.00000
     28      -9.7339      1.00000
     29      -9.7300      1.00000
     30      -9.7279      1.00000
     31      -9.7254      1.00000
     32      -9.7203      1.00000
     33      -9.7180      1.00000
     34      -9.7133      1.00000
     35      -9.7097      1.00000
     36      -9.7064      1.00000
     37      -9.7031      1.00000
     38      -9.6944      1.00000
     39      -9.6918      1.00000
     40      -9.6895      1.00000
     41      -9.6831      1.00000
     42      -9.6811      1.00000
     43      -9.6793      1.00000
     44      -9.6763      1.00000
     45      -9.6714      1.00000
     46      -9.6691      1.00000
     47      -9.6676      1.00000
     48      -9.6633      1.00000
     49      -9.6581      1.00000
     50      -9.6556      1.00000
     51      -9.6535      1.00000
     52      -9.6454      1.00000
     53      -9.6444      1.00000
     54      -9.6413      1.00000
     55      -9.6366      1.00000
     56      -9.6274      1.00000
     57      -9.6213      1.00000
     58      -9.6172      1.00000
     59      -9.6134      1.00000
     60      -9.6103      1.00000
     61      -9.5992      1.00000
     62      -9.5892      1.00000
     63      -9.5826      1.00000
     64      -9.5778      1.00000
     65      -8.5402      1.00000
     66      -8.5376      1.00000
     67      -8.5358      1.00000
     68      -8.5325      1.00000
     69      -8.5157      1.00000
     70      -8.5128      1.00000
     71      -8.5123      1.00000
     72      -8.5076      1.00000
     73      -8.4830      1.00000
     74      -8.4821      1.00000
     75      -8.4812      1.00000
     76      -8.4803      1.00000
     77      -8.4326      1.00000
     78      -8.4321      1.00000
     79      -8.4270      1.00000
     80      -8.4260      1.00000
     81      -8.4251      1.00000
     82      -8.4237      1.00000
     83      -8.4226      1.00000
     84      -8.4219      1.00000
     85      -8.4125      1.00000
     86      -8.4116      1.00000
     87      -8.4113      1.00000
     88      -8.4102      1.00000
     89      -8.4053      1.00000
     90      -8.4040      1.00000
     91      -8.4031      1.00000
     92      -8.4026      1.00000
     93      -8.4015      1.00000
     94      -8.4005      1.00000
     95      -8.3990      1.00000
     96      -8.3987      1.00000
     97      -8.3929      1.00000
     98      -8.3925      1.00000
     99      -8.3917      1.00000
    100      -8.3915      1.00000
    101      -8.3874      1.00000
    102      -8.3873      1.00000
    103      -8.3872      1.00000
    104      -8.3861      1.00000
    105      -8.3849      1.00000
    106      -8.3839      1.00000
    107      -8.3810      1.00000
    108      -8.3797      1.00000
    109      -8.3781      1.00000
    110      -8.3772      1.00000
    111      -8.3766      1.00000
    112      -8.3757      1.00000
    113      -8.3703      1.00000
    114      -8.3692      1.00000
    115      -8.3658      1.00000
    116      -8.3657      1.00000
    117      -8.3645      1.00000
    118      -8.3640      1.00000
    119      -8.3538      1.00000
    120      -8.3536      1.00000
    121      -8.3508      1.00000
    122      -8.3503      1.00000
    123      -8.3481      1.00000
    124      -8.3479      1.00000
    125      -8.3409      1.00000
    126      -8.3397      1.00000
    127      -8.3352      1.00000
    128      -8.3343      1.00000
    129      -8.3331      1.00000
    130      -8.3311      1.00000
    131      -8.3298      1.00000
    132      -8.3281      1.00000
    133      -8.3033      1.00000
    134      -8.3012      1.00000
    135      -8.2992      1.00000
    136      -8.2972      1.00000
    137      -8.2720      1.00000
    138      -8.2717      1.00000
    139      -8.2686      1.00000
    140      -8.2681      1.00000
    141      -8.2676      1.00000
    142      -8.2672      1.00000
    143      -8.2652      1.00000
    144      -8.2648      1.00000
    145      -8.2550      1.00000
    146      -8.2546      1.00000
    147      -8.2519      1.00000
    148      -8.2510      1.00000
    149      -8.2505      1.00000
    150      -8.2502      1.00000
    151      -8.2491      1.00000
    152      -8.2484      1.00000
    153      -8.2462      1.00000
    154      -8.2461      1.00000
    155      -8.2454      1.00000
    156      -8.2451      1.00000
    157      -8.2447      1.00000
    158      -8.2443      1.00000
    159      -8.2328      1.00000
    160      -8.2327      1.00000
    161      -8.2298      1.00000
    162      -8.2297      1.00000
    163      -8.2296      1.00000
    164      -8.2289      1.00000
    165      -8.1363      1.00000
    166      -8.1351      1.00000
    167      -8.1275      1.00000
    168      -8.1268      1.00000
    169      -8.1261      1.00000
    170      -8.1256      1.00000
    171      -8.1245      1.00000
    172      -8.1231      1.00000
    173      -8.0739      1.00000
    174      -8.0728      1.00000
    175      -8.0418      1.00000
    176      -8.0410      1.00000
    177      -8.0313      1.00000
    178      -8.0308      1.00000
    179      -8.0176      1.00000
    180      -8.0176      1.00000
    181      -8.0091      1.00000
    182      -8.0084      1.00000
    183      -8.0029      1.00000
    184      -8.0017      1.00000
    185      -7.9923      1.00000
    186      -7.9912      1.00000
    187      -7.9875      1.00000
    188      -7.9873      1.00000
    189      -7.9792      1.00000
    190      -7.9784      1.00000
    191      -7.9578      1.00000
    192      -7.9577      1.00000
    193      -7.9502      1.00000
    194      -7.9492      1.00000
    195      -7.9481      1.00000
    196      -7.9461      1.00000
    197      -7.8567      1.00000
    198      -7.8538      1.00000
    199      -7.8313      1.00000
    200      -7.8282      1.00000
    201      -7.7921      1.00000
    202      -7.7915      1.00000
    203      -7.7908      1.00000
    204      -7.7901      1.00000
    205      -7.7685      1.00000
    206      -7.7668      1.00000
    207      -7.7586      1.00000
    208      -7.7574      1.00000
    209      -7.7529      1.00000
    210      -7.7518      1.00000
    211      -7.7501      1.00000
    212      -7.7497      1.00000
    213      -7.7400      1.00000
    214      -7.7383      1.00000
    215      -7.7377      1.00000
    216      -7.7356      1.00000
    217      -7.7350      1.00000
    218      -7.7340      1.00000
    219      -7.7308      1.00000
    220      -7.7299      1.00000
    221      -7.7226      1.00000
    222      -7.7215      1.00000
    223      -7.7213      1.00000
    224      -7.7202      1.00000
    225      -7.7195      1.00000
    226      -7.7184      1.00000
    227      -7.7176      1.00000
    228      -7.7163      1.00000
    229      -7.7120      1.00000
    230      -7.7100      1.00000
    231      -7.7074      1.00000
    232      -7.7068      1.00000
    233      -7.7064      1.00000
    234      -7.7049      1.00000
    235      -7.6994      1.00000
    236      -7.6983      1.00000
    237      -7.6952      1.00000
    238      -7.6948      1.00000
    239      -7.6845      1.00000
    240      -7.6837      1.00000
    241      -7.6832      1.00000
    242      -7.6828      1.00000
    243      -7.6815      1.00000
    244      -7.6805      1.00000
    245      -7.6775      1.00000
    246      -7.6767      1.00000
    247      -7.6760      1.00000
    248      -7.6742      1.00000
    249      -7.6735      1.00000
    250      -7.6720      1.00000
    251      -7.6707      1.00000
    252      -7.6699      1.00000
    253      -7.6693      1.00000
    254      -7.6675      1.00000
    255      -7.6657      1.00000
    256      -7.6652      1.00000
    257      -7.6635      1.00000
    258      -7.6630      1.00000
    259      -7.6603      1.00000
    260      -7.6597      1.00000
    261      -7.6553      1.00000
    262      -7.6534      1.00000
    263      -7.6533      1.00000
    264      -7.6518      1.00000
    265      -7.6487      1.00000
    266      -7.6480      1.00000
    267      -7.6415      1.00000
    268      -7.6407      1.00000
    269      -7.6379      1.00000
    270      -7.6366      1.00000
    271      -7.6343      1.00000
    272      -7.6335      1.00000
    273      -7.6316      1.00000
    274      -7.6304      1.00000
    275      -7.6289      1.00000
    276      -7.6284      1.00000
    277      -7.6263      1.00000
    278      -7.6248      1.00000
    279      -7.6214      1.00000
    280      -7.6194      1.00000
    281      -7.6184      1.00000
    282      -7.6175      1.00000
    283      -7.6165      1.00000
    284      -7.6149      1.00000
    285      -7.6128      1.00000
    286      -7.6122      1.00000
    287      -7.6118      1.00000
    288      -7.6112      1.00000
    289      -7.6100      1.00000
    290      -7.6090      1.00000
    291      -7.6060      1.00000
    292      -7.6055      1.00000
    293      -7.6053      1.00000
    294      -7.6045      1.00000
    295      -7.6034      1.00000
    296      -7.6029      1.00000
    297      -7.5989      1.00000
    298      -7.5978      1.00000
    299      -7.5972      1.00000
    300      -7.5963      1.00000
    301      -7.5940      1.00000
    302      -7.5930      1.00000
    303      -7.5894      1.00000
    304      -7.5882      1.00000
    305      -7.5866      1.00000
    306      -7.5844      1.00000
    307      -7.5828      1.00000
    308      -7.5826      1.00000
    309      -7.5793      1.00000
    310      -7.5787      1.00000
    311      -7.5779      1.00000
    312      -7.5765      1.00000
    313      -7.5748      1.00000
    314      -7.5739      1.00000
    315      -7.5733      1.00000
    316      -7.5730      1.00000
    317      -7.5722      1.00000
    318      -7.5718      1.00000
    319      -7.5707      1.00000
    320      -7.5699      1.00000
    321      -7.5682      1.00000
    322      -7.5677      1.00000
    323      -7.5668      1.00000
    324      -7.5662      1.00000
    325      -7.5615      1.00000
    326      -7.5596      1.00000
    327      -7.5582      1.00000
    328      -7.5557      1.00000
    329      -7.4859      1.00000
    330      -7.4816      1.00000
    331      -7.4569      1.00000
    332      -7.4550      1.00000
    333      -7.4332      1.00000
    334      -7.4278      1.00000
    335      -7.4162      1.00000
    336      -7.4125      1.00000
    337      -7.4116      1.00000
    338      -7.4078      1.00000
    339      -7.3902      1.00000
    340      -7.3835      1.00000
    341      -7.3670      1.00000
    342      -7.3633      1.00000
    343      -7.3535      1.00000
    344      -7.3498      1.00000
    345      -7.3484      1.00000
    346      -7.3459      1.00000
    347      -7.3388      1.00000
    348      -7.3345      1.00000
    349      -7.2402      1.00000
    350      -7.2370      1.00000
    351      -7.2357      1.00000
    352      -7.2259      1.00000
    353      -7.1982      1.00000
    354      -7.1952      1.00000
    355      -7.1945      1.00000
    356      -7.1894      1.00000
    357      -7.1842      1.00000
    358      -7.1810      1.00000
    359      -7.1565      1.00000
    360      -7.1546      1.00000
    361      -7.1494      1.00000
    362      -7.1461      1.00000
    363      -7.1444      1.00000
    364      -7.1411      1.00000
    365      -7.1407      1.00000
    366      -7.1380      1.00000
    367      -7.1309      1.00000
    368      -7.1263      1.00000
    369      -7.0861      1.00000
    370      -7.0856      1.00000
    371      -7.0788      1.00000
    372      -7.0775      1.00000
    373      -7.0531      1.00000
    374      -7.0495      1.00000
    375      -7.0476      1.00000
    376      -7.0418      1.00000
    377      -7.0382      1.00000
    378      -7.0368      1.00000
    379      -7.0222      1.00000
    380      -7.0160      1.00000
    381      -7.0087      1.00000
    382      -7.0063      1.00000
    383      -7.0013      1.00000
    384      -6.9986      1.00000
    385      -6.9405      1.00000
    386      -6.9339      1.00000
    387      -6.9069      1.00000
    388      -6.8988      1.00000
    389      -6.8245      1.00000
    390      -6.8150      1.00000
    391      -6.7834      1.00000
    392      -6.7719      1.00000
    393      -6.7643      1.00000
    394      -6.7518      1.00000
    395      -3.1761      1.00000
    396      -3.1674      1.00000
    397      -2.7465      1.00000
    398      -2.7409      1.00000
    399      -2.7379      1.00000
    400      -2.7323      1.00000
    401      -2.7290      1.00000
    402      -2.7237      1.00000
    403      -2.7220      1.00000
    404      -2.7153      1.00000
    405      -2.7096      1.00000
    406      -2.7064      1.00000
    407      -2.6533      1.00000
    408      -2.6410      1.00000
    409      -2.5880      1.00000
    410      -2.5829      1.00000
    411      -2.5763      1.00000
    412      -2.5731      1.00000
    413      -2.5693      1.00000
    414      -2.5654      1.00000
    415      -2.5337      1.00000
    416      -2.5264      1.00000
    417      -2.5238      1.00000
    418      -2.5157      1.00000
    419      -2.4220      1.00000
    420      -2.4129      1.00000
    421      -2.4100      1.00000
    422      -2.4057      1.00000
    423      -2.3976      1.00000
    424      -2.3942      1.00000
    425      -2.3701      1.00000
    426      -2.3671      1.00000
    427      -2.2927      1.00000
    428      -2.2873      1.00000
    429      -2.2776      1.00000
    430      -2.2715      1.00000
    431      -2.2640      1.00000
    432      -2.2586      1.00000
    433      -2.2276      1.00000
    434      -2.2202      1.00000
    435      -2.1120      1.00000
    436      -2.1028      1.00000
    437      -1.9833      1.00000
    438      -1.9783      1.00000
    439      -1.9769      1.00000
    440      -1.9751      1.00000
    441      -1.9701      1.00000
    442      -1.9651      1.00000
    443      -1.9533      1.00000
    444      -1.9486      1.00000
    445      -1.9060      1.00000
    446      -1.9035      1.00000
    447      -1.9027      1.00000
    448      -1.8977      1.00000
    449      -1.8964      1.00000
    450      -1.8943      1.00000
    451      -1.1069      1.00000
    452      -1.0992      1.00000
    453      -0.9997      1.00000
    454      -0.9971      1.00000
    455      -0.8120      1.00000
    456      -0.8095      1.00000
    457      -0.7316      1.00000
    458      -0.7286      1.00000
    459      -0.5493      1.00000
    460      -0.5417      1.00000
    461      -0.4819      1.00000
    462      -0.4780      1.00000
    463      -0.4734      1.00000
    464      -0.4712      1.00000
    465      -0.4457      1.00000
    466      -0.4432      1.00000
    467      -0.4398      1.00000
    468      -0.4372      1.00000
    469      -0.4353      1.00000
    470      -0.4346      1.00000
    471      -0.4165      1.00000
    472      -0.4137      1.00000
    473      -0.4114      1.00000
    474      -0.4112      1.00000
    475      -0.3842      1.00000
    476      -0.3813      1.00000
    477      -0.3396      1.00000
    478      -0.3374      1.00000
    479      -0.2809      1.00000
    480      -0.2784      1.00000
    481      -0.2614      1.00000
    482      -0.2601      1.00000
    483      -0.2528      1.00000
    484      -0.2510      1.00000
    485      -0.2269      1.00000
    486      -0.2243      1.00000
    487      -0.2228      1.00000
    488      -0.2218      1.00000
    489      -0.2025      1.00000
    490      -0.1990      1.00000
    491      -0.1700      1.00000
    492      -0.1684      1.00000
    493      -0.1306      1.00000
    494      -0.1275      1.00000
    495      -0.1267      1.00000
    496      -0.1227      1.00000
    497      -0.1106      1.00000
    498      -0.1081      1.00000
    499       0.0916      1.00000
    500       0.1009      1.00000
    501       0.1031      1.00000
    502       0.1033      1.00000
    503       0.1111      1.00000
    504       0.1143      1.00000
    505       0.1360      1.00000
    506       0.1371      1.00000
    507       0.2345      1.00000
    508       0.2386      1.00000
    509       0.2453      1.00000
    510       0.2506      1.00000
    511       0.2572      1.00000
    512       0.2625      1.00000
    513       0.2672      1.00000
    514       0.2816      1.00000
    515       0.2834      1.00000
    516       0.2901      1.00000
    517       0.2923      1.00000
    518       0.2943      1.00000
    519       0.3121      1.00000
    520       0.3184      1.00000
    521       0.3244      1.00000
    522       0.3294      1.00000
    523       0.5078      1.00000
    524       0.5146      1.00000
    525       0.5175      1.00000
    526       0.5211      1.00000
    527       0.5231      1.00000
    528       0.5252      1.00000
    529       0.5300      1.00000
    530       0.5320      1.00000
    531       0.5362      1.00000
    532       0.5445      1.00000
    533       0.5468      1.00000
    534       0.5529      1.00000
    535       0.5545      1.00000
    536       0.5571      1.00000
    537       0.5659      1.00000
    538       0.5689      1.00000
    539       0.6167      1.00000
    540       0.6206      1.00000
    541       0.6259      1.00000
    542       0.6281      1.00000
    543       0.6315      1.00000
    544       0.6375      1.00000
    545       0.6500      1.00000
    546       0.6653      1.00000
    547       0.6721      1.00000
    548       0.6750      1.00000
    549       0.6803      1.00000
    550       0.6831      1.00000
    551       0.6906      1.00000
    552       0.6924      1.00000
    553       0.7053      1.00000
    554       0.7113      1.00000
    555       0.9017      1.00000
    556       0.9174      1.00000
    557       0.9299      1.00000
    558       0.9395      1.00000
    559       1.0148      1.00000
    560       1.0251      1.00000
    561       1.0382      1.00000
    562       1.0451      1.00000
    563       1.0478      1.00000
    564       1.0544      1.00000
    565       1.0647      1.00000
    566       1.0677      1.00000
    567       1.0786      1.00000
    568       1.0814      1.00000
    569       1.0849      1.00000
    570       1.0885      1.00000
    571       1.0913      1.00000
    572       1.0939      1.00000
    573       1.0992      1.00000
    574       1.0999      1.00000
    575       1.1031      1.00000
    576       1.1112      1.00000
    577       1.1153      1.00000
    578       1.1191      1.00000
    579       1.7424      1.00000
    580       1.7443      1.00000
    581       1.7479      1.00000
    582       1.7840      1.00000
    583       1.7886      1.00000
    584       1.7928      1.00000
    585       1.7962      1.00000
    586       1.8373      1.00000
    587       3.0795      1.00000
    588       3.1378      0.94239
    589       4.6169      0.00000
    590       4.6201      0.00000
    591       4.7785      0.00000
    592       4.8143      0.00000
    593       4.7769      0.00000
    594       4.9191      0.00000
    595       4.9279      0.00000
    596       4.6415      0.00000
    597       4.6540      0.00000
    598       5.0130      0.00000
    599       5.0442      0.00000
    600       5.0273      0.00000
    601       5.0742      0.00000
    602       4.8015      0.00000
    603       4.8030      0.00000
    604       5.0923      0.00000
    605       4.9307      0.00000
    606       4.9331      0.00000
    607       4.9512      0.00000
    608       5.2848      0.00000
    609       5.2808      0.00000
    610       5.3292      0.00000
    611       5.0354      0.00000
    612       5.0661      0.00000
    613       5.0893      0.00000
    614       5.0846      0.00000
    615       5.4594      0.00000
    616       5.1773      0.00000
    617       5.4772      0.00000
    618       5.5674      0.00000
    619       5.6286      0.00000
    620       5.3058      0.00000
    621       5.3034      0.00000
    622       5.7102      0.00000
    623       5.6450      0.00000
    624       5.3587      0.00000
    625       5.6931      0.00000
    626       5.7698      0.00000
    627       5.7845      0.00000
    628       5.7646      0.00000
    629       5.7961      0.00000
    630       5.7937      0.00000
    631       5.7941      0.00000
    632       5.7215      0.00000
    633       5.7444      0.00000
    634       5.6372      0.00000
    635       5.6414      0.00000
    636       5.8723      0.00000
    637       5.8239      0.00000
    638       5.8850      0.00000
    639       5.7547      0.00000
    640       5.9409      0.00000
    641       5.7805      0.00000
    642       5.9178      0.00000
    643       6.0052      0.00000
    644       6.0383      0.00000
    645       5.9622      0.00000
    646       6.0051      0.00000
    647       5.7669      0.00000
    648       5.8049      0.00000
    649       5.7956      0.00000
    650       5.8056      0.00000
    651       5.8209      0.00000
    652       5.8455      0.00000
    653       5.8554      0.00000
    654       5.8508      0.00000
    655       5.8747      0.00000
    656       5.8673      0.00000
    657       5.8693      0.00000
    658       5.9034      0.00000
    659       5.8882      0.00000
    660       5.9824      0.00000
    661       6.0034      0.00000
    662       6.0373      0.00000
    663       6.0371      0.00000
    664       6.0703      0.00000
    665       6.0678      0.00000
    666       6.1013      0.00000
    667       6.5915      0.00000
    668       6.6685      0.00000
    669       6.8083      0.00000
    670       6.8315      0.00000
    671       6.9053      0.00000
    672       6.7198      0.00000
    673       6.9409      0.00000
    674       6.9256      0.00000
    675       6.9857      0.00000
    676       6.9483      0.00000
    677       7.0367      0.00000
    678       7.0430      0.00000
    679       6.8702      0.00000
    680       6.9912      0.00000
    681       7.0651      0.00000
    682       7.0659      0.00000
    683       7.1087      0.00000
    684       7.1173      0.00000
    685       7.1082      0.00000
    686       7.1079      0.00000
    687       6.8362      0.00000
    688       6.8891      0.00000
    689       7.1322      0.00000
    690       7.1380      0.00000
    691       7.1686      0.00000
    692       7.1795      0.00000
    693       7.1846      0.00000
    694       7.1867      0.00000
    695       6.9370      0.00000
    696       6.9516      0.00000
    697       7.0125      0.00000
    698       7.0137      0.00000
    699       7.0259      0.00000
    700       7.0628      0.00000
    701       7.0807      0.00000
    702       7.0808      0.00000
    703       7.0496      0.00000
    704       7.0970      0.00000
    705       7.0918      0.00000
    706       7.1333      0.00000
    707       7.1280      0.00000
    708       7.1291      0.00000
    709       7.2565      0.00000
    710       7.2212      0.00000
    711       7.2853      0.00000
    712       7.3338      0.00000
    713       7.1575      0.00000
    714       7.1840      0.00000
    715       7.2089      0.00000
    716       7.2176      0.00000
    717       7.4683      0.00000
    718       7.4849      0.00000
    719       7.6123      0.00000
    720       7.6542      0.00000
    721       7.6379      0.00000
    722       7.6309      0.00000
    723       7.6015      0.00000
    724       7.6525      0.00000
    725       7.9523      0.00000
    726       7.8782      0.00000
    727       7.9994      0.00000
    728       8.0777      0.00000
    729       8.0888      0.00000
    730       8.2101      0.00000
    731       7.9006      0.00000
    732       7.9670      0.00000
    733       8.2486      0.00000
    734       8.0421      0.00000
    735       8.1034      0.00000
    736       8.3865      0.00000
    737       8.3687      0.00000
    738       8.3516      0.00000
    739       8.2862      0.00000
    740       8.4068      0.00000
    741       8.2099      0.00000
    742       8.3963      0.00000
    743       8.4048      0.00000
    744       8.4159      0.00000
    745       8.4012      0.00000
    746       8.4320      0.00000
    747       8.4162      0.00000
    748       8.4785      0.00000
    749       8.4763      0.00000
    750       8.3827      0.00000
    751       8.3478      0.00000
    752       8.1817      0.00000
    753       8.5395      0.00000
    754       8.5593      0.00000
    755       8.5814      0.00000
    756       8.6162      0.00000
    757       8.5333      0.00000
    758       8.5973      0.00000
    759       8.6189      0.00000
    760       8.5697      0.00000
    761       8.5942      0.00000
    762       8.5650      0.00000
    763       8.6224      0.00000
    764       8.6727      0.00000
    765       8.6427      0.00000
    766       8.4554      0.00000
    767       8.7048      0.00000
    768       8.4355      0.00000
    769       8.4119      0.00000
    770       8.3963      0.00000
    771       8.4804      0.00000
    772       8.3786      0.00000
    773       8.4911      0.00000
    774       8.4228      0.00000
    775       8.4476      0.00000
    776       8.4666      0.00000
    777       8.4583      0.00000
    778       8.4876      0.00000
    779       8.4908      0.00000
    780       8.4974      0.00000
    781       8.5257      0.00000
    782       8.5804      0.00000
    783       8.5970      0.00000
    784       8.6142      0.00000
    785       8.6290      0.00000
    786       8.6360      0.00000
    787       8.6417      0.00000
    788       8.6510      0.00000
    789       8.6509      0.00000
    790       8.6678      0.00000
    791       8.6739      0.00000
    792       8.6887      0.00000
    793       8.7311      0.00000
    794       8.7321      0.00000
    795       9.5516      0.00000
    796       9.5580      0.00000
    797       9.6634      0.00000
    798       9.7180      0.00000
    799       9.7618      0.00000
    800       9.7767      0.00000
    801       9.7850      0.00000
    802       9.8311      0.00000
    803       9.8257      0.00000
    804       9.7827      0.00000
    805       9.9125      0.00000
    806       9.8857      0.00000
    807       9.9270      0.00000
    808       9.7211      0.00000
    809       9.8897      0.00000
    810       9.9737      0.00000
    811       9.7217      0.00000
    812       9.7883      0.00000
    813       9.8185      0.00000
    814       9.8291      0.00000
    815      10.0347      0.00000
    816       9.8530      0.00000
    817       9.8666      0.00000
    818      10.0556      0.00000
    819       9.9596      0.00000
    820      10.0413      0.00000
    821      10.1709      0.00000
    822      10.1009      0.00000
    823      10.1833      0.00000
    824      10.0854      0.00000
    825      10.1492      0.00000
    826      10.1850      0.00000
    827      10.2527      0.00000
    828      10.2452      0.00000
    829      10.3516      0.00000
    830      10.2615      0.00000
    831      10.4475      0.00000
    832      10.3724      0.00000
    833      10.4982      0.00000
    834      10.1909      0.00000
    835      10.2728      0.00000
    836      10.2415      0.00000
    837      10.6246      0.00000
    838      10.5531      0.00000
    839      10.4218      0.00000
    840      10.5740      0.00000
    841      10.4133      0.00000
    842      10.5460      0.00000
    843      10.6333      0.00000
    844      10.6099      0.00000
    845      10.5278      0.00000
    846      10.6678      0.00000
    847      10.6990      0.00000
    848      10.6153      0.00000
    849      10.6970      0.00000
    850      10.6911      0.00000
    851      10.7482      0.00000
    852      10.7355      0.00000
    853      10.7289      0.00000
    854      10.6751      0.00000
    855      10.5978      0.00000
    856      10.4997      0.00000
    857      10.5132      0.00000
    858      10.8193      0.00000
    859      10.8069      0.00000
    860      10.8345      0.00000
    861      10.6670      0.00000
    862      10.7366      0.00000
    863      10.5012      0.00000
    864      10.9337      0.00000
    865      10.9370      0.00000
    866      10.9175      0.00000
    867      10.9292      0.00000
    868      10.8663      0.00000
    869      10.9743      0.00000
    870      10.8234      0.00000
    871      10.7989      0.00000
    872      10.8793      0.00000
    873      10.9939      0.00000
    874      10.7691      0.00000
    875      10.8913      0.00000
    876      10.9303      0.00000
    877      10.7835      0.00000
    878      10.8183      0.00000
    879      10.7233      0.00000
    880      10.9038      0.00000
    881      10.8378      0.00000
    882      10.7833      0.00000
    883      10.7750      0.00000
    884      10.9043      0.00000
    885      10.9654      0.00000
    886      10.8903      0.00000
    887      11.0129      0.00000
    888      11.1221      0.00000
    889      10.9557      0.00000
    890      10.8776      0.00000
    891      10.8871      0.00000
    892      10.9211      0.00000
    893      10.9163      0.00000
    894      10.9001      0.00000
    895      11.0936      0.00000
    896      10.9520      0.00000
    897      11.0660      0.00000
    898      11.0075      0.00000
    899      10.9261      0.00000
    900      10.9412      0.00000
    901      10.9642      0.00000
    902      10.9949      0.00000
    903      11.0510      0.00000
    904      11.0633      0.00000
    905      11.1550      0.00000
    906      11.1743      0.00000
    907      11.1975      0.00000
    908      11.1134      0.00000
    909      11.1893      0.00000
    910      11.2378      0.00000
    911      11.1799      0.00000
    912      11.1763      0.00000
    913      11.2821      0.00000
    914      11.4944      0.00000
    915      11.1943      0.00000
    916      11.7158      0.00000
    917      11.7157      0.00000
    918      11.7701      0.00000
    919      11.7641      0.00000
    920      11.8218      0.00000
    921      11.7831      0.00000
    922      11.8354      0.00000
    923      11.5490      0.00000
    924      11.8447      0.00000
    925      11.8360      0.00000
    926      11.8169      0.00000
    927      11.8307      0.00000
    928      11.7051      0.00000
    929      11.7046      0.00000
    930      11.7671      0.00000
    931      11.7652      0.00000
    932      11.8941      0.00000
    933      12.1807      0.00000
    934      12.0888      0.00000
    935      11.8300      0.00000
    936      11.8235      0.00000
    937      11.8514      0.00000
    938      11.8175      0.00000
    939      11.8031      0.00000
    940      11.8155      0.00000
    941      12.3047      0.00000
    942      12.3734      0.00000
    943      12.4137      0.00000
    944      12.4224      0.00000
    945      12.4302      0.00000
    946      12.4901      0.00000
    947      12.5301      0.00000
    948      12.5297      0.00000
    949      12.5483      0.00000
    950      12.5517      0.00000
    951      12.1930      0.00000
    952      12.2031      0.00000
    953      12.5980      0.00000
    954      12.6337      0.00000
    955      12.6466      0.00000
    956      12.3090      0.00000
    957      12.3589      0.00000
    958      12.7069      0.00000
    959      12.7221      0.00000
    960      12.7192      0.00000
    961      12.7311      0.00000
    962      12.6715      0.00000
    963      12.4900      0.00000
    964      12.4218      0.00000
    965      12.4361      0.00000
    966      12.4932      0.00000
    967      12.5289      0.00000
    968      12.5317      0.00000
    969      12.5487      0.00000
    970      12.5675      0.00000
    971      12.5808      0.00000
    972      12.6363      0.00000
    973      12.6383      0.00000
    974      12.7044      0.00000
    975      12.7065      0.00000
    976      12.7063      0.00000
    977      12.7585      0.00000
    978      12.7578      0.00000
    979      13.0946      0.00000
    980      13.0384      0.00000
    981      13.1677      0.00000
    982      13.1722      0.00000
    983      13.1648      0.00000
    984      13.3083      0.00000
    985      13.2975      0.00000
    986      13.3223      0.00000
    987      13.3282      0.00000
    988      13.3614      0.00000
    989      13.3740      0.00000
    990      13.4001      0.00000
    991      13.4178      0.00000
    992      13.1519      0.00000
    993      13.4155      0.00000
    994      13.4531      0.00000
    995      13.3444      0.00000
    996      13.4802      0.00000
    997      13.4265      0.00000
    998      13.4334      0.00000
    999      13.4369      0.00000
   1000      13.1660      0.00000
   1001      13.1655      0.00000
   1002      13.1637      0.00000
   1003      13.5144      0.00000
   1004      13.5571      0.00000
   1005      13.3243      0.00000
   1006      13.3576      0.00000
   1007      13.3649      0.00000
   1008      13.3966      0.00000
   1009      13.4089      0.00000
   1010      13.4220      0.00000
   1011      13.4619      0.00000
   1012      13.5185      0.00000
   1013      13.5147      0.00000
   1014      13.5101      0.00000
   1015      13.5969      0.00000
   1016      13.6637      0.00000
   1017      13.5250      0.00000
   1018      13.4990      0.00000
   1019      13.6117      0.00000
   1020      13.8181      0.00000
   1021      13.8039      0.00000
   1022      13.8681      0.00000
   1023      13.6329      0.00000
   1024      13.8323      0.00000
   1025      13.7305      0.00000
   1026      13.7977      0.00000
   1027      13.9203      0.00000
   1028      13.8574      0.00000
   1029      13.9913      0.00000
   1030      13.9533      0.00000
   1031      14.0041      0.00000
   1032      13.9963      0.00000
   1033      14.0798      0.00000
   1034      14.0879      0.00000
   1035      14.1210      0.00000
   1036      14.1015      0.00000
   1037      14.0737      0.00000
   1038      14.0957      0.00000
   1039      14.1267      0.00000
   1040      13.7554      0.00000
   1041      13.7852      0.00000
   1042      13.7992      0.00000
   1043      13.8776      0.00000
   1044      13.9308      0.00000
   1045      13.9525      0.00000
   1046      13.9610      0.00000
   1047      13.9974      0.00000
   1048      14.0060      0.00000
   1049      14.0213      0.00000
   1050      14.0749      0.00000
   1051      14.0435      0.00000
   1052      14.1102      0.00000
   1053      14.1190      0.00000
   1054      14.1346      0.00000
   1055      14.1401      0.00000
   1056      14.1505      0.00000
   1057      14.1531      0.00000
   1058      14.1711      0.00000
   1059      14.5167      0.00000
   1060      14.5911      0.00000
   1061      14.7115      0.00000
   1062      14.7128      0.00000
   1063      14.7381      0.00000
   1064      14.7534      0.00000
   1065      14.7719      0.00000
   1066      14.7825      0.00000
   1067      14.7907      0.00000
   1068      14.7957      0.00000
   1069      14.7981      0.00000
   1070      14.8069      0.00000
   1071      14.8205      0.00000
   1072      14.8236      0.00000
   1073      14.8183      0.00000
   1074      14.8570      0.00000
   1075      14.5796      0.00000
   1076      14.6294      0.00000
   1077      15.1308      0.00000
   1078      14.9243      0.00000
   1079      15.1014      0.00000
   1080      15.0902      0.00000
   1081      14.9370      0.00000
   1082      14.8410      0.00000
   1083      14.8818      0.00000
   1084      14.7913      0.00000
   1085      14.8050      0.00000
   1086      14.8304      0.00000
   1087      14.8346      0.00000
   1088      14.8389      0.00000
   1089      14.8520      0.00000
   1090      14.8671      0.00000
   1091      14.8746      0.00000
   1092      14.8800      0.00000
   1093      14.8983      0.00000
   1094      15.0258      0.00000
   1095      15.4281      0.00000
   1096      15.2308      0.00000
   1097      15.4306      0.00000
   1098      15.4060      0.00000
   1099      15.3714      0.00000
   1100      15.4127      0.00000
   1101      15.3020      0.00000
   1102      15.6282      0.00000
   1103      15.6689      0.00000
   1104      15.6926      0.00000
   1105      15.6996      0.00000
   1106      15.7044      0.00000
   1107      15.7237      0.00000
   1108      15.7155      0.00000
   1109      15.7078      0.00000
   1110      15.7241      0.00000
   1111      15.7513      0.00000
   1112      15.7639      0.00000
   1113      15.7734      0.00000
   1114      15.7578      0.00000
   1115      15.8276      0.00000
   1116      15.8637      0.00000
   1117      15.8689      0.00000
   1118      15.8436      0.00000
   1119      15.9562      0.00000
   1120      15.9548      0.00000
   1121      15.9805      0.00000
   1122      15.9496      0.00000
   1123      15.9440      0.00000
   1124      16.1000      0.00000
   1125      16.1121      0.00000
   1126      16.0483      0.00000
   1127      16.1011      0.00000
   1128      15.9954      0.00000
   1129      15.9545      0.00000
   1130      15.8815      0.00000
   1131      16.0414      0.00000
   1132      16.1743      0.00000
   1133      16.0282      0.00000
   1134      16.1182      0.00000
   1135      16.0952      0.00000
   1136      16.1864      0.00000
   1137      16.1999      0.00000
   1138      16.2058      0.00000
   1139      16.2514      0.00000
   1140      16.2185      0.00000
   1141      16.2470      0.00000
   1142      16.3343      0.00000
   1143      16.3315      0.00000
   1144      16.3250      0.00000
   1145      16.3647      0.00000
   1146      16.3417      0.00000
   1147      16.3474      0.00000
   1148      16.3449      0.00000
   1149      16.3692      0.00000
   1150      16.4246      0.00000
   1151      16.3927      0.00000
   1152      16.4800      0.00000

 k-point     5 :       0.0000    0.0000    0.5000
  band No.  band energies     occupation 
      1      -9.9869      1.00000
      2      -9.9790      1.00000
      3      -9.9539      1.00000
      4      -9.9439      1.00000
      5      -9.8845      1.00000
      6      -9.8759      1.00000
      7      -9.8460      1.00000
      8      -9.8375      1.00000
      9      -9.8173      1.00000
     10      -9.8129      1.00000
     11      -9.8119      1.00000
     12      -9.8113      1.00000
     13      -9.7984      1.00000
     14      -9.7923      1.00000
     15      -9.7845      1.00000
     16      -9.7820      1.00000
     17      -9.7789      1.00000
     18      -9.7773      1.00000
     19      -9.7699      1.00000
     20      -9.7679      1.00000
     21      -9.7623      1.00000
     22      -9.7569      1.00000
     23      -9.7542      1.00000
     24      -9.7526      1.00000
     25      -9.7503      1.00000
     26      -9.7488      1.00000
     27      -9.7455      1.00000
     28      -9.7421      1.00000
     29      -9.7329      1.00000
     30      -9.7305      1.00000
     31      -9.7236      1.00000
     32      -9.7223      1.00000
     33      -9.7190      1.00000
     34      -9.7181      1.00000
     35      -9.7135      1.00000
     36      -9.7090      1.00000
     37      -9.7073      1.00000
     38      -9.7019      1.00000
     39      -9.6976      1.00000
     40      -9.6935      1.00000
     41      -9.6909      1.00000
     42      -9.6855      1.00000
     43      -9.6796      1.00000
     44      -9.6766      1.00000
     45      -9.6755      1.00000
     46      -9.6696      1.00000
     47      -9.6667      1.00000
     48      -9.6643      1.00000
     49      -9.6605      1.00000
     50      -9.6592      1.00000
     51      -9.6512      1.00000
     52      -9.6486      1.00000
     53      -9.6413      1.00000
     54      -9.6356      1.00000
     55      -9.6318      1.00000
     56      -9.6287      1.00000
     57      -9.6219      1.00000
     58      -9.6167      1.00000
     59      -9.6092      1.00000
     60      -9.6041      1.00000
     61      -9.5980      1.00000
     62      -9.5875      1.00000
     63      -9.5847      1.00000
     64      -9.5773      1.00000
     65      -8.5412      1.00000
     66      -8.5378      1.00000
     67      -8.5334      1.00000
     68      -8.5293      1.00000
     69      -8.5168      1.00000
     70      -8.5144      1.00000
     71      -8.5134      1.00000
     72      -8.5092      1.00000
     73      -8.4821      1.00000
     74      -8.4812      1.00000
     75      -8.4803      1.00000
     76      -8.4794      1.00000
     77      -8.4295      1.00000
     78      -8.4292      1.00000
     79      -8.4278      1.00000
     80      -8.4260      1.00000
     81      -8.4226      1.00000
     82      -8.4217      1.00000
     83      -8.4168      1.00000
     84      -8.4152      1.00000
     85      -8.4118      1.00000
     86      -8.4114      1.00000
     87      -8.4109      1.00000
     88      -8.4104      1.00000
     89      -8.4093      1.00000
     90      -8.4082      1.00000
     91      -8.4074      1.00000
     92      -8.4061      1.00000
     93      -8.4014      1.00000
     94      -8.4005      1.00000
     95      -8.4000      1.00000
     96      -8.3995      1.00000
     97      -8.3976      1.00000
     98      -8.3968      1.00000
     99      -8.3951      1.00000
    100      -8.3939      1.00000
    101      -8.3910      1.00000
    102      -8.3905      1.00000
    103      -8.3874      1.00000
    104      -8.3867      1.00000
    105      -8.3796      1.00000
    106      -8.3788      1.00000
    107      -8.3781      1.00000
    108      -8.3770      1.00000
    109      -8.3766      1.00000
    110      -8.3755      1.00000
    111      -8.3750      1.00000
    112      -8.3745      1.00000
    113      -8.3712      1.00000
    114      -8.3699      1.00000
    115      -8.3684      1.00000
    116      -8.3673      1.00000
    117      -8.3657      1.00000
    118      -8.3639      1.00000
    119      -8.3610      1.00000
    120      -8.3591      1.00000
    121      -8.3533      1.00000
    122      -8.3526      1.00000
    123      -8.3525      1.00000
    124      -8.3518      1.00000
    125      -8.3415      1.00000
    126      -8.3404      1.00000
    127      -8.3398      1.00000
    128      -8.3393      1.00000
    129      -8.3331      1.00000
    130      -8.3323      1.00000
    131      -8.3304      1.00000
    132      -8.3287      1.00000
    133      -8.2982      1.00000
    134      -8.2976      1.00000
    135      -8.2973      1.00000
    136      -8.2970      1.00000
    137      -8.2923      1.00000
    138      -8.2913      1.00000
    139      -8.2899      1.00000
    140      -8.2894      1.00000
    141      -8.2807      1.00000
    142      -8.2802      1.00000
    143      -8.2780      1.00000
    144      -8.2777      1.00000
    145      -8.2768      1.00000
    146      -8.2761      1.00000
    147      -8.2722      1.00000
    148      -8.2711      1.00000
    149      -8.2415      1.00000
    150      -8.2407      1.00000
    151      -8.2400      1.00000
    152      -8.2395      1.00000
    153      -8.2332      1.00000
    154      -8.2323      1.00000
    155      -8.2257      1.00000
    156      -8.2246      1.00000
    157      -8.2229      1.00000
    158      -8.2216      1.00000
    159      -8.2089      1.00000
    160      -8.2084      1.00000
    161      -8.1708      1.00000
    162      -8.1704      1.00000
    163      -8.1701      1.00000
    164      -8.1691      1.00000
    165      -8.1520      1.00000
    166      -8.1516      1.00000
    167      -8.1368      1.00000
    168      -8.1354      1.00000
    169      -8.1317      1.00000
    170      -8.1299      1.00000
    171      -8.1274      1.00000
    172      -8.1257      1.00000
    173      -8.0679      1.00000
    174      -8.0667      1.00000
    175      -8.0657      1.00000
    176      -8.0649      1.00000
    177      -8.0569      1.00000
    178      -8.0554      1.00000
    179      -8.0546      1.00000
    180      -8.0533      1.00000
    181      -8.0203      1.00000
    182      -8.0184      1.00000
    183      -8.0060      1.00000
    184      -8.0047      1.00000
    185      -7.9871      1.00000
    186      -7.9870      1.00000
    187      -7.9805      1.00000
    188      -7.9801      1.00000
    189      -7.9605      1.00000
    190      -7.9596      1.00000
    191      -7.9573      1.00000
    192      -7.9571      1.00000
    193      -7.9547      1.00000
    194      -7.9532      1.00000
    195      -7.9379      1.00000
    196      -7.9360      1.00000
    197      -7.8606      1.00000
    198      -7.8576      1.00000
    199      -7.8348      1.00000
    200      -7.8314      1.00000
    201      -7.7930      1.00000
    202      -7.7921      1.00000
    203      -7.7908      1.00000
    204      -7.7895      1.00000
    205      -7.7744      1.00000
    206      -7.7723      1.00000
    207      -7.7660      1.00000
    208      -7.7655      1.00000
    209      -7.7590      1.00000
    210      -7.7564      1.00000
    211      -7.7442      1.00000
    212      -7.7432      1.00000
    213      -7.7398      1.00000
    214      -7.7387      1.00000
    215      -7.7380      1.00000
    216      -7.7369      1.00000
    217      -7.7329      1.00000
    218      -7.7326      1.00000
    219      -7.7298      1.00000
    220      -7.7293      1.00000
    221      -7.7269      1.00000
    222      -7.7263      1.00000
    223      -7.7236      1.00000
    224      -7.7225      1.00000
    225      -7.7148      1.00000
    226      -7.7128      1.00000
    227      -7.7116      1.00000
    228      -7.7103      1.00000
    229      -7.7083      1.00000
    230      -7.7078      1.00000
    231      -7.7062      1.00000
    232      -7.7062      1.00000
    233      -7.7038      1.00000
    234      -7.7030      1.00000
    235      -7.6976      1.00000
    236      -7.6968      1.00000
    237      -7.6920      1.00000
    238      -7.6908      1.00000
    239      -7.6875      1.00000
    240      -7.6870      1.00000
    241      -7.6863      1.00000
    242      -7.6857      1.00000
    243      -7.6816      1.00000
    244      -7.6809      1.00000
    245      -7.6787      1.00000
    246      -7.6785      1.00000
    247      -7.6758      1.00000
    248      -7.6747      1.00000
    249      -7.6716      1.00000
    250      -7.6708      1.00000
    251      -7.6699      1.00000
    252      -7.6690      1.00000
    253      -7.6686      1.00000
    254      -7.6680      1.00000
    255      -7.6676      1.00000
    256      -7.6666      1.00000
    257      -7.6624      1.00000
    258      -7.6613      1.00000
    259      -7.6603      1.00000
    260      -7.6591      1.00000
    261      -7.6575      1.00000
    262      -7.6554      1.00000
    263      -7.6529      1.00000
    264      -7.6506      1.00000
    265      -7.6407      1.00000
    266      -7.6393      1.00000
    267      -7.6385      1.00000
    268      -7.6372      1.00000
    269      -7.6354      1.00000
    270      -7.6349      1.00000
    271      -7.6319      1.00000
    272      -7.6312      1.00000
    273      -7.6311      1.00000
    274      -7.6303      1.00000
    275      -7.6293      1.00000
    276      -7.6287      1.00000
    277      -7.6285      1.00000
    278      -7.6275      1.00000
    279      -7.6270      1.00000
    280      -7.6261      1.00000
    281      -7.6215      1.00000
    282      -7.6209      1.00000
    283      -7.6191      1.00000
    284      -7.6170      1.00000
    285      -7.6162      1.00000
    286      -7.6153      1.00000
    287      -7.6150      1.00000
    288      -7.6147      1.00000
    289      -7.6121      1.00000
    290      -7.6118      1.00000
    291      -7.6091      1.00000
    292      -7.6085      1.00000
    293      -7.6078      1.00000
    294      -7.6066      1.00000
    295      -7.6041      1.00000
    296      -7.6030      1.00000
    297      -7.5938      1.00000
    298      -7.5933      1.00000
    299      -7.5926      1.00000
    300      -7.5913      1.00000
    301      -7.5911      1.00000
    302      -7.5897      1.00000
    303      -7.5893      1.00000
    304      -7.5889      1.00000
    305      -7.5822      1.00000
    306      -7.5809      1.00000
    307      -7.5798      1.00000
    308      -7.5787      1.00000
    309      -7.5777      1.00000
    310      -7.5773      1.00000
    311      -7.5765      1.00000
    312      -7.5760      1.00000
    313      -7.5746      1.00000
    314      -7.5737      1.00000
    315      -7.5730      1.00000
    316      -7.5722      1.00000
    317      -7.5713      1.00000
    318      -7.5701      1.00000
    319      -7.5697      1.00000
    320      -7.5689      1.00000
    321      -7.5673      1.00000
    322      -7.5660      1.00000
    323      -7.5655      1.00000
    324      -7.5647      1.00000
    325      -7.5175      1.00000
    326      -7.5157      1.00000
    327      -7.5023      1.00000
    328      -7.4995      1.00000
    329      -7.4767      1.00000
    330      -7.4755      1.00000
    331      -7.4739      1.00000
    332      -7.4717      1.00000
    333      -7.4654      1.00000
    334      -7.4632      1.00000
    335      -7.4384      1.00000
    336      -7.4353      1.00000
    337      -7.4333      1.00000
    338      -7.4314      1.00000
    339      -7.4065      1.00000
    340      -7.4028      1.00000
    341      -7.3973      1.00000
    342      -7.3942      1.00000
    343      -7.3820      1.00000
    344      -7.3792      1.00000
    345      -7.2989      1.00000
    346      -7.2954      1.00000
    347      -7.2920      1.00000
    348      -7.2897      1.00000
    349      -7.2728      1.00000
    350      -7.2717      1.00000
    351      -7.2669      1.00000
    352      -7.2653      1.00000
    353      -7.2512      1.00000
    354      -7.2438      1.00000
    355      -7.2027      1.00000
    356      -7.1991      1.00000
    357      -7.1941      1.00000
    358      -7.1912      1.00000
    359      -7.1814      1.00000
    360      -7.1784      1.00000
    361      -7.1760      1.00000
    362      -7.1723      1.00000
    363      -7.1665      1.00000
    364      -7.1591      1.00000
    365      -7.1449      1.00000
    366      -7.1403      1.00000
    367      -7.1148      1.00000
    368      -7.1080      1.00000
    369      -7.1067      1.00000
    370      -7.1020      1.00000
    371      -7.0994      1.00000
    372      -7.0947      1.00000
    373      -7.0461      1.00000
    374      -7.0368      1.00000
    375      -7.0342      1.00000
    376      -7.0280      1.00000
    377      -7.0138      1.00000
    378      -7.0094      1.00000
    379      -7.0067      1.00000
    380      -6.9952      1.00000
    381      -6.9508      1.00000
    382      -6.9463      1.00000
    383      -6.9424      1.00000
    384      -6.9385      1.00000
    385      -6.9367      1.00000
    386      -6.9283      1.00000
    387      -6.9167      1.00000
    388      -6.9063      1.00000
    389      -6.8215      1.00000
    390      -6.8123      1.00000
    391      -6.7762      1.00000
    392      -6.7639      1.00000
    393      -6.7593      1.00000
    394      -6.7459      1.00000
    395      -3.1749      1.00000
    396      -3.1646      1.00000
    397      -2.7719      1.00000
    398      -2.7638      1.00000
    399      -2.7600      1.00000
    400      -2.7522      1.00000
    401      -2.6308      1.00000
    402      -2.6276      1.00000
    403      -2.6251      1.00000
    404      -2.6196      1.00000
    405      -2.6173      1.00000
    406      -2.6150      1.00000
    407      -2.6100      1.00000
    408      -2.6089      1.00000
    409      -2.6022      1.00000
    410      -2.5977      1.00000
    411      -2.5885      1.00000
    412      -2.5876      1.00000
    413      -2.5841      1.00000
    414      -2.5810      1.00000
    415      -2.5777      1.00000
    416      -2.5712      1.00000
    417      -2.5681      1.00000
    418      -2.5629      1.00000
    419      -2.5416      1.00000
    420      -2.5328      1.00000
    421      -2.4997      1.00000
    422      -2.4958      1.00000
    423      -2.4892      1.00000
    424      -2.4857      1.00000
    425      -2.4790      1.00000
    426      -2.4692      1.00000
    427      -2.3923      1.00000
    428      -2.3881      1.00000
    429      -2.3843      1.00000
    430      -2.3822      1.00000
    431      -2.3792      1.00000
    432      -2.3728      1.00000
    433      -2.3660      1.00000
    434      -2.3594      1.00000
    435      -2.2610      1.00000
    436      -2.2478      1.00000
    437      -2.2216      1.00000
    438      -2.2090      1.00000
    439      -1.6685      1.00000
    440      -1.6663      1.00000
    441      -1.4896      1.00000
    442      -1.4872      1.00000
    443      -1.4854      1.00000
    444      -1.4835      1.00000
    445      -1.4546      1.00000
    446      -1.4529      1.00000
    447      -1.4273      1.00000
    448      -1.4242      1.00000
    449      -1.3696      1.00000
    450      -1.3669      1.00000
    451      -1.3585      1.00000
    452      -1.3554      1.00000
    453      -1.3456      1.00000
    454      -1.3436      1.00000
    455      -1.0937      1.00000
    456      -1.0884      1.00000
    457      -0.9642      1.00000
    458      -0.9607      1.00000
    459      -0.9479      1.00000
    460      -0.9450      1.00000
    461      -0.9229      1.00000
    462      -0.9201      1.00000
    463      -0.7517      1.00000
    464      -0.7513      1.00000
    465      -0.6714      1.00000
    466      -0.6690      1.00000
    467      -0.6480      1.00000
    468      -0.6451      1.00000
    469      -0.6174      1.00000
    470      -0.6162      1.00000
    471      -0.5930      1.00000
    472      -0.5892      1.00000
    473      -0.5816      1.00000
    474      -0.5791      1.00000
    475      -0.3609      1.00000
    476      -0.3588      1.00000
    477      -0.3523      1.00000
    478      -0.3476      1.00000
    479      -0.2178      1.00000
    480      -0.2116      1.00000
    481      -0.2047      1.00000
    482      -0.2035      1.00000
    483      -0.1476      1.00000
    484      -0.1422      1.00000
    485      -0.1398      1.00000
    486      -0.1344      1.00000
    487      -0.0500      1.00000
    488      -0.0432      1.00000
    489      -0.0370      1.00000
    490      -0.0303      1.00000
    491       0.1110      1.00000
    492       0.1187      1.00000
    493       0.1237      1.00000
    494       0.1366      1.00000
    495       0.1428      1.00000
    496       0.1489      1.00000
    497       0.1577      1.00000
    498       0.1619      1.00000
    499       0.1974      1.00000
    500       0.2006      1.00000
    501       0.2030      1.00000
    502       0.2080      1.00000
    503       0.2197      1.00000
    504       0.2240      1.00000
    505       0.2256      1.00000
    506       0.2317      1.00000
    507       0.2322      1.00000
    508       0.2394      1.00000
    509       0.2459      1.00000
    510       0.2518      1.00000
    511       0.2669      1.00000
    512       0.2717      1.00000
    513       0.2801      1.00000
    514       0.2847      1.00000
    515       0.2910      1.00000
    516       0.2928      1.00000
    517       0.2942      1.00000
    518       0.2992      1.00000
    519       0.3410      1.00000
    520       0.3427      1.00000
    521       0.3528      1.00000
    522       0.3550      1.00000
    523       0.3559      1.00000
    524       0.3584      1.00000
    525       0.3586      1.00000
    526       0.3617      1.00000
    527       0.3649      1.00000
    528       0.3652      1.00000
    529       0.3753      1.00000
    530       0.3804      1.00000
    531       0.3868      1.00000
    532       0.3891      1.00000
    533       0.3946      1.00000
    534       0.3991      1.00000
    535       0.4053      1.00000
    536       0.4077      1.00000
    537       0.4110      1.00000
    538       0.4119      1.00000
    539       0.4132      1.00000
    540       0.4213      1.00000
    541       0.4230      1.00000
    542       0.4289      1.00000
    543       0.4881      1.00000
    544       0.4995      1.00000
    545       0.5038      1.00000
    546       0.5138      1.00000
    547       0.9814      1.00000
    548       0.9931      1.00000
    549       0.9996      1.00000
    550       1.0114      1.00000
    551       1.0258      1.00000
    552       1.0319      1.00000
    553       1.0387      1.00000
    554       1.0449      1.00000
    555       1.0764      1.00000
    556       1.0807      1.00000
    557       1.0840      1.00000
    558       1.0855      1.00000
    559       1.0914      1.00000
    560       1.0933      1.00000
    561       1.0969      1.00000
    562       1.1064      1.00000
    563       1.1105      1.00000
    564       1.1142      1.00000
    565       1.1197      1.00000
    566       1.1237      1.00000
    567       1.1273      1.00000
    568       1.1308      1.00000
    569       1.1354      1.00000
    570       1.1398      1.00000
    571       1.1439      1.00000
    572       1.1470      1.00000
    573       1.1557      1.00000
    574       1.1608      1.00000
    575       1.1632      1.00000
    576       1.1743      1.00000
    577       1.1800      1.00000
    578       1.2041      1.00000
    579       1.3224      1.00000
    580       1.3251      1.00000
    581       1.3442      1.00000
    582       1.3461      1.00000
    583       1.7092      1.00000
    584       1.7351      1.00000
    585       1.7367      1.00000
    586       1.7612      1.00000
    587       3.0905      1.00000
    588       3.1473      0.94657
    589       4.4398      0.00000
    590       4.5575      0.00000
    591       4.6980      0.00000
    592       4.6998      0.00000
    593       4.4586      0.00000
    594       4.8358      0.00000
    595       4.5596      0.00000
    596       4.9306      0.00000
    597       4.8838      0.00000
    598       4.9013      0.00000
    599       4.9929      0.00000
    600       4.9152      0.00000
    601       4.8872      0.00000
    602       4.8686      0.00000
    603       5.1044      0.00000
    604       4.8592      0.00000
    605       5.1588      0.00000
    606       4.9518      0.00000
    607       4.9802      0.00000
    608       5.0249      0.00000
    609       5.0547      0.00000
    610       5.1217      0.00000
    611       5.3015      0.00000
    612       5.4937      0.00000
    613       5.4553      0.00000
    614       5.2830      0.00000
    615       5.3414      0.00000
    616       5.5552      0.00000
    617       5.1790      0.00000
    618       5.4971      0.00000
    619       5.6416      0.00000
    620       5.6524      0.00000
    621       5.6694      0.00000
    622       5.7000      0.00000
    623       5.7193      0.00000
    624       5.6680      0.00000
    625       5.7469      0.00000
    626       5.7283      0.00000
    627       5.5461      0.00000
    628       5.6559      0.00000
    629       5.4795      0.00000
    630       5.8204      0.00000
    631       5.5489      0.00000
    632       5.6692      0.00000
    633       5.7635      0.00000
    634       5.6606      0.00000
    635       5.6409      0.00000
    636       5.9053      0.00000
    637       5.9655      0.00000
    638       5.9124      0.00000
    639       5.7707      0.00000
    640       5.8805      0.00000
    641       5.8605      0.00000
    642       5.6863      0.00000
    643       5.8426      0.00000
    644       5.8057      0.00000
    645       5.7537      0.00000
    646       5.7511      0.00000
    647       6.1078      0.00000
    648       5.8185      0.00000
    649       6.1363      0.00000
    650       6.1715      0.00000
    651       5.8581      0.00000
    652       6.1754      0.00000
    653       5.9039      0.00000
    654       6.2246      0.00000
    655       5.9600      0.00000
    656       5.9929      0.00000
    657       6.0656      0.00000
    658       6.1104      0.00000
    659       6.3457      0.00000
    660       6.3554      0.00000
    661       6.1340      0.00000
    662       6.3999      0.00000
    663       6.4322      0.00000
    664       6.4516      0.00000
    665       6.2063      0.00000
    666       6.4566      0.00000
    667       6.4708      0.00000
    668       6.2329      0.00000
    669       6.4051      0.00000
    670       6.2738      0.00000
    671       6.4932      0.00000
    672       6.2562      0.00000
    673       6.2883      0.00000
    674       6.3829      0.00000
    675       6.3905      0.00000
    676       6.3915      0.00000
    677       6.4287      0.00000
    678       6.4467      0.00000
    679       6.4634      0.00000
    680       6.4681      0.00000
    681       6.4456      0.00000
    682       6.4590      0.00000
    683       7.0328      0.00000
    684       7.0292      0.00000
    685       7.0539      0.00000
    686       7.1483      0.00000
    687       7.0877      0.00000
    688       7.3310      0.00000
    689       7.2856      0.00000
    690       7.3030      0.00000
    691       7.3137      0.00000
    692       7.3704      0.00000
    693       7.4105      0.00000
    694       7.4225      0.00000
    695       7.4251      0.00000
    696       7.4374      0.00000
    697       7.4837      0.00000
    698       7.5160      0.00000
    699       7.2928      0.00000
    700       7.4962      0.00000
    701       7.4985      0.00000
    702       7.4986      0.00000
    703       7.5961      0.00000
    704       7.6035      0.00000
    705       7.4800      0.00000
    706       7.6626      0.00000
    707       7.5026      0.00000
    708       7.6375      0.00000
    709       7.5965      0.00000
    710       7.4327      0.00000
    711       7.5554      0.00000
    712       7.5398      0.00000
    713       7.5843      0.00000
    714       7.7220      0.00000
    715       7.5500      0.00000
    716       7.4942      0.00000
    717       7.4976      0.00000
    718       7.5837      0.00000
    719       7.5654      0.00000
    720       7.7275      0.00000
    721       7.8357      0.00000
    722       7.9385      0.00000
    723       7.8479      0.00000
    724       7.7428      0.00000
    725       7.7848      0.00000
    726       7.8953      0.00000
    727       7.9616      0.00000
    728       7.9740      0.00000
    729       7.9923      0.00000
    730       8.0049      0.00000
    731       8.0107      0.00000
    732       8.0137      0.00000
    733       8.0097      0.00000
    734       8.0135      0.00000
    735       8.0455      0.00000
    736       8.0509      0.00000
    737       8.0486      0.00000
    738       8.0233      0.00000
    739       8.0408      0.00000
    740       8.0480      0.00000
    741       7.9670      0.00000
    742       7.9872      0.00000
    743       7.8455      0.00000
    744       8.0600      0.00000
    745       8.0562      0.00000
    746       7.7379      0.00000
    747       7.7786      0.00000
    748       7.8096      0.00000
    749       7.9511      0.00000
    750       7.9348      0.00000
    751       7.9500      0.00000
    752       7.9504      0.00000
    753       7.9677      0.00000
    754       7.9708      0.00000
    755       7.9983      0.00000
    756       8.0074      0.00000
    757       8.0030      0.00000
    758       8.0116      0.00000
    759       8.0092      0.00000
    760       8.0135      0.00000
    761       8.0397      0.00000
    762       8.0466      0.00000
    763       8.0317      0.00000
    764       8.0341      0.00000
    765       7.9972      0.00000
    766       8.0330      0.00000
    767       8.0177      0.00000
    768       8.0176      0.00000
    769       8.0367      0.00000
    770       8.0386      0.00000
    771       8.7629      0.00000
    772       8.8010      0.00000
    773       8.8380      0.00000
    774       8.8758      0.00000
    775       8.8988      0.00000
    776       8.9194      0.00000
    777       8.9478      0.00000
    778       8.9617      0.00000
    779       9.1862      0.00000
    780       8.7802      0.00000
    781       9.2826      0.00000
    782       8.8111      0.00000
    783       9.3429      0.00000
    784       8.8573      0.00000
    785       9.3721      0.00000
    786       8.9039      0.00000
    787       9.4169      0.00000
    788       8.9136      0.00000
    789       9.2261      0.00000
    790       9.1420      0.00000
    791       8.9655      0.00000
    792       9.4728      0.00000
    793       9.4664      0.00000
    794       8.9867      0.00000
    795       9.5277      0.00000
    796       9.1985      0.00000
    797       9.2934      0.00000
    798       9.3811      0.00000
    799       9.3815      0.00000
    800       9.4199      0.00000
    801       9.4647      0.00000
    802       9.4863      0.00000
    803       9.4875      0.00000
    804       9.8286      0.00000
    805       9.8496      0.00000
    806       9.5340      0.00000
    807       9.9782      0.00000
    808      10.0221      0.00000
    809      10.0373      0.00000
    810      10.0339      0.00000
    811      10.0497      0.00000
    812      10.0599      0.00000
    813      10.0814      0.00000
    814      10.1055      0.00000
    815      10.0821      0.00000
    816      10.1275      0.00000
    817      10.1150      0.00000
    818      10.0166      0.00000
    819      10.0995      0.00000
    820      10.1650      0.00000
    821      10.1239      0.00000
    822       9.9822      0.00000
    823      10.1985      0.00000
    824      10.2203      0.00000
    825      10.2209      0.00000
    826      10.3000      0.00000
    827      10.3024      0.00000
    828      10.3112      0.00000
    829      10.2700      0.00000
    830      10.1621      0.00000
    831      10.2937      0.00000
    832      10.3993      0.00000
    833      10.3387      0.00000
    834      10.3064      0.00000
    835      10.1081      0.00000
    836      10.0710      0.00000
    837      10.0600      0.00000
    838      10.0746      0.00000
    839      10.0944      0.00000
    840      10.1289      0.00000
    841      10.1336      0.00000
    842      10.1271      0.00000
    843      10.2589      0.00000
    844      10.2482      0.00000
    845      10.3037      0.00000
    846      10.2603      0.00000
    847      10.4197      0.00000
    848      10.2879      0.00000
    849      10.3653      0.00000
    850      10.2865      0.00000
    851      10.3070      0.00000
    852      10.4583      0.00000
    853      10.4391      0.00000
    854      10.3856      0.00000
    855      10.4979      0.00000
    856      10.5261      0.00000
    857      10.3624      0.00000
    858      10.5212      0.00000
    859      10.3369      0.00000
    860      10.3058      0.00000
    861      10.3383      0.00000
    862      10.3820      0.00000
    863      10.3506      0.00000
    864      10.3610      0.00000
    865      10.6159      0.00000
    866      10.6418      0.00000
    867      10.7582      0.00000
    868      10.7637      0.00000
    869      10.8046      0.00000
    870      10.7836      0.00000
    871      10.5438      0.00000
    872      10.5936      0.00000
    873      10.6070      0.00000
    874      10.6423      0.00000
    875      10.6337      0.00000
    876      10.6457      0.00000
    877      10.6899      0.00000
    878      10.6973      0.00000
    879      10.8741      0.00000
    880      10.9002      0.00000
    881      10.7964      0.00000
    882      10.8545      0.00000
    883      10.8710      0.00000
    884      11.2886      0.00000
    885      11.3120      0.00000
    886      11.2877      0.00000
    887      11.3130      0.00000
    888      11.2544      0.00000
    889      11.2909      0.00000
    890      11.3807      0.00000
    891      11.4011      0.00000
    892      11.1717      0.00000
    893      11.4259      0.00000
    894      11.4186      0.00000
    895      11.4519      0.00000
    896      11.5464      0.00000
    897      11.5288      0.00000
    898      11.5570      0.00000
    899      11.5927      0.00000
    900      11.5980      0.00000
    901      11.6045      0.00000
    902      11.2725      0.00000
    903      11.3413      0.00000
    904      11.3010      0.00000
    905      11.3285      0.00000
    906      11.3502      0.00000
    907      11.4232      0.00000
    908      11.4360      0.00000
    909      11.4294      0.00000
    910      11.4390      0.00000
    911      11.4445      0.00000
    912      11.4692      0.00000
    913      11.5819      0.00000
    914      11.8528      0.00000
    915      11.5940      0.00000
    916      11.6257      0.00000
    917      11.6765      0.00000
    918      11.6116      0.00000
    919      11.6371      0.00000
    920      12.0746      0.00000
    921      12.1547      0.00000
    922      12.1076      0.00000
    923      12.1070      0.00000
    924      12.1347      0.00000
    925      12.1431      0.00000
    926      12.1498      0.00000
    927      12.1592      0.00000
    928      12.1688      0.00000
    929      12.1625      0.00000
    930      12.1641      0.00000
    931      12.1881      0.00000
    932      12.2459      0.00000
    933      11.9741      0.00000
    934      12.3882      0.00000
    935      12.4363      0.00000
    936      12.2429      0.00000
    937      12.4540      0.00000
    938      12.0997      0.00000
    939      12.1889      0.00000
    940      12.4479      0.00000
    941      12.2744      0.00000
    942      12.1799      0.00000
    943      12.3653      0.00000
    944      12.3582      0.00000
    945      12.1626      0.00000
    946      12.2991      0.00000
    947      12.1972      0.00000
    948      12.5163      0.00000
    949      12.1696      0.00000
    950      12.2971      0.00000
    951      12.1696      0.00000
    952      12.3608      0.00000
    953      12.3804      0.00000
    954      12.3855      0.00000
    955      12.4808      0.00000
    956      12.7168      0.00000
    957      12.7334      0.00000
    958      12.4334      0.00000
    959      12.7442      0.00000
    960      12.4531      0.00000
    961      12.4667      0.00000
    962      12.4730      0.00000
    963      12.4992      0.00000
    964      12.5192      0.00000
    965      12.7857      0.00000
    966      12.5901      0.00000
    967      12.8917      0.00000
    968      12.9123      0.00000
    969      12.9399      0.00000
    970      12.9444      0.00000
    971      12.9695      0.00000
    972      12.9772      0.00000
    973      12.9955      0.00000
    974      13.2076      0.00000
    975      12.7602      0.00000
    976      12.7689      0.00000
    977      13.1801      0.00000
    978      12.8246      0.00000
    979      13.0832      0.00000
    980      13.0926      0.00000
    981      13.1027      0.00000
    982      13.1276      0.00000
    983      13.0901      0.00000
    984      12.9840      0.00000
    985      13.1051      0.00000
    986      13.0945      0.00000
    987      13.1422      0.00000
    988      13.1139      0.00000
    989      12.9430      0.00000
    990      12.9334      0.00000
    991      12.9528      0.00000
    992      12.9518      0.00000
    993      12.9888      0.00000
    994      12.9778      0.00000
    995      12.9958      0.00000
    996      13.0765      0.00000
    997      13.1126      0.00000
    998      13.1608      0.00000
    999      13.1251      0.00000
   1000      13.1072      0.00000
   1001      13.1226      0.00000
   1002      13.1236      0.00000
   1003      13.1274      0.00000
   1004      13.1898      0.00000
   1005      13.1279      0.00000
   1006      13.2916      0.00000
   1007      13.5122      0.00000
   1008      13.7908      0.00000
   1009      13.7983      0.00000
   1010      13.7612      0.00000
   1011      13.8557      0.00000
   1012      13.8422      0.00000
   1013      13.8031      0.00000
   1014      13.7966      0.00000
   1015      13.8085      0.00000
   1016      13.7933      0.00000
   1017      13.7994      0.00000
   1018      13.8222      0.00000
   1019      13.8459      0.00000
   1020      13.8503      0.00000
   1021      13.9636      0.00000
   1022      13.9763      0.00000
   1023      14.0058      0.00000
   1024      14.0276      0.00000
   1025      14.0292      0.00000
   1026      14.0412      0.00000
   1027      13.6808      0.00000
   1028      14.0689      0.00000
   1029      14.0738      0.00000
   1030      14.0746      0.00000
   1031      14.0926      0.00000
   1032      14.0775      0.00000
   1033      14.0724      0.00000
   1034      14.1268      0.00000
   1035      13.7496      0.00000
   1036      14.1552      0.00000
   1037      14.1301      0.00000
   1038      13.7834      0.00000
   1039      13.7922      0.00000
   1040      13.8769      0.00000
   1041      13.8321      0.00000
   1042      13.8150      0.00000
   1043      13.8152      0.00000
   1044      13.9024      0.00000
   1045      13.8418      0.00000
   1046      13.8614      0.00000
   1047      13.9556      0.00000
   1048      14.0133      0.00000
   1049      13.9436      0.00000
   1050      13.9567      0.00000
   1051      13.9856      0.00000
   1052      13.9934      0.00000
   1053      14.0179      0.00000
   1054      14.0719      0.00000
   1055      14.0452      0.00000
   1056      14.0719      0.00000
   1057      14.1009      0.00000
   1058      14.0871      0.00000
   1059      14.0977      0.00000
   1060      14.1057      0.00000
   1061      14.1403      0.00000
   1062      14.1349      0.00000
   1063      14.1501      0.00000
   1064      14.1672      0.00000
   1065      14.2138      0.00000
   1066      14.2700      0.00000
   1067      14.6464      0.00000
   1068      14.6638      0.00000
   1069      14.6635      0.00000
   1070      14.7412      0.00000
   1071      14.7837      0.00000
   1072      14.7926      0.00000
   1073      14.8111      0.00000
   1074      14.8503      0.00000
   1075      14.6744      0.00000
   1076      14.8198      0.00000
   1077      14.9152      0.00000
   1078      14.8767      0.00000
   1079      14.9626      0.00000
   1080      14.8103      0.00000
   1081      14.7848      0.00000
   1082      14.9964      0.00000
   1083      14.8341      0.00000
   1084      14.8375      0.00000
   1085      14.8545      0.00000
   1086      15.1462      0.00000
   1087      15.1539      0.00000
   1088      14.9261      0.00000
   1089      15.2008      0.00000
   1090      15.2128      0.00000
   1091      15.2211      0.00000
   1092      15.2591      0.00000
   1093      15.2552      0.00000
   1094      15.2921      0.00000
   1095      15.3135      0.00000
   1096      15.3311      0.00000
   1097      15.3958      0.00000
   1098      15.3868      0.00000
   1099      15.3873      0.00000
   1100      15.3809      0.00000
   1101      15.4658      0.00000
   1102      15.4972      0.00000
   1103      15.4026      0.00000
   1104      15.5246      0.00000
   1105      15.6291      0.00000
   1106      15.5994      0.00000
   1107      15.6930      0.00000
   1108      15.7191      0.00000
   1109      15.6748      0.00000
   1110      15.7218      0.00000
   1111      15.7113      0.00000
   1112      15.7085      0.00000
   1113      15.7556      0.00000
   1114      15.7394      0.00000
   1115      15.7644      0.00000
   1116      15.5600      0.00000
   1117      15.5872      0.00000
   1118      15.6088      0.00000
   1119      15.6383      0.00000
   1120      15.7797      0.00000
   1121      15.6615      0.00000
   1122      15.6880      0.00000
   1123      15.6994      0.00000
   1124      15.7355      0.00000
   1125      15.7587      0.00000
   1126      16.0033      0.00000
   1127      15.8220      0.00000
   1128      16.0606      0.00000
   1129      16.0162      0.00000
   1130      15.9915      0.00000
   1131      16.0580      0.00000
   1132      16.1027      0.00000
   1133      16.0968      0.00000
   1134      16.0916      0.00000
   1135      16.0914      0.00000
   1136      16.0854      0.00000
   1137      16.0538      0.00000
   1138      16.1848      0.00000
   1139      16.1729      0.00000
   1140      16.2115      0.00000
   1141      16.2062      0.00000
   1142      16.2303      0.00000
   1143      16.2271      0.00000
   1144      16.2665      0.00000
   1145      16.2899      0.00000
   1146      16.2886      0.00000
   1147      16.3082      0.00000
   1148      16.3164      0.00000
   1149      16.3771      0.00000
   1150      16.4374      0.00000
   1151      16.4850      0.00000
   1152      16.5796      0.00000

 k-point     6 :       0.5000    0.0000    0.5000
  band No.  band energies     occupation 
      1      -9.9430      1.00000
      2      -9.9381      1.00000
      3      -9.9365      1.00000
      4      -9.9252      1.00000
      5      -9.9082      1.00000
      6      -9.9025      1.00000
      7      -9.9015      1.00000
      8      -9.8882      1.00000
      9      -9.8278      1.00000
     10      -9.8259      1.00000
     11      -9.8180      1.00000
     12      -9.8148      1.00000
     13      -9.7979      1.00000
     14      -9.7918      1.00000
     15      -9.7885      1.00000
     16      -9.7876      1.00000
     17      -9.7820      1.00000
     18      -9.7799      1.00000
     19      -9.7771      1.00000
     20      -9.7622      1.00000
     21      -9.7600      1.00000
     22      -9.7577      1.00000
     23      -9.7558      1.00000
     24      -9.7451      1.00000
     25      -9.7420      1.00000
     26      -9.7383      1.00000
     27      -9.7349      1.00000
     28      -9.7339      1.00000
     29      -9.7300      1.00000
     30      -9.7279      1.00000
     31      -9.7254      1.00000
     32      -9.7203      1.00000
     33      -9.7180      1.00000
     34      -9.7133      1.00000
     35      -9.7097      1.00000
     36      -9.7064      1.00000
     37      -9.7031      1.00000
     38      -9.6943      1.00000
     39      -9.6918      1.00000
     40      -9.6895      1.00000
     41      -9.6831      1.00000
     42      -9.6811      1.00000
     43      -9.6793      1.00000
     44      -9.6763      1.00000
     45      -9.6714      1.00000
     46      -9.6691      1.00000
     47      -9.6676      1.00000
     48      -9.6633      1.00000
     49      -9.6581      1.00000
     50      -9.6556      1.00000
     51      -9.6535      1.00000
     52      -9.6455      1.00000
     53      -9.6444      1.00000
     54      -9.6413      1.00000
     55      -9.6366      1.00000
     56      -9.6274      1.00000
     57      -9.6213      1.00000
     58      -9.6173      1.00000
     59      -9.6134      1.00000
     60      -9.6103      1.00000
     61      -9.5992      1.00000
     62      -9.5893      1.00000
     63      -9.5825      1.00000
     64      -9.5778      1.00000
     65      -8.5402      1.00000
     66      -8.5376      1.00000
     67      -8.5358      1.00000
     68      -8.5325      1.00000
     69      -8.5157      1.00000
     70      -8.5128      1.00000
     71      -8.5123      1.00000
     72      -8.5076      1.00000
     73      -8.4831      1.00000
     74      -8.4821      1.00000
     75      -8.4812      1.00000
     76      -8.4803      1.00000
     77      -8.4326      1.00000
     78      -8.4321      1.00000
     79      -8.4270      1.00000
     80      -8.4260      1.00000
     81      -8.4251      1.00000
     82      -8.4237      1.00000
     83      -8.4226      1.00000
     84      -8.4219      1.00000
     85      -8.4125      1.00000
     86      -8.4116      1.00000
     87      -8.4113      1.00000
     88      -8.4102      1.00000
     89      -8.4052      1.00000
     90      -8.4040      1.00000
     91      -8.4031      1.00000
     92      -8.4026      1.00000
     93      -8.4015      1.00000
     94      -8.4004      1.00000
     95      -8.3989      1.00000
     96      -8.3987      1.00000
     97      -8.3928      1.00000
     98      -8.3925      1.00000
     99      -8.3918      1.00000
    100      -8.3915      1.00000
    101      -8.3874      1.00000
    102      -8.3873      1.00000
    103      -8.3872      1.00000
    104      -8.3861      1.00000
    105      -8.3849      1.00000
    106      -8.3840      1.00000
    107      -8.3810      1.00000
    108      -8.3797      1.00000
    109      -8.3781      1.00000
    110      -8.3772      1.00000
    111      -8.3766      1.00000
    112      -8.3757      1.00000
    113      -8.3703      1.00000
    114      -8.3692      1.00000
    115      -8.3658      1.00000
    116      -8.3656      1.00000
    117      -8.3645      1.00000
    118      -8.3640      1.00000
    119      -8.3538      1.00000
    120      -8.3536      1.00000
    121      -8.3508      1.00000
    122      -8.3502      1.00000
    123      -8.3481      1.00000
    124      -8.3479      1.00000
    125      -8.3410      1.00000
    126      -8.3398      1.00000
    127      -8.3352      1.00000
    128      -8.3344      1.00000
    129      -8.3330      1.00000
    130      -8.3311      1.00000
    131      -8.3298      1.00000
    132      -8.3280      1.00000
    133      -8.3033      1.00000
    134      -8.3012      1.00000
    135      -8.2992      1.00000
    136      -8.2972      1.00000
    137      -8.2720      1.00000
    138      -8.2717      1.00000
    139      -8.2685      1.00000
    140      -8.2681      1.00000
    141      -8.2676      1.00000
    142      -8.2672      1.00000
    143      -8.2652      1.00000
    144      -8.2648      1.00000
    145      -8.2551      1.00000
    146      -8.2546      1.00000
    147      -8.2519      1.00000
    148      -8.2511      1.00000
    149      -8.2505      1.00000
    150      -8.2502      1.00000
    151      -8.2490      1.00000
    152      -8.2484      1.00000
    153      -8.2462      1.00000
    154      -8.2461      1.00000
    155      -8.2454      1.00000
    156      -8.2451      1.00000
    157      -8.2447      1.00000
    158      -8.2443      1.00000
    159      -8.2328      1.00000
    160      -8.2327      1.00000
    161      -8.2298      1.00000
    162      -8.2297      1.00000
    163      -8.2296      1.00000
    164      -8.2288      1.00000
    165      -8.1363      1.00000
    166      -8.1351      1.00000
    167      -8.1275      1.00000
    168      -8.1269      1.00000
    169      -8.1261      1.00000
    170      -8.1256      1.00000
    171      -8.1245      1.00000
    172      -8.1230      1.00000
    173      -8.0739      1.00000
    174      -8.0727      1.00000
    175      -8.0418      1.00000
    176      -8.0410      1.00000
    177      -8.0313      1.00000
    178      -8.0308      1.00000
    179      -8.0176      1.00000
    180      -8.0176      1.00000
    181      -8.0091      1.00000
    182      -8.0084      1.00000
    183      -8.0029      1.00000
    184      -8.0016      1.00000
    185      -7.9923      1.00000
    186      -7.9912      1.00000
    187      -7.9875      1.00000
    188      -7.9873      1.00000
    189      -7.9791      1.00000
    190      -7.9784      1.00000
    191      -7.9578      1.00000
    192      -7.9577      1.00000
    193      -7.9502      1.00000
    194      -7.9492      1.00000
    195      -7.9481      1.00000
    196      -7.9461      1.00000
    197      -7.8567      1.00000
    198      -7.8538      1.00000
    199      -7.8313      1.00000
    200      -7.8282      1.00000
    201      -7.7921      1.00000
    202      -7.7915      1.00000
    203      -7.7908      1.00000
    204      -7.7901      1.00000
    205      -7.7685      1.00000
    206      -7.7668      1.00000
    207      -7.7585      1.00000
    208      -7.7573      1.00000
    209      -7.7529      1.00000
    210      -7.7518      1.00000
    211      -7.7501      1.00000
    212      -7.7497      1.00000
    213      -7.7400      1.00000
    214      -7.7384      1.00000
    215      -7.7378      1.00000
    216      -7.7356      1.00000
    217      -7.7350      1.00000
    218      -7.7340      1.00000
    219      -7.7308      1.00000
    220      -7.7299      1.00000
    221      -7.7226      1.00000
    222      -7.7215      1.00000
    223      -7.7212      1.00000
    224      -7.7202      1.00000
    225      -7.7195      1.00000
    226      -7.7184      1.00000
    227      -7.7176      1.00000
    228      -7.7163      1.00000
    229      -7.7119      1.00000
    230      -7.7099      1.00000
    231      -7.7074      1.00000
    232      -7.7068      1.00000
    233      -7.7064      1.00000
    234      -7.7049      1.00000
    235      -7.6995      1.00000
    236      -7.6983      1.00000
    237      -7.6952      1.00000
    238      -7.6948      1.00000
    239      -7.6845      1.00000
    240      -7.6837      1.00000
    241      -7.6832      1.00000
    242      -7.6828      1.00000
    243      -7.6815      1.00000
    244      -7.6805      1.00000
    245      -7.6775      1.00000
    246      -7.6768      1.00000
    247      -7.6760      1.00000
    248      -7.6743      1.00000
    249      -7.6735      1.00000
    250      -7.6720      1.00000
    251      -7.6707      1.00000
    252      -7.6699      1.00000
    253      -7.6693      1.00000
    254      -7.6675      1.00000
    255      -7.6657      1.00000
    256      -7.6652      1.00000
    257      -7.6635      1.00000
    258      -7.6630      1.00000
    259      -7.6604      1.00000
    260      -7.6597      1.00000
    261      -7.6553      1.00000
    262      -7.6534      1.00000
    263      -7.6533      1.00000
    264      -7.6518      1.00000
    265      -7.6486      1.00000
    266      -7.6479      1.00000
    267      -7.6415      1.00000
    268      -7.6407      1.00000
    269      -7.6379      1.00000
    270      -7.6366      1.00000
    271      -7.6343      1.00000
    272      -7.6335      1.00000
    273      -7.6316      1.00000
    274      -7.6304      1.00000
    275      -7.6289      1.00000
    276      -7.6284      1.00000
    277      -7.6263      1.00000
    278      -7.6248      1.00000
    279      -7.6214      1.00000
    280      -7.6193      1.00000
    281      -7.6184      1.00000
    282      -7.6175      1.00000
    283      -7.6165      1.00000
    284      -7.6149      1.00000
    285      -7.6128      1.00000
    286      -7.6123      1.00000
    287      -7.6118      1.00000
    288      -7.6112      1.00000
    289      -7.6100      1.00000
    290      -7.6091      1.00000
    291      -7.6060      1.00000
    292      -7.6056      1.00000
    293      -7.6053      1.00000
    294      -7.6045      1.00000
    295      -7.6034      1.00000
    296      -7.6029      1.00000
    297      -7.5989      1.00000
    298      -7.5979      1.00000
    299      -7.5972      1.00000
    300      -7.5963      1.00000
    301      -7.5940      1.00000
    302      -7.5930      1.00000
    303      -7.5894      1.00000
    304      -7.5882      1.00000
    305      -7.5866      1.00000
    306      -7.5844      1.00000
    307      -7.5828      1.00000
    308      -7.5826      1.00000
    309      -7.5793      1.00000
    310      -7.5788      1.00000
    311      -7.5779      1.00000
    312      -7.5765      1.00000
    313      -7.5748      1.00000
    314      -7.5739      1.00000
    315      -7.5732      1.00000
    316      -7.5730      1.00000
    317      -7.5723      1.00000
    318      -7.5717      1.00000
    319      -7.5707      1.00000
    320      -7.5699      1.00000
    321      -7.5682      1.00000
    322      -7.5677      1.00000
    323      -7.5668      1.00000
    324      -7.5662      1.00000
    325      -7.5615      1.00000
    326      -7.5596      1.00000
    327      -7.5582      1.00000
    328      -7.5557      1.00000
    329      -7.4859      1.00000
    330      -7.4816      1.00000
    331      -7.4569      1.00000
    332      -7.4550      1.00000
    333      -7.4332      1.00000
    334      -7.4278      1.00000
    335      -7.4162      1.00000
    336      -7.4125      1.00000
    337      -7.4116      1.00000
    338      -7.4078      1.00000
    339      -7.3902      1.00000
    340      -7.3835      1.00000
    341      -7.3670      1.00000
    342      -7.3633      1.00000
    343      -7.3535      1.00000
    344      -7.3498      1.00000
    345      -7.3484      1.00000
    346      -7.3459      1.00000
    347      -7.3388      1.00000
    348      -7.3345      1.00000
    349      -7.2402      1.00000
    350      -7.2370      1.00000
    351      -7.2357      1.00000
    352      -7.2259      1.00000
    353      -7.1981      1.00000
    354      -7.1951      1.00000
    355      -7.1945      1.00000
    356      -7.1893      1.00000
    357      -7.1842      1.00000
    358      -7.1810      1.00000
    359      -7.1564      1.00000
    360      -7.1545      1.00000
    361      -7.1494      1.00000
    362      -7.1461      1.00000
    363      -7.1444      1.00000
    364      -7.1411      1.00000
    365      -7.1407      1.00000
    366      -7.1381      1.00000
    367      -7.1309      1.00000
    368      -7.1263      1.00000
    369      -7.0861      1.00000
    370      -7.0856      1.00000
    371      -7.0788      1.00000
    372      -7.0775      1.00000
    373      -7.0531      1.00000
    374      -7.0495      1.00000
    375      -7.0476      1.00000
    376      -7.0418      1.00000
    377      -7.0382      1.00000
    378      -7.0368      1.00000
    379      -7.0221      1.00000
    380      -7.0160      1.00000
    381      -7.0087      1.00000
    382      -7.0063      1.00000
    383      -7.0012      1.00000
    384      -6.9986      1.00000
    385      -6.9405      1.00000
    386      -6.9339      1.00000
    387      -6.9069      1.00000
    388      -6.8988      1.00000
    389      -6.8245      1.00000
    390      -6.8150      1.00000
    391      -6.7834      1.00000
    392      -6.7719      1.00000
    393      -6.7643      1.00000
    394      -6.7518      1.00000
    395      -3.1761      1.00000
    396      -3.1674      1.00000
    397      -2.7465      1.00000
    398      -2.7409      1.00000
    399      -2.7379      1.00000
    400      -2.7323      1.00000
    401      -2.7290      1.00000
    402      -2.7237      1.00000
    403      -2.7221      1.00000
    404      -2.7153      1.00000
    405      -2.7097      1.00000
    406      -2.7064      1.00000
    407      -2.6533      1.00000
    408      -2.6411      1.00000
    409      -2.5881      1.00000
    410      -2.5829      1.00000
    411      -2.5763      1.00000
    412      -2.5731      1.00000
    413      -2.5693      1.00000
    414      -2.5654      1.00000
    415      -2.5337      1.00000
    416      -2.5264      1.00000
    417      -2.5238      1.00000
    418      -2.5157      1.00000
    419      -2.4220      1.00000
    420      -2.4129      1.00000
    421      -2.4100      1.00000
    422      -2.4057      1.00000
    423      -2.3976      1.00000
    424      -2.3942      1.00000
    425      -2.3701      1.00000
    426      -2.3671      1.00000
    427      -2.2927      1.00000
    428      -2.2873      1.00000
    429      -2.2776      1.00000
    430      -2.2715      1.00000
    431      -2.2640      1.00000
    432      -2.2586      1.00000
    433      -2.2276      1.00000
    434      -2.2202      1.00000
    435      -2.1120      1.00000
    436      -2.1028      1.00000
    437      -1.9833      1.00000
    438      -1.9783      1.00000
    439      -1.9769      1.00000
    440      -1.9752      1.00000
    441      -1.9701      1.00000
    442      -1.9650      1.00000
    443      -1.9534      1.00000
    444      -1.9485      1.00000
    445      -1.9060      1.00000
    446      -1.9035      1.00000
    447      -1.9027      1.00000
    448      -1.8977      1.00000
    449      -1.8963      1.00000
    450      -1.8943      1.00000
    451      -1.1070      1.00000
    452      -1.0992      1.00000
    453      -0.9997      1.00000
    454      -0.9971      1.00000
    455      -0.8120      1.00000
    456      -0.8095      1.00000
    457      -0.7316      1.00000
    458      -0.7286      1.00000
    459      -0.5493      1.00000
    460      -0.5418      1.00000
    461      -0.4819      1.00000
    462      -0.4779      1.00000
    463      -0.4734      1.00000
    464      -0.4713      1.00000
    465      -0.4456      1.00000
    466      -0.4432      1.00000
    467      -0.4399      1.00000
    468      -0.4372      1.00000
    469      -0.4352      1.00000
    470      -0.4346      1.00000
    471      -0.4165      1.00000
    472      -0.4137      1.00000
    473      -0.4113      1.00000
    474      -0.4112      1.00000
    475      -0.3842      1.00000
    476      -0.3813      1.00000
    477      -0.3396      1.00000
    478      -0.3374      1.00000
    479      -0.2810      1.00000
    480      -0.2784      1.00000
    481      -0.2615      1.00000
    482      -0.2602      1.00000
    483      -0.2528      1.00000
    484      -0.2510      1.00000
    485      -0.2271      1.00000
    486      -0.2243      1.00000
    487      -0.2228      1.00000
    488      -0.2219      1.00000
    489      -0.2025      1.00000
    490      -0.1990      1.00000
    491      -0.1700      1.00000
    492      -0.1684      1.00000
    493      -0.1306      1.00000
    494      -0.1275      1.00000
    495      -0.1267      1.00000
    496      -0.1227      1.00000
    497      -0.1106      1.00000
    498      -0.1080      1.00000
    499       0.0916      1.00000
    500       0.1010      1.00000
    501       0.1031      1.00000
    502       0.1033      1.00000
    503       0.1111      1.00000
    504       0.1143      1.00000
    505       0.1360      1.00000
    506       0.1371      1.00000
    507       0.2345      1.00000
    508       0.2386      1.00000
    509       0.2453      1.00000
    510       0.2506      1.00000
    511       0.2572      1.00000
    512       0.2624      1.00000
    513       0.2672      1.00000
    514       0.2816      1.00000
    515       0.2833      1.00000
    516       0.2900      1.00000
    517       0.2922      1.00000
    518       0.2943      1.00000
    519       0.3122      1.00000
    520       0.3184      1.00000
    521       0.3243      1.00000
    522       0.3294      1.00000
    523       0.5078      1.00000
    524       0.5146      1.00000
    525       0.5175      1.00000
    526       0.5211      1.00000
    527       0.5231      1.00000
    528       0.5252      1.00000
    529       0.5300      1.00000
    530       0.5320      1.00000
    531       0.5362      1.00000
    532       0.5445      1.00000
    533       0.5468      1.00000
    534       0.5529      1.00000
    535       0.5545      1.00000
    536       0.5571      1.00000
    537       0.5659      1.00000
    538       0.5689      1.00000
    539       0.6167      1.00000
    540       0.6206      1.00000
    541       0.6259      1.00000
    542       0.6281      1.00000
    543       0.6315      1.00000
    544       0.6375      1.00000
    545       0.6500      1.00000
    546       0.6654      1.00000
    547       0.6722      1.00000
    548       0.6750      1.00000
    549       0.6803      1.00000
    550       0.6830      1.00000
    551       0.6906      1.00000
    552       0.6924      1.00000
    553       0.7053      1.00000
    554       0.7113      1.00000
    555       0.9017      1.00000
    556       0.9174      1.00000
    557       0.9299      1.00000
    558       0.9395      1.00000
    559       1.0148      1.00000
    560       1.0251      1.00000
    561       1.0382      1.00000
    562       1.0451      1.00000
    563       1.0477      1.00000
    564       1.0544      1.00000
    565       1.0647      1.00000
    566       1.0677      1.00000
    567       1.0786      1.00000
    568       1.0814      1.00000
    569       1.0849      1.00000
    570       1.0885      1.00000
    571       1.0913      1.00000
    572       1.0939      1.00000
    573       1.0992      1.00000
    574       1.0999      1.00000
    575       1.1030      1.00000
    576       1.1112      1.00000
    577       1.1153      1.00000
    578       1.1191      1.00000
    579       1.7423      1.00000
    580       1.7442      1.00000
    581       1.7479      1.00000
    582       1.7840      1.00000
    583       1.7886      1.00000
    584       1.7928      1.00000
    585       1.7962      1.00000
    586       1.8374      1.00000
    587       3.0795      1.00000
    588       3.1378      0.94238
    589       4.6168      0.00000
    590       4.6201      0.00000
    591       4.7785      0.00000
    592       4.8143      0.00000
    593       4.7770      0.00000
    594       4.9190      0.00000
    595       4.9279      0.00000
    596       4.6415      0.00000
    597       4.6540      0.00000
    598       5.0130      0.00000
    599       5.0447      0.00000
    600       5.0268      0.00000
    601       5.0742      0.00000
    602       4.8015      0.00000
    603       4.8034      0.00000
    604       5.0917      0.00000
    605       4.9309      0.00000
    606       4.9331      0.00000
    607       4.9512      0.00000
    608       5.2848      0.00000
    609       5.2808      0.00000
    610       5.3292      0.00000
    611       5.0354      0.00000
    612       5.0661      0.00000
    613       5.0893      0.00000
    614       5.0846      0.00000
    615       5.4594      0.00000
    616       5.1774      0.00000
    617       5.4771      0.00000
    618       5.5674      0.00000
    619       5.6286      0.00000
    620       5.3059      0.00000
    621       5.3032      0.00000
    622       5.7101      0.00000
    623       5.6452      0.00000
    624       5.3586      0.00000
    625       5.6932      0.00000
    626       5.7698      0.00000
    627       5.7845      0.00000
    628       5.7646      0.00000
    629       5.7961      0.00000
    630       5.7937      0.00000
    631       5.7941      0.00000
    632       5.7214      0.00000
    633       5.7444      0.00000
    634       5.6369      0.00000
    635       5.6417      0.00000
    636       5.8723      0.00000
    637       5.8239      0.00000
    638       5.8851      0.00000
    639       5.7546      0.00000
    640       5.9410      0.00000
    641       5.7804      0.00000
    642       5.9179      0.00000
    643       6.0051      0.00000
    644       6.0382      0.00000
    645       5.9613      0.00000
    646       6.0064      0.00000
    647       5.7668      0.00000
    648       5.8049      0.00000
    649       5.7956      0.00000
    650       5.8056      0.00000
    651       5.8209      0.00000
    652       5.8455      0.00000
    653       5.8554      0.00000
    654       5.8508      0.00000
    655       5.8747      0.00000
    656       5.8673      0.00000
    657       5.8693      0.00000
    658       5.9035      0.00000
    659       5.8883      0.00000
    660       5.9824      0.00000
    661       6.0034      0.00000
    662       6.0372      0.00000
    663       6.0371      0.00000
    664       6.0703      0.00000
    665       6.0678      0.00000
    666       6.1013      0.00000
    667       6.5915      0.00000
    668       6.6685      0.00000
    669       6.8083      0.00000
    670       6.8315      0.00000
    671       6.9053      0.00000
    672       6.7199      0.00000
    673       6.9409      0.00000
    674       6.9256      0.00000
    675       6.9858      0.00000
    676       6.9483      0.00000
    677       7.0367      0.00000
    678       7.0429      0.00000
    679       6.8702      0.00000
    680       6.9912      0.00000
    681       7.0650      0.00000
    682       7.0659      0.00000
    683       7.1087      0.00000
    684       7.1173      0.00000
    685       7.1082      0.00000
    686       7.1078      0.00000
    687       6.8364      0.00000
    688       6.8888      0.00000
    689       7.1330      0.00000
    690       7.1373      0.00000
    691       7.1686      0.00000
    692       7.1795      0.00000
    693       7.1846      0.00000
    694       7.1867      0.00000
    695       6.9370      0.00000
    696       6.9516      0.00000
    697       7.0125      0.00000
    698       7.0137      0.00000
    699       7.0259      0.00000
    700       7.0628      0.00000
    701       7.0807      0.00000
    702       7.0808      0.00000
    703       7.0496      0.00000
    704       7.0970      0.00000
    705       7.0918      0.00000
    706       7.1333      0.00000
    707       7.1280      0.00000
    708       7.1291      0.00000
    709       7.2551      0.00000
    710       7.2226      0.00000
    711       7.2851      0.00000
    712       7.3338      0.00000
    713       7.1576      0.00000
    714       7.1840      0.00000
    715       7.2089      0.00000
    716       7.2177      0.00000
    717       7.4683      0.00000
    718       7.4849      0.00000
    719       7.6125      0.00000
    720       7.6541      0.00000
    721       7.6377      0.00000
    722       7.6311      0.00000
    723       7.6018      0.00000
    724       7.6528      0.00000
    725       7.9519      0.00000
    726       7.8779      0.00000
    727       7.9994      0.00000
    728       8.0777      0.00000
    729       8.0888      0.00000
    730       8.2100      0.00000
    731       7.9006      0.00000
    732       7.9670      0.00000
    733       8.2504      0.00000
    734       8.0403      0.00000
    735       8.1034      0.00000
    736       8.3864      0.00000
    737       8.3688      0.00000
    738       8.3515      0.00000
    739       8.2863      0.00000
    740       8.4072      0.00000
    741       8.2104      0.00000
    742       8.3956      0.00000
    743       8.4049      0.00000
    744       8.4159      0.00000
    745       8.4010      0.00000
    746       8.4320      0.00000
    747       8.4164      0.00000
    748       8.4786      0.00000
    749       8.4760      0.00000
    750       8.3851      0.00000
    751       8.3454      0.00000
    752       8.1811      0.00000
    753       8.5396      0.00000
    754       8.5593      0.00000
    755       8.5813      0.00000
    756       8.6163      0.00000
    757       8.5335      0.00000
    758       8.5972      0.00000
    759       8.6189      0.00000
    760       8.5696      0.00000
    761       8.5941      0.00000
    762       8.5653      0.00000
    763       8.6223      0.00000
    764       8.6726      0.00000
    765       8.6425      0.00000
    766       8.4550      0.00000
    767       8.7053      0.00000
    768       8.4355      0.00000
    769       8.4119      0.00000
    770       8.3963      0.00000
    771       8.4803      0.00000
    772       8.3787      0.00000
    773       8.4912      0.00000
    774       8.4228      0.00000
    775       8.4475      0.00000
    776       8.4664      0.00000
    777       8.4585      0.00000
    778       8.4876      0.00000
    779       8.4907      0.00000
    780       8.4973      0.00000
    781       8.5257      0.00000
    782       8.5804      0.00000
    783       8.5970      0.00000
    784       8.6142      0.00000
    785       8.6289      0.00000
    786       8.6360      0.00000
    787       8.6417      0.00000
    788       8.6510      0.00000
    789       8.6510      0.00000
    790       8.6678      0.00000
    791       8.6739      0.00000
    792       8.6886      0.00000
    793       8.7311      0.00000
    794       8.7321      0.00000
    795       9.5516      0.00000
    796       9.5579      0.00000
    797       9.6634      0.00000
    798       9.7181      0.00000
    799       9.7618      0.00000
    800       9.7767      0.00000
    801       9.7850      0.00000
    802       9.8311      0.00000
    803       9.8257      0.00000
    804       9.7827      0.00000
    805       9.9125      0.00000
    806       9.8857      0.00000
    807       9.9269      0.00000
    808       9.7212      0.00000
    809       9.8897      0.00000
    810       9.9737      0.00000
    811       9.7217      0.00000
    812       9.7883      0.00000
    813       9.8185      0.00000
    814       9.8291      0.00000
    815      10.0347      0.00000
    816       9.8530      0.00000
    817       9.8666      0.00000
    818      10.0556      0.00000
    819       9.9597      0.00000
    820      10.0414      0.00000
    821      10.1707      0.00000
    822      10.1010      0.00000
    823      10.1834      0.00000
    824      10.0852      0.00000
    825      10.1493      0.00000
    826      10.1849      0.00000
    827      10.2528      0.00000
    828      10.2451      0.00000
    829      10.3514      0.00000
    830      10.2615      0.00000
    831      10.4475      0.00000
    832      10.3724      0.00000
    833      10.4983      0.00000
    834      10.1909      0.00000
    835      10.2726      0.00000
    836      10.2417      0.00000
    837      10.6247      0.00000
    838      10.5529      0.00000
    839      10.4228      0.00000
    840      10.5729      0.00000
    841      10.4132      0.00000
    842      10.5446      0.00000
    843      10.6349      0.00000
    844      10.6128      0.00000
    845      10.5245      0.00000
    846      10.6663      0.00000
    847      10.6993      0.00000
    848      10.6172      0.00000
    849      10.6967      0.00000
    850      10.6913      0.00000
    851      10.7482      0.00000
    852      10.7350      0.00000
    853      10.7286      0.00000
    854      10.6748      0.00000
    855      10.5969      0.00000
    856      10.5016      0.00000
    857      10.5130      0.00000
    858      10.8194      0.00000
    859      10.8065      0.00000
    860      10.8348      0.00000
    861      10.6731      0.00000
    862      10.7301      0.00000
    863      10.5015      0.00000
    864      10.9337      0.00000
    865      10.9371      0.00000
    866      10.9151      0.00000
    867      10.9308      0.00000
    868      10.8663      0.00000
    869      10.9740      0.00000
    870      10.8246      0.00000
    871      10.7976      0.00000
    872      10.8799      0.00000
    873      10.9939      0.00000
    874      10.7702      0.00000
    875      10.8899      0.00000
    876      10.9318      0.00000
    877      10.7818      0.00000
    878      10.8190      0.00000
    879      10.7231      0.00000
    880      10.9044      0.00000
    881      10.8376      0.00000
    882      10.7835      0.00000
    883      10.7752      0.00000
    884      10.9032      0.00000
    885      10.9657      0.00000
    886      10.8904      0.00000
    887      11.0137      0.00000
    888      11.1222      0.00000
    889      10.9553      0.00000
    890      10.8779      0.00000
    891      10.8868      0.00000
    892      10.9208      0.00000
    893      10.9163      0.00000
    894      10.9003      0.00000
    895      11.0941      0.00000
    896      10.9519      0.00000
    897      11.0654      0.00000
    898      11.0080      0.00000
    899      10.9260      0.00000
    900      10.9411      0.00000
    901      10.9642      0.00000
    902      10.9949      0.00000
    903      11.0509      0.00000
    904      11.0634      0.00000
    905      11.1550      0.00000
    906      11.1742      0.00000
    907      11.1975      0.00000
    908      11.1134      0.00000
    909      11.1893      0.00000
    910      11.2378      0.00000
    911      11.1800      0.00000
    912      11.1764      0.00000
    913      11.2821      0.00000
    914      11.4945      0.00000
    915      11.1943      0.00000
    916      11.7158      0.00000
    917      11.7156      0.00000
    918      11.7701      0.00000
    919      11.7640      0.00000
    920      11.8219      0.00000
    921      11.7837      0.00000
    922      11.8349      0.00000
    923      11.5490      0.00000
    924      11.8445      0.00000
    925      11.8360      0.00000
    926      11.8168      0.00000
    927      11.8307      0.00000
    928      11.7051      0.00000
    929      11.7046      0.00000
    930      11.7670      0.00000
    931      11.7652      0.00000
    932      11.8938      0.00000
    933      12.1806      0.00000
    934      12.0891      0.00000
    935      11.8301      0.00000
    936      11.8234      0.00000
    937      11.8515      0.00000
    938      11.8175      0.00000
    939      11.8031      0.00000
    940      11.8155      0.00000
    941      12.3047      0.00000
    942      12.3734      0.00000
    943      12.4138      0.00000
    944      12.4225      0.00000
    945      12.4300      0.00000
    946      12.4900      0.00000
    947      12.5301      0.00000
    948      12.5297      0.00000
    949      12.5482      0.00000
    950      12.5519      0.00000
    951      12.1932      0.00000
    952      12.2029      0.00000
    953      12.5980      0.00000
    954      12.6332      0.00000
    955      12.6465      0.00000
    956      12.3097      0.00000
    957      12.3590      0.00000
    958      12.7068      0.00000
    959      12.7223      0.00000
    960      12.7191      0.00000
    961      12.7324      0.00000
    962      12.6790      0.00000
    963      12.4807      0.00000
    964      12.4232      0.00000
    965      12.4352      0.00000
    966      12.4931      0.00000
    967      12.5302      0.00000
    968      12.5320      0.00000
    969      12.5500      0.00000
    970      12.5659      0.00000
    971      12.5819      0.00000
    972      12.6364      0.00000
    973      12.6387      0.00000
    974      12.7045      0.00000
    975      12.7066      0.00000
    976      12.7062      0.00000
    977      12.7580      0.00000
    978      12.7582      0.00000
    979      13.0946      0.00000
    980      13.0385      0.00000
    981      13.1677      0.00000
    982      13.1722      0.00000
    983      13.1648      0.00000
    984      13.3082      0.00000
    985      13.2977      0.00000
    986      13.3222      0.00000
    987      13.3281      0.00000
    988      13.3615      0.00000
    989      13.3742      0.00000
    990      13.4004      0.00000
    991      13.4179      0.00000
    992      13.1520      0.00000
    993      13.4147      0.00000
    994      13.4538      0.00000
    995      13.3444      0.00000
    996      13.4802      0.00000
    997      13.4286      0.00000
    998      13.4324      0.00000
    999      13.4355      0.00000
   1000      13.1665      0.00000
   1001      13.1655      0.00000
   1002      13.1637      0.00000
   1003      13.5143      0.00000
   1004      13.5572      0.00000
   1005      13.3242      0.00000
   1006      13.3577      0.00000
   1007      13.3649      0.00000
   1008      13.3964      0.00000
   1009      13.4094      0.00000
   1010      13.4217      0.00000
   1011      13.4613      0.00000
   1012      13.5170      0.00000
   1013      13.5159      0.00000
   1014      13.5098      0.00000
   1015      13.5972      0.00000
   1016      13.6647      0.00000
   1017      13.5255      0.00000
   1018      13.5004      0.00000
   1019      13.6088      0.00000
   1020      13.8172      0.00000
   1021      13.8052      0.00000
   1022      13.8685      0.00000
   1023      13.6319      0.00000
   1024      13.8332      0.00000
   1025      13.7315      0.00000
   1026      13.7985      0.00000
   1027      13.9261      0.00000
   1028      13.8520      0.00000
   1029      13.9907      0.00000
   1030      13.9554      0.00000
   1031      13.9991      0.00000
   1032      13.9968      0.00000
   1033      14.0807      0.00000
   1034      14.0891      0.00000
   1035      14.1214      0.00000
   1036      14.0992      0.00000
   1037      14.0768      0.00000
   1038      14.0932      0.00000
   1039      14.1273      0.00000
   1040      13.7555      0.00000
   1041      13.7853      0.00000
   1042      13.7991      0.00000
   1043      13.8776      0.00000
   1044      13.9308      0.00000
   1045      13.9525      0.00000
   1046      13.9610      0.00000
   1047      13.9974      0.00000
   1048      14.0062      0.00000
   1049      14.0212      0.00000
   1050      14.0748      0.00000
   1051      14.0435      0.00000
   1052      14.1102      0.00000
   1053      14.1189      0.00000
   1054      14.1345      0.00000
   1055      14.1401      0.00000
   1056      14.1506      0.00000
   1057      14.1532      0.00000
   1058      14.1710      0.00000
   1059      14.5178      0.00000
   1060      14.5899      0.00000
   1061      14.7091      0.00000
   1062      14.7139      0.00000
   1063      14.7386      0.00000
   1064      14.7559      0.00000
   1065      14.7698      0.00000
   1066      14.7827      0.00000
   1067      14.7873      0.00000
   1068      14.7925      0.00000
   1069      14.7955      0.00000
   1070      14.8079      0.00000
   1071      14.8227      0.00000
   1072      14.8221      0.00000
   1073      14.8330      0.00000
   1074      14.8418      0.00000
   1075      14.5754      0.00000
   1076      14.6339      0.00000
   1077      15.1320      0.00000
   1078      14.9249      0.00000
   1079      15.1509      0.00000
   1080      15.1286      0.00000
   1081      14.8007      0.00000
   1082      14.9478      0.00000
   1083      14.7969      0.00000
   1084      14.8157      0.00000
   1085      14.8125      0.00000
   1086      14.8066      0.00000
   1087      14.8250      0.00000
   1088      14.8283      0.00000
   1089      14.8378      0.00000
   1090      14.8539      0.00000
   1091      14.8723      0.00000
   1092      14.8810      0.00000
   1093      14.9167      0.00000
   1094      14.9568      0.00000
   1095      15.4395      0.00000
   1096      15.2160      0.00000
   1097      15.3854      0.00000
   1098      15.3849      0.00000
   1099      15.4367      0.00000
   1100      15.4202      0.00000
   1101      15.3343      0.00000
   1102      15.5850      0.00000
   1103      15.6772      0.00000
   1104      15.6821      0.00000
   1105      15.6852      0.00000
   1106      15.7142      0.00000
   1107      15.7294      0.00000
   1108      15.7214      0.00000
   1109      15.7238      0.00000
   1110      15.7286      0.00000
   1111      15.7389      0.00000
   1112      15.7573      0.00000
   1113      15.7766      0.00000
   1114      15.8006      0.00000
   1115      15.8165      0.00000
   1116      15.8604      0.00000
   1117      15.8463      0.00000
   1118      15.8476      0.00000
   1119      15.9586      0.00000
   1120      15.9392      0.00000
   1121      15.9442      0.00000
   1122      15.9294      0.00000
   1123      16.0644      0.00000
   1124      16.0537      0.00000
   1125      16.0662      0.00000
   1126      16.0621      0.00000
   1127      16.0925      0.00000
   1128      15.9758      0.00000
   1129      15.9901      0.00000
   1130      16.0331      0.00000
   1131      15.9553      0.00000
   1132      16.0330      0.00000
   1133      16.1504      0.00000
   1134      16.0583      0.00000
   1135      16.1157      0.00000
   1136      16.1281      0.00000
   1137      16.1742      0.00000
   1138      16.2085      0.00000
   1139      16.2949      0.00000
   1140      16.2619      0.00000
   1141      16.3028      0.00000
   1142      16.2965      0.00000
   1143      16.3342      0.00000
   1144      16.3139      0.00000
   1145      16.3358      0.00000
   1146      16.3575      0.00000
   1147      16.3747      0.00000
   1148      16.3648      0.00000
   1149      16.3948      0.00000
   1150      16.4117      0.00000
   1151      16.3877      0.00000
   1152      16.4426      0.00000

 k-point     7 :       0.0000    0.5000    0.5000
  band No.  band energies     occupation 
      1      -9.9430      1.00000
      2      -9.9381      1.00000
      3      -9.9365      1.00000
      4      -9.9252      1.00000
      5      -9.9082      1.00000
      6      -9.9025      1.00000
      7      -9.9015      1.00000
      8      -9.8882      1.00000
      9      -9.8279      1.00000
     10      -9.8259      1.00000
     11      -9.8180      1.00000
     12      -9.8148      1.00000
     13      -9.7979      1.00000
     14      -9.7918      1.00000
     15      -9.7885      1.00000
     16      -9.7875      1.00000
     17      -9.7821      1.00000
     18      -9.7798      1.00000
     19      -9.7770      1.00000
     20      -9.7622      1.00000
     21      -9.7600      1.00000
     22      -9.7577      1.00000
     23      -9.7558      1.00000
     24      -9.7451      1.00000
     25      -9.7420      1.00000
     26      -9.7382      1.00000
     27      -9.7349      1.00000
     28      -9.7340      1.00000
     29      -9.7300      1.00000
     30      -9.7279      1.00000
     31      -9.7255      1.00000
     32      -9.7203      1.00000
     33      -9.7180      1.00000
     34      -9.7133      1.00000
     35      -9.7096      1.00000
     36      -9.7064      1.00000
     37      -9.7031      1.00000
     38      -9.6944      1.00000
     39      -9.6918      1.00000
     40      -9.6895      1.00000
     41      -9.6831      1.00000
     42      -9.6811      1.00000
     43      -9.6793      1.00000
     44      -9.6763      1.00000
     45      -9.6715      1.00000
     46      -9.6691      1.00000
     47      -9.6676      1.00000
     48      -9.6633      1.00000
     49      -9.6581      1.00000
     50      -9.6556      1.00000
     51      -9.6535      1.00000
     52      -9.6454      1.00000
     53      -9.6444      1.00000
     54      -9.6413      1.00000
     55      -9.6366      1.00000
     56      -9.6274      1.00000
     57      -9.6213      1.00000
     58      -9.6173      1.00000
     59      -9.6134      1.00000
     60      -9.6103      1.00000
     61      -9.5992      1.00000
     62      -9.5893      1.00000
     63      -9.5826      1.00000
     64      -9.5778      1.00000
     65      -8.5402      1.00000
     66      -8.5376      1.00000
     67      -8.5358      1.00000
     68      -8.5325      1.00000
     69      -8.5157      1.00000
     70      -8.5128      1.00000
     71      -8.5123      1.00000
     72      -8.5076      1.00000
     73      -8.4830      1.00000
     74      -8.4821      1.00000
     75      -8.4812      1.00000
     76      -8.4803      1.00000
     77      -8.4326      1.00000
     78      -8.4321      1.00000
     79      -8.4270      1.00000
     80      -8.4260      1.00000
     81      -8.4251      1.00000
     82      -8.4237      1.00000
     83      -8.4226      1.00000
     84      -8.4219      1.00000
     85      -8.4125      1.00000
     86      -8.4116      1.00000
     87      -8.4113      1.00000
     88      -8.4102      1.00000
     89      -8.4052      1.00000
     90      -8.4040      1.00000
     91      -8.4031      1.00000
     92      -8.4026      1.00000
     93      -8.4015      1.00000
     94      -8.4004      1.00000
     95      -8.3989      1.00000
     96      -8.3987      1.00000
     97      -8.3929      1.00000
     98      -8.3925      1.00000
     99      -8.3918      1.00000
    100      -8.3915      1.00000
    101      -8.3874      1.00000
    102      -8.3873      1.00000
    103      -8.3872      1.00000
    104      -8.3861      1.00000
    105      -8.3849      1.00000
    106      -8.3840      1.00000
    107      -8.3810      1.00000
    108      -8.3797      1.00000
    109      -8.3781      1.00000
    110      -8.3772      1.00000
    111      -8.3766      1.00000
    112      -8.3757      1.00000
    113      -8.3703      1.00000
    114      -8.3692      1.00000
    115      -8.3658      1.00000
    116      -8.3657      1.00000
    117      -8.3645      1.00000
    118      -8.3640      1.00000
    119      -8.3538      1.00000
    120      -8.3536      1.00000
    121      -8.3508      1.00000
    122      -8.3502      1.00000
    123      -8.3481      1.00000
    124      -8.3479      1.00000
    125      -8.3409      1.00000
    126      -8.3397      1.00000
    127      -8.3352      1.00000
    128      -8.3344      1.00000
    129      -8.3330      1.00000
    130      -8.3311      1.00000
    131      -8.3298      1.00000
    132      -8.3280      1.00000
    133      -8.3033      1.00000
    134      -8.3012      1.00000
    135      -8.2992      1.00000
    136      -8.2972      1.00000
    137      -8.2720      1.00000
    138      -8.2717      1.00000
    139      -8.2685      1.00000
    140      -8.2681      1.00000
    141      -8.2676      1.00000
    142      -8.2672      1.00000
    143      -8.2652      1.00000
    144      -8.2648      1.00000
    145      -8.2550      1.00000
    146      -8.2546      1.00000
    147      -8.2520      1.00000
    148      -8.2511      1.00000
    149      -8.2505      1.00000
    150      -8.2502      1.00000
    151      -8.2490      1.00000
    152      -8.2484      1.00000
    153      -8.2462      1.00000
    154      -8.2461      1.00000
    155      -8.2454      1.00000
    156      -8.2451      1.00000
    157      -8.2447      1.00000
    158      -8.2443      1.00000
    159      -8.2328      1.00000
    160      -8.2327      1.00000
    161      -8.2298      1.00000
    162      -8.2296      1.00000
    163      -8.2296      1.00000
    164      -8.2288      1.00000
    165      -8.1363      1.00000
    166      -8.1351      1.00000
    167      -8.1275      1.00000
    168      -8.1268      1.00000
    169      -8.1261      1.00000
    170      -8.1256      1.00000
    171      -8.1245      1.00000
    172      -8.1230      1.00000
    173      -8.0739      1.00000
    174      -8.0727      1.00000
    175      -8.0418      1.00000
    176      -8.0410      1.00000
    177      -8.0313      1.00000
    178      -8.0308      1.00000
    179      -8.0176      1.00000
    180      -8.0176      1.00000
    181      -8.0091      1.00000
    182      -8.0084      1.00000
    183      -8.0029      1.00000
    184      -8.0017      1.00000
    185      -7.9923      1.00000
    186      -7.9912      1.00000
    187      -7.9875      1.00000
    188      -7.9873      1.00000
    189      -7.9791      1.00000
    190      -7.9784      1.00000
    191      -7.9578      1.00000
    192      -7.9577      1.00000
    193      -7.9502      1.00000
    194      -7.9492      1.00000
    195      -7.9481      1.00000
    196      -7.9461      1.00000
    197      -7.8567      1.00000
    198      -7.8538      1.00000
    199      -7.8314      1.00000
    200      -7.8282      1.00000
    201      -7.7921      1.00000
    202      -7.7915      1.00000
    203      -7.7908      1.00000
    204      -7.7901      1.00000
    205      -7.7685      1.00000
    206      -7.7668      1.00000
    207      -7.7585      1.00000
    208      -7.7573      1.00000
    209      -7.7529      1.00000
    210      -7.7518      1.00000
    211      -7.7501      1.00000
    212      -7.7497      1.00000
    213      -7.7400      1.00000
    214      -7.7383      1.00000
    215      -7.7378      1.00000
    216      -7.7356      1.00000
    217      -7.7350      1.00000
    218      -7.7340      1.00000
    219      -7.7308      1.00000
    220      -7.7299      1.00000
    221      -7.7226      1.00000
    222      -7.7215      1.00000
    223      -7.7212      1.00000
    224      -7.7202      1.00000
    225      -7.7195      1.00000
    226      -7.7184      1.00000
    227      -7.7176      1.00000
    228      -7.7163      1.00000
    229      -7.7119      1.00000
    230      -7.7099      1.00000
    231      -7.7074      1.00000
    232      -7.7068      1.00000
    233      -7.7064      1.00000
    234      -7.7049      1.00000
    235      -7.6995      1.00000
    236      -7.6983      1.00000
    237      -7.6952      1.00000
    238      -7.6948      1.00000
    239      -7.6845      1.00000
    240      -7.6837      1.00000
    241      -7.6832      1.00000
    242      -7.6828      1.00000
    243      -7.6815      1.00000
    244      -7.6805      1.00000
    245      -7.6775      1.00000
    246      -7.6768      1.00000
    247      -7.6760      1.00000
    248      -7.6743      1.00000
    249      -7.6735      1.00000
    250      -7.6720      1.00000
    251      -7.6707      1.00000
    252      -7.6699      1.00000
    253      -7.6694      1.00000
    254      -7.6675      1.00000
    255      -7.6657      1.00000
    256      -7.6652      1.00000
    257      -7.6635      1.00000
    258      -7.6630      1.00000
    259      -7.6604      1.00000
    260      -7.6597      1.00000
    261      -7.6553      1.00000
    262      -7.6534      1.00000
    263      -7.6533      1.00000
    264      -7.6518      1.00000
    265      -7.6487      1.00000
    266      -7.6480      1.00000
    267      -7.6415      1.00000
    268      -7.6406      1.00000
    269      -7.6379      1.00000
    270      -7.6366      1.00000
    271      -7.6343      1.00000
    272      -7.6335      1.00000
    273      -7.6316      1.00000
    274      -7.6304      1.00000
    275      -7.6289      1.00000
    276      -7.6284      1.00000
    277      -7.6263      1.00000
    278      -7.6248      1.00000
    279      -7.6213      1.00000
    280      -7.6194      1.00000
    281      -7.6184      1.00000
    282      -7.6175      1.00000
    283      -7.6165      1.00000
    284      -7.6149      1.00000
    285      -7.6128      1.00000
    286      -7.6123      1.00000
    287      -7.6118      1.00000
    288      -7.6112      1.00000
    289      -7.6100      1.00000
    290      -7.6091      1.00000
    291      -7.6060      1.00000
    292      -7.6056      1.00000
    293      -7.6053      1.00000
    294      -7.6045      1.00000
    295      -7.6034      1.00000
    296      -7.6029      1.00000
    297      -7.5989      1.00000
    298      -7.5979      1.00000
    299      -7.5972      1.00000
    300      -7.5963      1.00000
    301      -7.5940      1.00000
    302      -7.5930      1.00000
    303      -7.5894      1.00000
    304      -7.5882      1.00000
    305      -7.5866      1.00000
    306      -7.5844      1.00000
    307      -7.5828      1.00000
    308      -7.5826      1.00000
    309      -7.5793      1.00000
    310      -7.5788      1.00000
    311      -7.5779      1.00000
    312      -7.5765      1.00000
    313      -7.5748      1.00000
    314      -7.5739      1.00000
    315      -7.5733      1.00000
    316      -7.5730      1.00000
    317      -7.5722      1.00000
    318      -7.5717      1.00000
    319      -7.5707      1.00000
    320      -7.5699      1.00000
    321      -7.5682      1.00000
    322      -7.5677      1.00000
    323      -7.5668      1.00000
    324      -7.5662      1.00000
    325      -7.5615      1.00000
    326      -7.5596      1.00000
    327      -7.5582      1.00000
    328      -7.5557      1.00000
    329      -7.4859      1.00000
    330      -7.4816      1.00000
    331      -7.4569      1.00000
    332      -7.4550      1.00000
    333      -7.4332      1.00000
    334      -7.4278      1.00000
    335      -7.4162      1.00000
    336      -7.4125      1.00000
    337      -7.4117      1.00000
    338      -7.4078      1.00000
    339      -7.3902      1.00000
    340      -7.3835      1.00000
    341      -7.3670      1.00000
    342      -7.3633      1.00000
    343      -7.3535      1.00000
    344      -7.3498      1.00000
    345      -7.3484      1.00000
    346      -7.3459      1.00000
    347      -7.3388      1.00000
    348      -7.3345      1.00000
    349      -7.2402      1.00000
    350      -7.2370      1.00000
    351      -7.2357      1.00000
    352      -7.2259      1.00000
    353      -7.1981      1.00000
    354      -7.1952      1.00000
    355      -7.1945      1.00000
    356      -7.1894      1.00000
    357      -7.1842      1.00000
    358      -7.1810      1.00000
    359      -7.1564      1.00000
    360      -7.1545      1.00000
    361      -7.1494      1.00000
    362      -7.1461      1.00000
    363      -7.1444      1.00000
    364      -7.1411      1.00000
    365      -7.1407      1.00000
    366      -7.1381      1.00000
    367      -7.1309      1.00000
    368      -7.1263      1.00000
    369      -7.0861      1.00000
    370      -7.0856      1.00000
    371      -7.0788      1.00000
    372      -7.0775      1.00000
    373      -7.0531      1.00000
    374      -7.0495      1.00000
    375      -7.0476      1.00000
    376      -7.0418      1.00000
    377      -7.0382      1.00000
    378      -7.0368      1.00000
    379      -7.0222      1.00000
    380      -7.0160      1.00000
    381      -7.0087      1.00000
    382      -7.0063      1.00000
    383      -7.0013      1.00000
    384      -6.9986      1.00000
    385      -6.9405      1.00000
    386      -6.9339      1.00000
    387      -6.9069      1.00000
    388      -6.8988      1.00000
    389      -6.8245      1.00000
    390      -6.8150      1.00000
    391      -6.7834      1.00000
    392      -6.7719      1.00000
    393      -6.7643      1.00000
    394      -6.7518      1.00000
    395      -3.1762      1.00000
    396      -3.1674      1.00000
    397      -2.7465      1.00000
    398      -2.7409      1.00000
    399      -2.7378      1.00000
    400      -2.7323      1.00000
    401      -2.7290      1.00000
    402      -2.7237      1.00000
    403      -2.7221      1.00000
    404      -2.7154      1.00000
    405      -2.7096      1.00000
    406      -2.7064      1.00000
    407      -2.6533      1.00000
    408      -2.6410      1.00000
    409      -2.5880      1.00000
    410      -2.5829      1.00000
    411      -2.5763      1.00000
    412      -2.5731      1.00000
    413      -2.5693      1.00000
    414      -2.5653      1.00000
    415      -2.5337      1.00000
    416      -2.5264      1.00000
    417      -2.5238      1.00000
    418      -2.5157      1.00000
    419      -2.4220      1.00000
    420      -2.4129      1.00000
    421      -2.4100      1.00000
    422      -2.4057      1.00000
    423      -2.3976      1.00000
    424      -2.3942      1.00000
    425      -2.3701      1.00000
    426      -2.3671      1.00000
    427      -2.2927      1.00000
    428      -2.2872      1.00000
    429      -2.2776      1.00000
    430      -2.2715      1.00000
    431      -2.2640      1.00000
    432      -2.2586      1.00000
    433      -2.2276      1.00000
    434      -2.2202      1.00000
    435      -2.1121      1.00000
    436      -2.1028      1.00000
    437      -1.9833      1.00000
    438      -1.9783      1.00000
    439      -1.9768      1.00000
    440      -1.9751      1.00000
    441      -1.9701      1.00000
    442      -1.9650      1.00000
    443      -1.9534      1.00000
    444      -1.9485      1.00000
    445      -1.9060      1.00000
    446      -1.9035      1.00000
    447      -1.9028      1.00000
    448      -1.8978      1.00000
    449      -1.8963      1.00000
    450      -1.8943      1.00000
    451      -1.1069      1.00000
    452      -1.0992      1.00000
    453      -0.9997      1.00000
    454      -0.9971      1.00000
    455      -0.8119      1.00000
    456      -0.8095      1.00000
    457      -0.7316      1.00000
    458      -0.7286      1.00000
    459      -0.5493      1.00000
    460      -0.5418      1.00000
    461      -0.4819      1.00000
    462      -0.4781      1.00000
    463      -0.4734      1.00000
    464      -0.4712      1.00000
    465      -0.4456      1.00000
    466      -0.4433      1.00000
    467      -0.4399      1.00000
    468      -0.4372      1.00000
    469      -0.4353      1.00000
    470      -0.4346      1.00000
    471      -0.4165      1.00000
    472      -0.4137      1.00000
    473      -0.4114      1.00000
    474      -0.4112      1.00000
    475      -0.3842      1.00000
    476      -0.3812      1.00000
    477      -0.3396      1.00000
    478      -0.3374      1.00000
    479      -0.2810      1.00000
    480      -0.2784      1.00000
    481      -0.2614      1.00000
    482      -0.2601      1.00000
    483      -0.2528      1.00000
    484      -0.2510      1.00000
    485      -0.2270      1.00000
    486      -0.2243      1.00000
    487      -0.2228      1.00000
    488      -0.2219      1.00000
    489      -0.2025      1.00000
    490      -0.1990      1.00000
    491      -0.1700      1.00000
    492      -0.1684      1.00000
    493      -0.1306      1.00000
    494      -0.1275      1.00000
    495      -0.1267      1.00000
    496      -0.1226      1.00000
    497      -0.1105      1.00000
    498      -0.1080      1.00000
    499       0.0916      1.00000
    500       0.1009      1.00000
    501       0.1031      1.00000
    502       0.1033      1.00000
    503       0.1111      1.00000
    504       0.1143      1.00000
    505       0.1360      1.00000
    506       0.1371      1.00000
    507       0.2345      1.00000
    508       0.2386      1.00000
    509       0.2453      1.00000
    510       0.2506      1.00000
    511       0.2572      1.00000
    512       0.2624      1.00000
    513       0.2672      1.00000
    514       0.2816      1.00000
    515       0.2833      1.00000
    516       0.2900      1.00000
    517       0.2922      1.00000
    518       0.2943      1.00000
    519       0.3122      1.00000
    520       0.3184      1.00000
    521       0.3244      1.00000
    522       0.3293      1.00000
    523       0.5078      1.00000
    524       0.5146      1.00000
    525       0.5175      1.00000
    526       0.5211      1.00000
    527       0.5231      1.00000
    528       0.5252      1.00000
    529       0.5300      1.00000
    530       0.5320      1.00000
    531       0.5362      1.00000
    532       0.5445      1.00000
    533       0.5468      1.00000
    534       0.5529      1.00000
    535       0.5545      1.00000
    536       0.5571      1.00000
    537       0.5659      1.00000
    538       0.5689      1.00000
    539       0.6167      1.00000
    540       0.6205      1.00000
    541       0.6259      1.00000
    542       0.6281      1.00000
    543       0.6315      1.00000
    544       0.6375      1.00000
    545       0.6500      1.00000
    546       0.6654      1.00000
    547       0.6721      1.00000
    548       0.6750      1.00000
    549       0.6803      1.00000
    550       0.6831      1.00000
    551       0.6906      1.00000
    552       0.6924      1.00000
    553       0.7052      1.00000
    554       0.7113      1.00000
    555       0.9017      1.00000
    556       0.9174      1.00000
    557       0.9299      1.00000
    558       0.9395      1.00000
    559       1.0148      1.00000
    560       1.0252      1.00000
    561       1.0382      1.00000
    562       1.0451      1.00000
    563       1.0477      1.00000
    564       1.0545      1.00000
    565       1.0647      1.00000
    566       1.0677      1.00000
    567       1.0786      1.00000
    568       1.0814      1.00000
    569       1.0849      1.00000
    570       1.0885      1.00000
    571       1.0914      1.00000
    572       1.0939      1.00000
    573       1.0992      1.00000
    574       1.0999      1.00000
    575       1.1030      1.00000
    576       1.1112      1.00000
    577       1.1153      1.00000
    578       1.1191      1.00000
    579       1.7424      1.00000
    580       1.7442      1.00000
    581       1.7479      1.00000
    582       1.7840      1.00000
    583       1.7886      1.00000
    584       1.7928      1.00000
    585       1.7962      1.00000
    586       1.8373      1.00000
    587       3.0795      1.00000
    588       3.1378      0.94238
    589       4.6168      0.00000
    590       4.6201      0.00000
    591       4.7785      0.00000
    592       4.8142      0.00000
    593       4.7769      0.00000
    594       4.9188      0.00000
    595       4.9281      0.00000
    596       4.6415      0.00000
    597       4.6540      0.00000
    598       5.0130      0.00000
    599       5.0442      0.00000
    600       5.0271      0.00000
    601       5.0744      0.00000
    602       4.8015      0.00000
    603       4.8031      0.00000
    604       5.0914      0.00000
    605       4.9316      0.00000
    606       4.9331      0.00000
    607       4.9512      0.00000
    608       5.2849      0.00000
    609       5.2807      0.00000
    610       5.3292      0.00000
    611       5.0354      0.00000
    612       5.0661      0.00000
    613       5.0892      0.00000
    614       5.0846      0.00000
    615       5.4595      0.00000
    616       5.1775      0.00000
    617       5.4771      0.00000
    618       5.5674      0.00000
    619       5.6286      0.00000
    620       5.3060      0.00000
    621       5.3031      0.00000
    622       5.7101      0.00000
    623       5.6452      0.00000
    624       5.3586      0.00000
    625       5.6932      0.00000
    626       5.7697      0.00000
    627       5.7845      0.00000
    628       5.7646      0.00000
    629       5.7961      0.00000
    630       5.7936      0.00000
    631       5.7941      0.00000
    632       5.7214      0.00000
    633       5.7446      0.00000
    634       5.6369      0.00000
    635       5.6416      0.00000
    636       5.8723      0.00000
    637       5.8240      0.00000
    638       5.8848      0.00000
    639       5.7549      0.00000
    640       5.9411      0.00000
    641       5.7802      0.00000
    642       5.9179      0.00000
    643       6.0053      0.00000
    644       6.0382      0.00000
    645       5.9592      0.00000
    646       6.0075      0.00000
    647       5.7671      0.00000
    648       5.8053      0.00000
    649       5.7956      0.00000
    650       5.8056      0.00000
    651       5.8209      0.00000
    652       5.8455      0.00000
    653       5.8554      0.00000
    654       5.8508      0.00000
    655       5.8747      0.00000
    656       5.8673      0.00000
    657       5.8693      0.00000
    658       5.9034      0.00000
    659       5.8883      0.00000
    660       5.9824      0.00000
    661       6.0034      0.00000
    662       6.0372      0.00000
    663       6.0371      0.00000
    664       6.0703      0.00000
    665       6.0678      0.00000
    666       6.1013      0.00000
    667       6.5915      0.00000
    668       6.6685      0.00000
    669       6.8084      0.00000
    670       6.8315      0.00000
    671       6.9053      0.00000
    672       6.7198      0.00000
    673       6.9409      0.00000
    674       6.9256      0.00000
    675       6.9857      0.00000
    676       6.9483      0.00000
    677       7.0368      0.00000
    678       7.0429      0.00000
    679       6.8700      0.00000
    680       6.9913      0.00000
    681       7.0650      0.00000
    682       7.0660      0.00000
    683       7.1087      0.00000
    684       7.1173      0.00000
    685       7.1082      0.00000
    686       7.1080      0.00000
    687       6.8363      0.00000
    688       6.8889      0.00000
    689       7.1311      0.00000
    690       7.1391      0.00000
    691       7.1686      0.00000
    692       7.1796      0.00000
    693       7.1845      0.00000
    694       7.1867      0.00000
    695       6.9370      0.00000
    696       6.9516      0.00000
    697       7.0125      0.00000
    698       7.0137      0.00000
    699       7.0259      0.00000
    700       7.0628      0.00000
    701       7.0807      0.00000
    702       7.0808      0.00000
    703       7.0497      0.00000
    704       7.0970      0.00000
    705       7.0918      0.00000
    706       7.1333      0.00000
    707       7.1280      0.00000
    708       7.1291      0.00000
    709       7.2570      0.00000
    710       7.2206      0.00000
    711       7.2853      0.00000
    712       7.3337      0.00000
    713       7.1576      0.00000
    714       7.1841      0.00000
    715       7.2089      0.00000
    716       7.2177      0.00000
    717       7.4683      0.00000
    718       7.4849      0.00000
    719       7.6124      0.00000
    720       7.6543      0.00000
    721       7.6378      0.00000
    722       7.6308      0.00000
    723       7.6021      0.00000
    724       7.6529      0.00000
    725       7.9516      0.00000
    726       7.8779      0.00000
    727       7.9995      0.00000
    728       8.0777      0.00000
    729       8.0888      0.00000
    730       8.2100      0.00000
    731       7.9007      0.00000
    732       7.9671      0.00000
    733       8.2460      0.00000
    734       8.0446      0.00000
    735       8.1034      0.00000
    736       8.3865      0.00000
    737       8.3687      0.00000
    738       8.3516      0.00000
    739       8.2863      0.00000
    740       8.4064      0.00000
    741       8.2104      0.00000
    742       8.3960      0.00000
    743       8.4050      0.00000
    744       8.4160      0.00000
    745       8.4012      0.00000
    746       8.4321      0.00000
    747       8.4162      0.00000
    748       8.4785      0.00000
    749       8.4760      0.00000
    750       8.3853      0.00000
    751       8.3457      0.00000
    752       8.1811      0.00000
    753       8.5395      0.00000
    754       8.5593      0.00000
    755       8.5814      0.00000
    756       8.6162      0.00000
    757       8.5335      0.00000
    758       8.5973      0.00000
    759       8.6191      0.00000
    760       8.5695      0.00000
    761       8.5939      0.00000
    762       8.5655      0.00000
    763       8.6219      0.00000
    764       8.6726      0.00000
    765       8.6426      0.00000
    766       8.4549      0.00000
    767       8.7054      0.00000
    768       8.4354      0.00000
    769       8.4119      0.00000
    770       8.3964      0.00000
    771       8.4803      0.00000
    772       8.3786      0.00000
    773       8.4911      0.00000
    774       8.4229      0.00000
    775       8.4476      0.00000
    776       8.4664      0.00000
    777       8.4588      0.00000
    778       8.4872      0.00000
    779       8.4908      0.00000
    780       8.4973      0.00000
    781       8.5257      0.00000
    782       8.5804      0.00000
    783       8.5971      0.00000
    784       8.6142      0.00000
    785       8.6290      0.00000
    786       8.6360      0.00000
    787       8.6417      0.00000
    788       8.6510      0.00000
    789       8.6510      0.00000
    790       8.6678      0.00000
    791       8.6740      0.00000
    792       8.6887      0.00000
    793       8.7311      0.00000
    794       8.7321      0.00000
    795       9.5516      0.00000
    796       9.5579      0.00000
    797       9.6634      0.00000
    798       9.7181      0.00000
    799       9.7618      0.00000
    800       9.7767      0.00000
    801       9.7850      0.00000
    802       9.8311      0.00000
    803       9.8257      0.00000
    804       9.7825      0.00000
    805       9.9127      0.00000
    806       9.8858      0.00000
    807       9.9268      0.00000
    808       9.7211      0.00000
    809       9.8897      0.00000
    810       9.9736      0.00000
    811       9.7217      0.00000
    812       9.7884      0.00000
    813       9.8185      0.00000
    814       9.8291      0.00000
    815      10.0347      0.00000
    816       9.8530      0.00000
    817       9.8666      0.00000
    818      10.0556      0.00000
    819       9.9596      0.00000
    820      10.0413      0.00000
    821      10.1708      0.00000
    822      10.1009      0.00000
    823      10.1834      0.00000
    824      10.0854      0.00000
    825      10.1493      0.00000
    826      10.1851      0.00000
    827      10.2527      0.00000
    828      10.2451      0.00000
    829      10.3515      0.00000
    830      10.2615      0.00000
    831      10.4475      0.00000
    832      10.3724      0.00000
    833      10.4983      0.00000
    834      10.1909      0.00000
    835      10.2726      0.00000
    836      10.2416      0.00000
    837      10.6245      0.00000
    838      10.5535      0.00000
    839      10.4225      0.00000
    840      10.5728      0.00000
    841      10.4122      0.00000
    842      10.5466      0.00000
    843      10.6346      0.00000
    844      10.6056      0.00000
    845      10.5321      0.00000
    846      10.6670      0.00000
    847      10.6990      0.00000
    848      10.6160      0.00000
    849      10.6964      0.00000
    850      10.6909      0.00000
    851      10.7484      0.00000
    852      10.7350      0.00000
    853      10.7306      0.00000
    854      10.6738      0.00000
    855      10.5968      0.00000
    856      10.5010      0.00000
    857      10.5131      0.00000
    858      10.8194      0.00000
    859      10.8069      0.00000
    860      10.8347      0.00000
    861      10.6628      0.00000
    862      10.7408      0.00000
    863      10.5012      0.00000
    864      10.9337      0.00000
    865      10.9371      0.00000
    866      10.9155      0.00000
    867      10.9304      0.00000
    868      10.8659      0.00000
    869      10.9742      0.00000
    870      10.8243      0.00000
    871      10.7982      0.00000
    872      10.8791      0.00000
    873      10.9940      0.00000
    874      10.7725      0.00000
    875      10.8882      0.00000
    876      10.9303      0.00000
    877      10.7835      0.00000
    878      10.8192      0.00000
    879      10.7229      0.00000
    880      10.9046      0.00000
    881      10.8369      0.00000
    882      10.7840      0.00000
    883      10.7746      0.00000
    884      10.9041      0.00000
    885      10.9659      0.00000
    886      10.8899      0.00000
    887      11.0129      0.00000
    888      11.1221      0.00000
    889      10.9561      0.00000
    890      10.8773      0.00000
    891      10.8874      0.00000
    892      10.9208      0.00000
    893      10.9162      0.00000
    894      10.9003      0.00000
    895      11.0933      0.00000
    896      10.9519      0.00000
    897      11.0669      0.00000
    898      11.0073      0.00000
    899      10.9261      0.00000
    900      10.9410      0.00000
    901      10.9642      0.00000
    902      10.9949      0.00000
    903      11.0509      0.00000
    904      11.0633      0.00000
    905      11.1550      0.00000
    906      11.1743      0.00000
    907      11.1975      0.00000
    908      11.1134      0.00000
    909      11.1892      0.00000
    910      11.2378      0.00000
    911      11.1800      0.00000
    912      11.1763      0.00000
    913      11.2821      0.00000
    914      11.4944      0.00000
    915      11.1943      0.00000
    916      11.7158      0.00000
    917      11.7159      0.00000
    918      11.7700      0.00000
    919      11.7641      0.00000
    920      11.8218      0.00000
    921      11.7847      0.00000
    922      11.8351      0.00000
    923      11.5477      0.00000
    924      11.8446      0.00000
    925      11.8359      0.00000
    926      11.8168      0.00000
    927      11.8306      0.00000
    928      11.7051      0.00000
    929      11.7046      0.00000
    930      11.7670      0.00000
    931      11.7652      0.00000
    932      11.8935      0.00000
    933      12.1812      0.00000
    934      12.0893      0.00000
    935      11.8299      0.00000
    936      11.8235      0.00000
    937      11.8514      0.00000
    938      11.8175      0.00000
    939      11.8031      0.00000
    940      11.8155      0.00000
    941      12.3048      0.00000
    942      12.3734      0.00000
    943      12.4138      0.00000
    944      12.4226      0.00000
    945      12.4300      0.00000
    946      12.4901      0.00000
    947      12.5300      0.00000
    948      12.5297      0.00000
    949      12.5483      0.00000
    950      12.5518      0.00000
    951      12.1930      0.00000
    952      12.2030      0.00000
    953      12.5980      0.00000
    954      12.6343      0.00000
    955      12.6462      0.00000
    956      12.3088      0.00000
    957      12.3587      0.00000
    958      12.7072      0.00000
    959      12.7222      0.00000
    960      12.7191      0.00000
    961      12.7334      0.00000
    962      12.6566      0.00000
    963      12.5016      0.00000
    964      12.4228      0.00000
    965      12.4355      0.00000
    966      12.4935      0.00000
    967      12.5302      0.00000
    968      12.5316      0.00000
    969      12.5494      0.00000
    970      12.5636      0.00000
    971      12.5836      0.00000
    972      12.6361      0.00000
    973      12.6385      0.00000
    974      12.7045      0.00000
    975      12.7066      0.00000
    976      12.7062      0.00000
    977      12.7582      0.00000
    978      12.7582      0.00000
    979      13.0944      0.00000
    980      13.0385      0.00000
    981      13.1677      0.00000
    982      13.1722      0.00000
    983      13.1648      0.00000
    984      13.3082      0.00000
    985      13.2975      0.00000
    986      13.3222      0.00000
    987      13.3285      0.00000
    988      13.3615      0.00000
    989      13.3743      0.00000
    990      13.4002      0.00000
    991      13.4179      0.00000
    992      13.1520      0.00000
    993      13.4156      0.00000
    994      13.4530      0.00000
    995      13.3452      0.00000
    996      13.4802      0.00000
    997      13.4276      0.00000
    998      13.4341      0.00000
    999      13.4336      0.00000
   1000      13.1663      0.00000
   1001      13.1657      0.00000
   1002      13.1637      0.00000
   1003      13.5146      0.00000
   1004      13.5572      0.00000
   1005      13.3245      0.00000
   1006      13.3572      0.00000
   1007      13.3653      0.00000
   1008      13.3963      0.00000
   1009      13.4094      0.00000
   1010      13.4216      0.00000
   1011      13.4622      0.00000
   1012      13.5170      0.00000
   1013      13.5162      0.00000
   1014      13.5099      0.00000
   1015      13.5950      0.00000
   1016      13.6646      0.00000
   1017      13.5234      0.00000
   1018      13.5002      0.00000
   1019      13.6112      0.00000
   1020      13.8183      0.00000
   1021      13.8046      0.00000
   1022      13.8693      0.00000
   1023      13.6342      0.00000
   1024      13.8298      0.00000
   1025      13.7316      0.00000
   1026      13.7982      0.00000
   1027      13.9229      0.00000
   1028      13.8543      0.00000
   1029      13.9914      0.00000
   1030      13.9543      0.00000
   1031      14.0026      0.00000
   1032      13.9956      0.00000
   1033      14.0803      0.00000
   1034      14.0882      0.00000
   1035      14.1211      0.00000
   1036      14.1003      0.00000
   1037      14.0687      0.00000
   1038      14.1024      0.00000
   1039      14.1269      0.00000
   1040      13.7556      0.00000
   1041      13.7850      0.00000
   1042      13.7991      0.00000
   1043      13.8779      0.00000
   1044      13.9308      0.00000
   1045      13.9525      0.00000
   1046      13.9610      0.00000
   1047      13.9974      0.00000
   1048      14.0060      0.00000
   1049      14.0213      0.00000
   1050      14.0748      0.00000
   1051      14.0436      0.00000
   1052      14.1099      0.00000
   1053      14.1190      0.00000
   1054      14.1345      0.00000
   1055      14.1401      0.00000
   1056      14.1505      0.00000
   1057      14.1531      0.00000
   1058      14.1712      0.00000
   1059      14.5175      0.00000
   1060      14.5910      0.00000
   1061      14.7121      0.00000
   1062      14.7111      0.00000
   1063      14.7408      0.00000
   1064      14.7571      0.00000
   1065      14.7740      0.00000
   1066      14.7819      0.00000
   1067      14.7838      0.00000
   1068      14.7944      0.00000
   1069      14.8019      0.00000
   1070      14.8040      0.00000
   1071      14.8210      0.00000
   1072      14.8218      0.00000
   1073      14.8259      0.00000
   1074      14.8547      0.00000
   1075      14.5827      0.00000
   1076      14.6456      0.00000
   1077      15.1319      0.00000
   1078      14.9274      0.00000
   1079      15.1207      0.00000
   1080      15.0839      0.00000
   1081      14.9303      0.00000
   1082      14.8912      0.00000
   1083      14.8268      0.00000
   1084      14.7982      0.00000
   1085      14.8100      0.00000
   1086      14.8177      0.00000
   1087      14.8411      0.00000
   1088      14.8410      0.00000
   1089      14.8435      0.00000
   1090      14.8493      0.00000
   1091      14.8604      0.00000
   1092      14.8857      0.00000
   1093      14.8861      0.00000
   1094      14.9103      0.00000
   1095      15.4386      0.00000
   1096      15.2289      0.00000
   1097      15.4331      0.00000
   1098      15.3925      0.00000
   1099      15.4459      0.00000
   1100      15.3183      0.00000
   1101      15.3253      0.00000
   1102      15.6455      0.00000
   1103      15.6803      0.00000
   1104      15.6934      0.00000
   1105      15.6914      0.00000
   1106      15.7033      0.00000
   1107      15.7121      0.00000
   1108      15.7095      0.00000
   1109      15.7257      0.00000
   1110      15.7391      0.00000
   1111      15.7312      0.00000
   1112      15.7529      0.00000
   1113      15.7658      0.00000
   1114      15.8023      0.00000
   1115      15.8064      0.00000
   1116      15.8666      0.00000
   1117      15.8498      0.00000
   1118      15.8773      0.00000
   1119      15.9525      0.00000
   1120      15.9418      0.00000
   1121      15.9729      0.00000
   1122      15.9287      0.00000
   1123      15.9788      0.00000
   1124      16.0863      0.00000
   1125      16.1050      0.00000
   1126      16.0882      0.00000
   1127      16.0783      0.00000
   1128      16.0232      0.00000
   1129      15.8915      0.00000
   1130      16.0403      0.00000
   1131      15.9330      0.00000
   1132      16.0484      0.00000
   1133      16.1331      0.00000
   1134      16.0191      0.00000
   1135      16.1099      0.00000
   1136      16.1351      0.00000
   1137      16.2520      0.00000
   1138      16.2539      0.00000
   1139      16.2910      0.00000
   1140      16.2336      0.00000
   1141      16.3109      0.00000
   1142      16.3005      0.00000
   1143      16.3166      0.00000
   1144      16.3310      0.00000
   1145      16.3457      0.00000
   1146      16.3579      0.00000
   1147      16.3438      0.00000
   1148      16.3518      0.00000
   1149      16.4239      0.00000
   1150      16.3770      0.00000
   1151      16.3730      0.00000
   1152      16.4362      0.00000

 k-point     8 :       0.5000    0.5000    0.5000
  band No.  band energies     occupation 
      1      -9.9187      1.00000
      2      -9.9183      1.00000
      3      -9.9179      1.00000
      4      -9.9133      1.00000
      5      -9.8837      1.00000
      6      -9.8834      1.00000
      7      -9.8828      1.00000
      8      -9.8778      1.00000
      9      -9.8637      1.00000
     10      -9.8629      1.00000
     11      -9.8623      1.00000
     12      -9.8381      1.00000
     13      -9.8290      1.00000
     14      -9.8284      1.00000
     15      -9.8276      1.00000
     16      -9.8023      1.00000
     17      -9.7837      1.00000
     18      -9.7815      1.00000
     19      -9.7792      1.00000
     20      -9.7525      1.00000
     21      -9.7499      1.00000
     22      -9.7467      1.00000
     23      -9.7435      1.00000
     24      -9.7356      1.00000
     25      -9.7353      1.00000
     26      -9.7350      1.00000
     27      -9.7320      1.00000
     28      -9.7312      1.00000
     29      -9.7276      1.00000
     30      -9.7260      1.00000
     31      -9.7209      1.00000
     32      -9.7158      1.00000
     33      -9.7130      1.00000
     34      -9.7079      1.00000
     35      -9.7022      1.00000
     36      -9.6991      1.00000
     37      -9.6892      1.00000
     38      -9.6884      1.00000
     39      -9.6875      1.00000
     40      -9.6815      1.00000
     41      -9.6803      1.00000
     42      -9.6801      1.00000
     43      -9.6773      1.00000
     44      -9.6722      1.00000
     45      -9.6721      1.00000
     46      -9.6707      1.00000
     47      -9.6698      1.00000
     48      -9.6641      1.00000
     49      -9.6600      1.00000
     50      -9.6600      1.00000
     51      -9.6536      1.00000
     52      -9.6479      1.00000
     53      -9.6452      1.00000
     54      -9.6378      1.00000
     55      -9.6317      1.00000
     56      -9.6274      1.00000
     57      -9.6243      1.00000
     58      -9.6184      1.00000
     59      -9.6127      1.00000
     60      -9.6114      1.00000
     61      -9.6104      1.00000
     62      -9.5867      1.00000
     63      -9.5856      1.00000
     64      -9.5813      1.00000
     65      -8.5409      1.00000
     66      -8.5381      1.00000
     67      -8.5373      1.00000
     68      -8.5342      1.00000
     69      -8.5178      1.00000
     70      -8.5145      1.00000
     71      -8.5081      1.00000
     72      -8.5028      1.00000
     73      -8.4842      1.00000
     74      -8.4837      1.00000
     75      -8.4825      1.00000
     76      -8.4819      1.00000
     77      -8.4354      1.00000
     78      -8.4348      1.00000
     79      -8.4342      1.00000
     80      -8.4342      1.00000
     81      -8.4258      1.00000
     82      -8.4256      1.00000
     83      -8.4255      1.00000
     84      -8.4251      1.00000
     85      -8.4135      1.00000
     86      -8.4134      1.00000
     87      -8.4125      1.00000
     88      -8.4124      1.00000
     89      -8.3998      1.00000
     90      -8.3997      1.00000
     91      -8.3989      1.00000
     92      -8.3987      1.00000
     93      -8.3979      1.00000
     94      -8.3978      1.00000
     95      -8.3908      1.00000
     96      -8.3907      1.00000
     97      -8.3896      1.00000
     98      -8.3896      1.00000
     99      -8.3890      1.00000
    100      -8.3888      1.00000
    101      -8.3867      1.00000
    102      -8.3866      1.00000
    103      -8.3861      1.00000
    104      -8.3853      1.00000
    105      -8.3840      1.00000
    106      -8.3832      1.00000
    107      -8.3831      1.00000
    108      -8.3819      1.00000
    109      -8.3817      1.00000
    110      -8.3805      1.00000
    111      -8.3776      1.00000
    112      -8.3761      1.00000
    113      -8.3653      1.00000
    114      -8.3652      1.00000
    115      -8.3648      1.00000
    116      -8.3648      1.00000
    117      -8.3564      1.00000
    118      -8.3553      1.00000
    119      -8.3549      1.00000
    120      -8.3538      1.00000
    121      -8.3425      1.00000
    122      -8.3425      1.00000
    123      -8.3422      1.00000
    124      -8.3415      1.00000
    125      -8.3413      1.00000
    126      -8.3409      1.00000
    127      -8.3347      1.00000
    128      -8.3342      1.00000
    129      -8.2996      1.00000
    130      -8.2990      1.00000
    131      -8.2984      1.00000
    132      -8.2967      1.00000
    133      -8.2963      1.00000
    134      -8.2950      1.00000
    135      -8.2827      1.00000
    136      -8.2807      1.00000
    137      -8.2799      1.00000
    138      -8.2797      1.00000
    139      -8.2793      1.00000
    140      -8.2784      1.00000
    141      -8.2740      1.00000
    142      -8.2717      1.00000
    143      -8.2652      1.00000
    144      -8.2645      1.00000
    145      -8.2644      1.00000
    146      -8.2637      1.00000
    147      -8.2580      1.00000
    148      -8.2566      1.00000
    149      -8.2518      1.00000
    150      -8.2516      1.00000
    151      -8.2487      1.00000
    152      -8.2485      1.00000
    153      -8.2483      1.00000
    154      -8.2482      1.00000
    155      -8.2481      1.00000
    156      -8.2481      1.00000
    157      -8.2409      1.00000
    158      -8.2409      1.00000
    159      -8.2408      1.00000
    160      -8.2407      1.00000
    161      -8.2404      1.00000
    162      -8.2403      1.00000
    163      -8.2402      1.00000
    164      -8.2400      1.00000
    165      -8.2370      1.00000
    166      -8.2368      1.00000
    167      -8.2361      1.00000
    168      -8.2360      1.00000
    169      -8.0694      1.00000
    170      -8.0681      1.00000
    171      -8.0673      1.00000
    172      -8.0660      1.00000
    173      -8.0352      1.00000
    174      -8.0348      1.00000
    175      -8.0289      1.00000
    176      -8.0288      1.00000
    177      -8.0280      1.00000
    178      -8.0279      1.00000
    179      -8.0190      1.00000
    180      -8.0186      1.00000
    181      -7.9968      1.00000
    182      -7.9967      1.00000
    183      -7.9962      1.00000
    184      -7.9961      1.00000
    185      -7.9926      1.00000
    186      -7.9923      1.00000
    187      -7.9857      1.00000
    188      -7.9852      1.00000
    189      -7.9816      1.00000
    190      -7.9816      1.00000
    191      -7.9813      1.00000
    192      -7.9813      1.00000
    193      -7.9546      1.00000
    194      -7.9527      1.00000
    195      -7.9525      1.00000
    196      -7.9505      1.00000
    197      -7.8513      1.00000
    198      -7.8483      1.00000
    199      -7.8222      1.00000
    200      -7.8193      1.00000
    201      -7.7938      1.00000
    202      -7.7932      1.00000
    203      -7.7925      1.00000
    204      -7.7920      1.00000
    205      -7.7636      1.00000
    206      -7.7627      1.00000
    207      -7.7509      1.00000
    208      -7.7492      1.00000
    209      -7.7463      1.00000
    210      -7.7443      1.00000
    211      -7.7435      1.00000
    212      -7.7430      1.00000
    213      -7.7425      1.00000
    214      -7.7416      1.00000
    215      -7.7384      1.00000
    216      -7.7383      1.00000
    217      -7.7366      1.00000
    218      -7.7365      1.00000
    219      -7.7297      1.00000
    220      -7.7287      1.00000
    221      -7.7277      1.00000
    222      -7.7277      1.00000
    223      -7.7266      1.00000
    224      -7.7257      1.00000
    225      -7.7153      1.00000
    226      -7.7135      1.00000
    227      -7.7053      1.00000
    228      -7.7047      1.00000
    229      -7.7046      1.00000
    230      -7.7031      1.00000
    231      -7.7026      1.00000
    232      -7.7023      1.00000
    233      -7.7015      1.00000
    234      -7.7009      1.00000
    235      -7.7002      1.00000
    236      -7.6999      1.00000
    237      -7.6945      1.00000
    238      -7.6942      1.00000
    239      -7.6907      1.00000
    240      -7.6894      1.00000
    241      -7.6884      1.00000
    242      -7.6875      1.00000
    243      -7.6848      1.00000
    244      -7.6842      1.00000
    245      -7.6835      1.00000
    246      -7.6828      1.00000
    247      -7.6750      1.00000
    248      -7.6749      1.00000
    249      -7.6746      1.00000
    250      -7.6734      1.00000
    251      -7.6733      1.00000
    252      -7.6729      1.00000
    253      -7.6722      1.00000
    254      -7.6721      1.00000
    255      -7.6703      1.00000
    256      -7.6692      1.00000
    257      -7.6676      1.00000
    258      -7.6673      1.00000
    259      -7.6673      1.00000
    260      -7.6672      1.00000
    261      -7.6522      1.00000
    262      -7.6518      1.00000
    263      -7.6518      1.00000
    264      -7.6512      1.00000
    265      -7.6485      1.00000
    266      -7.6464      1.00000
    267      -7.6398      1.00000
    268      -7.6378      1.00000
    269      -7.6366      1.00000
    270      -7.6365      1.00000
    271      -7.6357      1.00000
    272      -7.6357      1.00000
    273      -7.6199      1.00000
    274      -7.6189      1.00000
    275      -7.6189      1.00000
    276      -7.6177      1.00000
    277      -7.6160      1.00000
    278      -7.6160      1.00000
    279      -7.6154      1.00000
    280      -7.6149      1.00000
    281      -7.6144      1.00000
    282      -7.6142      1.00000
    283      -7.6120      1.00000
    284      -7.6120      1.00000
    285      -7.6119      1.00000
    286      -7.6103      1.00000
    287      -7.6100      1.00000
    288      -7.6096      1.00000
    289      -7.6096      1.00000
    290      -7.6094      1.00000
    291      -7.6088      1.00000
    292      -7.6084      1.00000
    293      -7.6049      1.00000
    294      -7.6049      1.00000
    295      -7.6048      1.00000
    296      -7.6042      1.00000
    297      -7.5947      1.00000
    298      -7.5918      1.00000
    299      -7.5903      1.00000
    300      -7.5902      1.00000
    301      -7.5888      1.00000
    302      -7.5885      1.00000
    303      -7.5883      1.00000
    304      -7.5883      1.00000
    305      -7.5807      1.00000
    306      -7.5804      1.00000
    307      -7.5803      1.00000
    308      -7.5798      1.00000
    309      -7.5774      1.00000
    310      -7.5769      1.00000
    311      -7.5745      1.00000
    312      -7.5741      1.00000
    313      -7.5736      1.00000
    314      -7.5734      1.00000
    315      -7.5726      1.00000
    316      -7.5715      1.00000
    317      -7.5711      1.00000
    318      -7.5709      1.00000
    319      -7.5705      1.00000
    320      -7.5704      1.00000
    321      -7.5635      1.00000
    322      -7.5613      1.00000
    323      -7.5610      1.00000
    324      -7.5584      1.00000
    325      -7.5524      1.00000
    326      -7.5512      1.00000
    327      -7.5492      1.00000
    328      -7.5481      1.00000
    329      -7.5459      1.00000
    330      -7.5446      1.00000
    331      -7.5444      1.00000
    332      -7.5420      1.00000
    333      -7.5378      1.00000
    334      -7.5353      1.00000
    335      -7.5312      1.00000
    336      -7.5267      1.00000
    337      -7.4480      1.00000
    338      -7.4434      1.00000
    339      -7.4419      1.00000
    340      -7.4369      1.00000
    341      -7.2553      1.00000
    342      -7.2507      1.00000
    343      -7.2338      1.00000
    344      -7.2228      1.00000
    345      -7.2193      1.00000
    346      -7.2192      1.00000
    347      -7.2075      1.00000
    348      -7.2075      1.00000
    349      -7.1795      1.00000
    350      -7.1769      1.00000
    351      -7.1733      1.00000
    352      -7.1730      1.00000
    353      -7.1705      1.00000
    354      -7.1696      1.00000
    355      -7.1666      1.00000
    356      -7.1630      1.00000
    357      -7.1627      1.00000
    358      -7.1626      1.00000
    359      -7.1611      1.00000
    360      -7.1600      1.00000
    361      -7.1583      1.00000
    362      -7.1576      1.00000
    363      -7.1545      1.00000
    364      -7.1505      1.00000
    365      -7.1494      1.00000
    366      -7.1465      1.00000
    367      -7.1458      1.00000
    368      -7.1437      1.00000
    369      -7.0714      1.00000
    370      -7.0708      1.00000
    371      -7.0584      1.00000
    372      -7.0547      1.00000
    373      -7.0536      1.00000
    374      -7.0520      1.00000
    375      -7.0491      1.00000
    376      -7.0486      1.00000
    377      -7.0472      1.00000
    378      -7.0458      1.00000
    379      -7.0447      1.00000
    380      -7.0401      1.00000
    381      -7.0387      1.00000
    382      -7.0386      1.00000
    383      -7.0318      1.00000
    384      -7.0270      1.00000
    385      -7.0264      1.00000
    386      -7.0243      1.00000
    387      -7.0208      1.00000
    388      -7.0197      1.00000
    389      -6.8304      1.00000
    390      -6.8208      1.00000
    391      -6.7895      1.00000
    392      -6.7853      1.00000
    393      -6.7739      1.00000
    394      -6.7729      1.00000
    395      -3.1542      1.00000
    396      -3.1455      1.00000
    397      -2.5916      1.00000
    398      -2.5908      1.00000
    399      -2.5876      1.00000
    400      -2.5856      1.00000
    401      -2.5853      1.00000
    402      -2.5831      1.00000
    403      -2.5803      1.00000
    404      -2.5798      1.00000
    405      -2.5796      1.00000
    406      -2.5763      1.00000
    407      -2.5733      1.00000
    408      -2.5713      1.00000
    409      -2.5637      1.00000
    410      -2.5592      1.00000
    411      -2.5581      1.00000
    412      -2.5551      1.00000
    413      -2.5509      1.00000
    414      -2.5489      1.00000
    415      -2.5294      1.00000
    416      -2.5286      1.00000
    417      -2.5278      1.00000
    418      -2.5257      1.00000
    419      -2.4743      1.00000
    420      -2.4702      1.00000
    421      -2.4470      1.00000
    422      -2.4470      1.00000
    423      -2.4466      1.00000
    424      -2.4456      1.00000
    425      -2.4350      1.00000
    426      -2.4312      1.00000
    427      -2.4296      1.00000
    428      -2.4284      1.00000
    429      -2.4260      1.00000
    430      -2.4235      1.00000
    431      -2.4232      1.00000
    432      -2.4202      1.00000
    433      -2.4076      1.00000
    434      -2.4024      1.00000
    435      -2.3943      1.00000
    436      -2.3926      1.00000
    437      -2.3914      1.00000
    438      -2.3911      1.00000
    439      -2.3859      1.00000
    440      -2.3847      1.00000
    441      -2.3789      1.00000
    442      -2.3773      1.00000
    443      -1.3507      1.00000
    444      -1.3482      1.00000
    445      -1.0546      1.00000
    446      -1.0537      1.00000
    447      -1.0474      1.00000
    448      -1.0468      1.00000
    449      -1.0467      1.00000
    450      -1.0463      1.00000
    451      -1.0401      1.00000
    452      -1.0390      1.00000
    453      -0.9998      1.00000
    454      -0.9995      1.00000
    455      -0.9959      1.00000
    456      -0.9958      1.00000
    457      -0.9954      1.00000
    458      -0.9953      1.00000
    459      -0.7199      1.00000
    460      -0.7119      1.00000
    461      -0.5424      1.00000
    462      -0.5388      1.00000
    463      -0.5166      1.00000
    464      -0.5135      1.00000
    465      -0.5109      1.00000
    466      -0.5078      1.00000
    467      -0.4785      1.00000
    468      -0.4785      1.00000
    469      -0.4766      1.00000
    470      -0.4764      1.00000
    471      -0.4564      1.00000
    472      -0.4552      1.00000
    473      -0.4515      1.00000
    474      -0.4513      1.00000
    475      -0.4487      1.00000
    476      -0.4485      1.00000
    477      -0.4406      1.00000
    478      -0.4375      1.00000
    479      -0.4324      1.00000
    480      -0.4312      1.00000
    481      -0.4283      1.00000
    482      -0.4268      1.00000
    483      -0.3226      1.00000
    484      -0.3190      1.00000
    485      -0.2932      1.00000
    486      -0.2893      1.00000
    487      -0.2673      1.00000
    488      -0.2670      1.00000
    489      -0.2659      1.00000
    490      -0.2657      1.00000
    491      -0.2419      1.00000
    492      -0.2415      1.00000
    493      -0.2393      1.00000
    494      -0.2388      1.00000
    495      -0.2226      1.00000
    496      -0.2217      1.00000
    497      -0.2194      1.00000
    498      -0.2189      1.00000
    499      -0.2175      1.00000
    500      -0.2154      1.00000
    501      -0.2110      1.00000
    502      -0.2073      1.00000
    503      -0.2037      1.00000
    504      -0.2026      1.00000
    505      -0.2003      1.00000
    506      -0.1997      1.00000
    507       0.3507      1.00000
    508       0.3519      1.00000
    509       0.3626      1.00000
    510       0.3750      1.00000
    511       0.3807      1.00000
    512       0.3835      1.00000
    513       0.4079      1.00000
    514       0.4099      1.00000
    515       0.4110      1.00000
    516       0.4264      1.00000
    517       0.4277      1.00000
    518       0.4294      1.00000
    519       0.4316      1.00000
    520       0.4387      1.00000
    521       0.4403      1.00000
    522       0.4475      1.00000
    523       0.4492      1.00000
    524       0.4499      1.00000
    525       0.4635      1.00000
    526       0.4647      1.00000
    527       0.4711      1.00000
    528       0.4742      1.00000
    529       0.4753      1.00000
    530       0.4768      1.00000
    531       0.4784      1.00000
    532       0.4810      1.00000
    533       0.4849      1.00000
    534       0.4850      1.00000
    535       0.4901      1.00000
    536       0.4921      1.00000
    537       0.4938      1.00000
    538       0.4945      1.00000
    539       0.4963      1.00000
    540       0.4973      1.00000
    541       0.5020      1.00000
    542       0.5038      1.00000
    543       0.5053      1.00000
    544       0.5080      1.00000
    545       0.5120      1.00000
    546       0.5128      1.00000
    547       0.5178      1.00000
    548       0.5190      1.00000
    549       0.5287      1.00000
    550       0.5337      1.00000
    551       0.5371      1.00000
    552       0.5506      1.00000
    553       0.5579      1.00000
    554       0.5633      1.00000
    555       1.1360      1.00000
    556       1.1482      1.00000
    557       1.1504      1.00000
    558       1.1506      1.00000
    559       1.1607      1.00000
    560       1.1640      1.00000
    561       1.1652      1.00000
    562       1.1767      1.00000
    563       1.1774      1.00000
    564       1.1860      1.00000
    565       1.1912      1.00000
    566       1.1982      1.00000
    567       1.2011      1.00000
    568       1.2065      1.00000
    569       1.2122      1.00000
    570       1.2215      1.00000
    571       1.6568      1.00000
    572       1.6701      1.00000
    573       1.6752      1.00000
    574       1.6779      1.00000
    575       1.6945      1.00000
    576       1.6946      1.00000
    577       1.6994      1.00000
    578       1.7069      1.00000
    579       1.7164      1.00000
    580       1.7168      1.00000
    581       1.7244      1.00000
    582       1.7247      1.00000
    583       1.7267      1.00000
    584       1.7341      1.00000
    585       1.7440      1.00000
    586       1.7509      1.00000
    587       2.9198      1.00000
    588       2.9829      1.00000
    589       4.3046      0.00000
    590       4.3079      0.00000
    591       4.3111      0.00000
    592       4.4139      0.00000
    593       4.4898      0.00000
    594       4.4897      0.00000
    595       4.4898      0.00000
    596       4.2817      0.00000
    597       4.2851      0.00000
    598       4.6176      0.00000
    599       4.2892      0.00000
    600       4.3904      0.00000
    601       4.4638      0.00000
    602       4.4642      0.00000
    603       4.4639      0.00000
    604       4.5980      0.00000
    605       5.1271      0.00000
    606       5.1342      0.00000
    607       5.1411      0.00000
    608       5.3594      0.00000
    609       5.3640      0.00000
    610       5.3952      0.00000
    611       5.4011      0.00000
    612       5.4179      0.00000
    613       5.3640      0.00000
    614       5.4336      0.00000
    615       5.4385      0.00000
    616       5.3081      0.00000
    617       5.4140      0.00000
    618       5.4222      0.00000
    619       5.4384      0.00000
    620       5.4579      0.00000
    621       5.4349      0.00000
    622       5.4165      0.00000
    623       5.4401      0.00000
    624       5.2838      0.00000
    625       5.4710      0.00000
    626       5.2196      0.00000
    627       5.4709      0.00000
    628       5.5001      0.00000
    629       5.4609      0.00000
    630       5.4626      0.00000
    631       5.3755      0.00000
    632       5.3791      0.00000
    633       5.3792      0.00000
    634       5.3817      0.00000
    635       5.4064      0.00000
    636       5.4140      0.00000
    637       5.4149      0.00000
    638       5.4252      0.00000
    639       5.4276      0.00000
    640       5.4359      0.00000
    641       5.4437      0.00000
    642       5.4379      0.00000
    643       5.4338      0.00000
    644       5.4406      0.00000
    645       5.4535      0.00000
    646       5.4528      0.00000
    647       5.4691      0.00000
    648       5.4758      0.00000
    649       5.4821      0.00000
    650       5.4853      0.00000
    651       6.2645      0.00000
    652       6.2949      0.00000
    653       6.7240      0.00000
    654       6.7574      0.00000
    655       6.8065      0.00000
    656       6.9288      0.00000
    657       6.9509      0.00000
    658       6.9827      0.00000
    659       6.9741      0.00000
    660       6.9824      0.00000
    661       6.9920      0.00000
    662       7.0070      0.00000
    663       7.0024      0.00000
    664       7.0128      0.00000
    665       7.0231      0.00000
    666       7.0189      0.00000
    667       7.0234      0.00000
    668       7.0134      0.00000
    669       7.0211      0.00000
    670       7.0386      0.00000
    671       7.0501      0.00000
    672       6.9895      0.00000
    673       7.0998      0.00000
    674       7.1172      0.00000
    675       7.1560      0.00000
    676       7.0591      0.00000
    677       6.9524      0.00000
    678       7.0080      0.00000
    679       6.9733      0.00000
    680       7.0009      0.00000
    681       7.0151      0.00000
    682       7.0316      0.00000
    683       7.0277      0.00000
    684       7.0338      0.00000
    685       7.0850      0.00000
    686       7.0992      0.00000
    687       7.0858      0.00000
    688       7.1004      0.00000
    689       7.1056      0.00000
    690       7.1153      0.00000
    691       7.1493      0.00000
    692       7.1234      0.00000
    693       7.1318      0.00000
    694       7.3899      0.00000
    695       7.1562      0.00000
    696       7.1795      0.00000
    697       7.2040      0.00000
    698       7.2497      0.00000
    699       7.2009      0.00000
    700       7.3867      0.00000
    701       7.5334      0.00000
    702       7.6748      0.00000
    703       7.7043      0.00000
    704       7.7165      0.00000
    705       7.6238      0.00000
    706       7.8095      0.00000
    707       7.6494      0.00000
    708       7.6344      0.00000
    709       7.6950      0.00000
    710       7.6643      0.00000
    711       7.6766      0.00000
    712       7.6964      0.00000
    713       7.8054      0.00000
    714       7.8753      0.00000
    715       7.7175      0.00000
    716       7.7849      0.00000
    717       7.8145      0.00000
    718       7.5115      0.00000
    719       7.8330      0.00000
    720       7.9149      0.00000
    721       7.9629      0.00000
    722       7.9798      0.00000
    723       7.5705      0.00000
    724       7.8884      0.00000
    725       7.5812      0.00000
    726       7.6547      0.00000
    727       7.7656      0.00000
    728       7.7696      0.00000
    729       7.6591      0.00000
    730       7.8367      0.00000
    731       7.7034      0.00000
    732       7.7127      0.00000
    733       7.7739      0.00000
    734       7.7492      0.00000
    735       7.7553      0.00000
    736       7.7570      0.00000
    737       7.8267      0.00000
    738       7.9029      0.00000
    739       7.8070      0.00000
    740       7.8785      0.00000
    741       7.8347      0.00000
    742       7.8431      0.00000
    743       7.9138      0.00000
    744       7.9687      0.00000
    745       7.9762      0.00000
    746       7.8974      0.00000
    747       8.3185      0.00000
    748       8.2902      0.00000
    749       8.3049      0.00000
    750       8.5486      0.00000
    751       8.6287      0.00000
    752       8.5694      0.00000
    753       8.5505      0.00000
    754       8.4224      0.00000
    755       8.6282      0.00000
    756       8.5715      0.00000
    757       8.6113      0.00000
    758       8.6253      0.00000
    759       8.5980      0.00000
    760       8.6067      0.00000
    761       8.6067      0.00000
    762       8.6847      0.00000
    763       8.7004      0.00000
    764       8.6978      0.00000
    765       8.6531      0.00000
    766       8.7149      0.00000
    767       8.7355      0.00000
    768       8.7460      0.00000
    769       8.7510      0.00000
    770       8.7302      0.00000
    771       8.7245      0.00000
    772       8.7645      0.00000
    773       8.7561      0.00000
    774       8.5878      0.00000
    775       8.6446      0.00000
    776       8.6806      0.00000
    777       8.6610      0.00000
    778       8.6980      0.00000
    779       8.7232      0.00000
    780       8.7100      0.00000
    781       8.7727      0.00000
    782       8.7020      0.00000
    783       8.7213      0.00000
    784       8.7441      0.00000
    785       8.7538      0.00000
    786       8.7344      0.00000
    787       8.7643      0.00000
    788       8.7931      0.00000
    789       8.7784      0.00000
    790       8.7548      0.00000
    791       8.7609      0.00000
    792       8.7900      0.00000
    793       8.8254      0.00000
    794       8.7897      0.00000
    795       8.8898      0.00000
    796       8.9964      0.00000
    797       9.0468      0.00000
    798       9.2964      0.00000
    799       9.3001      0.00000
    800       9.3048      0.00000
    801       9.3374      0.00000
    802       9.3384      0.00000
    803       9.3689      0.00000
    804       9.3760      0.00000
    805       9.3772      0.00000
    806       9.3749      0.00000
    807       9.2173      0.00000
    808       9.3439      0.00000
    809       9.3578      0.00000
    810       9.4031      0.00000
    811       9.2135      0.00000
    812       9.2239      0.00000
    813       9.4496      0.00000
    814       9.3401      0.00000
    815       9.4504      0.00000
    816       9.4370      0.00000
    817       9.4751      0.00000
    818       9.4755      0.00000
    819       9.4518      0.00000
    820       9.4236      0.00000
    821       9.3628      0.00000
    822       9.2844      0.00000
    823       9.2910      0.00000
    824       9.2962      0.00000
    825       9.3250      0.00000
    826       9.3251      0.00000
    827       9.3590      0.00000
    828       9.3646      0.00000
    829       9.3877      0.00000
    830       9.3673      0.00000
    831       9.3858      0.00000
    832       9.3866      0.00000
    833       9.3904      0.00000
    834       9.4006      0.00000
    835       9.4373      0.00000
    836       9.4364      0.00000
    837       9.4384      0.00000
    838       9.4604      0.00000
    839       9.4717      0.00000
    840       9.4536      0.00000
    841       9.4737      0.00000
    842       9.4635      0.00000
    843      10.5187      0.00000
    844      10.5382      0.00000
    845      10.5637      0.00000
    846      10.5354      0.00000
    847      10.5170      0.00000
    848      10.5441      0.00000
    849      10.8298      0.00000
    850      10.5155      0.00000
    851      10.5483      0.00000
    852      10.8618      0.00000
    853      10.8567      0.00000
    854      10.8531      0.00000
    855      10.9884      0.00000
    856      10.9885      0.00000
    857      10.9128      0.00000
    858      10.9195      0.00000
    859      10.9288      0.00000
    860      11.0276      0.00000
    861      11.0378      0.00000
    862      11.0455      0.00000
    863      11.0543      0.00000
    864      11.0600      0.00000
    865      11.0699      0.00000
    866      11.0760      0.00000
    867      11.0870      0.00000
    868      11.0831      0.00000
    869      11.0904      0.00000
    870      11.0898      0.00000
    871      10.8061      0.00000
    872      10.8356      0.00000
    873      10.8359      0.00000
    874      10.8351      0.00000
    875      10.8992      0.00000
    876      10.9078      0.00000
    877      10.9148      0.00000
    878      10.9794      0.00000
    879      10.9805      0.00000
    880      11.0133      0.00000
    881      11.0244      0.00000
    882      11.0319      0.00000
    883      11.0415      0.00000
    884      11.0481      0.00000
    885      11.0569      0.00000
    886      11.0622      0.00000
    887      11.0724      0.00000
    888      11.0811      0.00000
    889      11.0730      0.00000
    890      11.0735      0.00000
    891      11.5701      0.00000
    892      11.5686      0.00000
    893      11.5698      0.00000
    894      11.6253      0.00000
    895      11.6419      0.00000
    896      11.6354      0.00000
    897      11.6465      0.00000
    898      11.6696      0.00000
    899      11.6754      0.00000
    900      11.6742      0.00000
    901      11.6817      0.00000
    902      11.6727      0.00000
    903      11.6896      0.00000
    904      11.7068      0.00000
    905      11.6942      0.00000
    906      11.7108      0.00000
    907      11.7078      0.00000
    908      11.7250      0.00000
    909      11.7362      0.00000
    910      11.7570      0.00000
    911      11.7486      0.00000
    912      11.7612      0.00000
    913      11.7688      0.00000
    914      11.7751      0.00000
    915      11.6006      0.00000
    916      11.6186      0.00000
    917      11.6217      0.00000
    918      11.6592      0.00000
    919      11.6679      0.00000
    920      11.6652      0.00000
    921      11.6651      0.00000
    922      11.7230      0.00000
    923      11.7210      0.00000
    924      11.7207      0.00000
    925      11.7271      0.00000
    926      11.7220      0.00000
    927      11.7325      0.00000
    928      11.7448      0.00000
    929      11.7446      0.00000
    930      11.7531      0.00000
    931      11.7554      0.00000
    932      11.7771      0.00000
    933      11.7602      0.00000
    934      11.7820      0.00000
    935      11.7823      0.00000
    936      11.7915      0.00000
    937      11.8059      0.00000
    938      11.8123      0.00000
    939      12.9408      0.00000
    940      12.9543      0.00000
    941      12.9713      0.00000
    942      12.9699      0.00000
    943      13.2066      0.00000
    944      13.2443      0.00000
    945      13.2457      0.00000
    946      13.2413      0.00000
    947      13.2443      0.00000
    948      13.2457      0.00000
    949      13.2517      0.00000
    950      13.2594      0.00000
    951      13.2535      0.00000
    952      13.2618      0.00000
    953      13.2549      0.00000
    954      13.2735      0.00000
    955      13.2714      0.00000
    956      13.2991      0.00000
    957      13.3019      0.00000
    958      13.3245      0.00000
    959      13.3301      0.00000
    960      13.3308      0.00000
    961      13.3027      0.00000
    962      13.3114      0.00000
    963      13.3365      0.00000
    964      13.0396      0.00000
    965      13.0318      0.00000
    966      13.0116      0.00000
    967      12.9915      0.00000
    968      13.4315      0.00000
    969      13.4142      0.00000
    970      13.4630      0.00000
    971      13.4445      0.00000
    972      13.2605      0.00000
    973      13.2458      0.00000
    974      13.2661      0.00000
    975      13.2673      0.00000
    976      13.2902      0.00000
    977      13.2857      0.00000
    978      13.2772      0.00000
    979      13.2995      0.00000
    980      13.2777      0.00000
    981      13.2791      0.00000
    982      13.4440      0.00000
    983      13.3806      0.00000
    984      13.4317      0.00000
    985      13.4109      0.00000
    986      13.3924      0.00000
    987      13.3333      0.00000
    988      13.3976      0.00000
    989      13.4585      0.00000
    990      13.4412      0.00000
    991      13.3830      0.00000
    992      13.3861      0.00000
    993      13.4176      0.00000
    994      13.5646      0.00000
    995      13.5748      0.00000
    996      13.5724      0.00000
    997      13.5977      0.00000
    998      13.3939      0.00000
    999      13.4813      0.00000
   1000      13.6117      0.00000
   1001      13.6238      0.00000
   1002      13.4784      0.00000
   1003      13.6009      0.00000
   1004      13.6097      0.00000
   1005      13.6267      0.00000
   1006      13.5558      0.00000
   1007      13.5499      0.00000
   1008      13.6821      0.00000
   1009      13.6821      0.00000
   1010      13.6670      0.00000
   1011      13.6667      0.00000
   1012      13.6724      0.00000
   1013      13.6890      0.00000
   1014      13.6760      0.00000
   1015      13.6872      0.00000
   1016      13.6731      0.00000
   1017      13.6938      0.00000
   1018      13.6993      0.00000
   1019      13.6856      0.00000
   1020      13.4285      0.00000
   1021      13.4875      0.00000
   1022      13.4986      0.00000
   1023      13.5027      0.00000
   1024      13.5237      0.00000
   1025      13.5281      0.00000
   1026      13.5314      0.00000
   1027      13.5285      0.00000
   1028      13.9462      0.00000
   1029      13.6185      0.00000
   1030      13.5932      0.00000
   1031      13.5705      0.00000
   1032      13.5831      0.00000
   1033      13.6020      0.00000
   1034      13.6816      0.00000
   1035      13.6300      0.00000
   1036      13.6345      0.00000
   1037      13.6423      0.00000
   1038      13.6399      0.00000
   1039      13.6413      0.00000
   1040      13.7221      0.00000
   1041      13.6949      0.00000
   1042      13.8928      0.00000
   1043      13.6874      0.00000
   1044      13.7794      0.00000
   1045      13.7209      0.00000
   1046      13.9969      0.00000
   1047      13.8125      0.00000
   1048      13.7409      0.00000
   1049      13.8035      0.00000
   1050      13.7801      0.00000
   1051      13.8725      0.00000
   1052      13.9266      0.00000
   1053      13.8580      0.00000
   1054      13.7096      0.00000
   1055      13.9821      0.00000
   1056      13.9028      0.00000
   1057      14.0741      0.00000
   1058      14.1354      0.00000
   1059      14.1362      0.00000
   1060      14.1709      0.00000
   1061      14.1750      0.00000
   1062      14.1802      0.00000
   1063      14.1817      0.00000
   1064      14.1951      0.00000
   1065      14.1907      0.00000
   1066      14.2070      0.00000
   1067      14.2087      0.00000
   1068      14.2087      0.00000
   1069      14.2138      0.00000
   1070      14.2198      0.00000
   1071      14.2261      0.00000
   1072      14.2360      0.00000
   1073      14.2454      0.00000
   1074      14.2508      0.00000
   1075      14.0020      0.00000
   1076      14.1175      0.00000
   1077      14.1209      0.00000
   1078      14.1249      0.00000
   1079      14.1307      0.00000
   1080      14.1343      0.00000
   1081      14.1342      0.00000
   1082      14.1603      0.00000
   1083      14.1603      0.00000
   1084      14.1821      0.00000
   1085      14.1880      0.00000
   1086      14.1864      0.00000
   1087      14.1920      0.00000
   1088      14.1968      0.00000
   1089      14.1954      0.00000
   1090      14.2113      0.00000
   1091      14.2104      0.00000
   1092      14.2110      0.00000
   1093      14.2125      0.00000
   1094      14.2272      0.00000
   1095      14.2307      0.00000
   1096      14.2408      0.00000
   1097      14.2488      0.00000
   1098      14.2570      0.00000
   1099      14.7538      0.00000
   1100      14.7539      0.00000
   1101      14.8227      0.00000
   1102      14.8289      0.00000
   1103      14.8334      0.00000
   1104      14.9026      0.00000
   1105      14.9067      0.00000
   1106      14.9013      0.00000
   1107      14.9156      0.00000
   1108      14.9116      0.00000
   1109      14.9182      0.00000
   1110      14.9150      0.00000
   1111      14.9184      0.00000
   1112      14.9153      0.00000
   1113      14.9222      0.00000
   1114      14.9463      0.00000
   1115      14.9434      0.00000
   1116      14.9433      0.00000
   1117      14.9342      0.00000
   1118      14.9384      0.00000
   1119      14.9401      0.00000
   1120      14.9442      0.00000
   1121      14.9447      0.00000
   1122      14.9822      0.00000
   1123      14.7642      0.00000
   1124      14.7672      0.00000
   1125      14.8293      0.00000
   1126      14.8342      0.00000
   1127      14.8360      0.00000
   1128      14.9060      0.00000
   1129      14.9062      0.00000
   1130      14.9104      0.00000
   1131      14.9178      0.00000
   1132      14.9179      0.00000
   1133      14.9200      0.00000
   1134      14.9174      0.00000
   1135      14.9240      0.00000
   1136      14.9253      0.00000
   1137      14.9365      0.00000
   1138      14.9453      0.00000
   1139      14.9457      0.00000
   1140      14.9492      0.00000
   1141      14.9459      0.00000
   1142      14.9541      0.00000
   1143      14.9609      0.00000
   1144      14.9691      0.00000
   1145      14.9796      0.00000
   1146      14.9921      0.00000
   1147      15.7060      0.00000
   1148      15.7234      0.00000
   1149      15.7472      0.00000
   1150      15.9017      0.00000
   1151      15.9104      0.00000
   1152      15.9247      0.00000


--------------------------------------------------------------------------------------------------------


 soft charge-density along one line, spin component           1
         0         1         2         3         4         5         6         7         8         9
 total charge-density along one line

 soft charge-density along one line, spin component           2
         0         1         2         3         4         5         6         7         8         9
 total charge-density along one line

 soft charge-density along one line, spin component           3
         0         1         2         3         4         5         6         7         8         9
 total charge-density along one line

 soft charge-density along one line, spin component           4
         0         1         2         3         4         5         6         7         8         9
 total charge-density along one line

 pseudopotential strength for first ion, spin component:           1
-16.620  -0.000   0.000  -0.000   0.002   0.000  -0.000   0.000   0.000   0.277 -16.722   0.000   0.000  -0.000   0.002   0.000
  0.000   0.000 -16.620  -0.000  -0.001  -0.000  -0.000   0.139   0.002   0.000   0.000   0.000 -16.722   0.000  -0.001  -0.000
  0.002  -0.000  -0.001   0.000 -16.624   0.000   0.001   0.000  -0.000   0.000   0.002  -0.000  -0.001   0.000 -16.726  -0.000
 -0.000  -0.000  -0.000  -0.139   0.001  -0.000 -16.620   0.000   0.002  -0.000  -0.000  -0.000  -0.000  -0.133   0.001  -0.000
  0.000  -0.277   0.002  -0.000  -0.000  -0.000   0.002   0.000 -16.624  -0.000   0.000  -0.266   0.002  -0.000  -0.000  -0.000
-16.722  -0.000   0.000  -0.000   0.002   0.000  -0.000   0.000   0.000   0.266 -16.801  -0.000   0.000  -0.000   0.002   0.000
  0.000   0.000 -16.722  -0.000  -0.001  -0.000  -0.000   0.133   0.002   0.000   0.000   0.000 -16.801  -0.000  -0.001  -0.000
  0.002  -0.000  -0.001   0.000 -16.726   0.000   0.001   0.000  -0.000   0.000   0.002  -0.000  -0.001   0.000 -16.805   0.000
 -0.000  -0.000  -0.000  -0.133   0.001  -0.000 -16.722   0.000   0.002  -0.000  -0.000  -0.000  -0.000  -0.128   0.001  -0.000
  0.000  -0.266   0.002  -0.000  -0.000  -0.000   0.002   0.000 -16.725  -0.000   0.000  -0.255   0.002  -0.000  -0.000  -0.000
 -0.002   0.000  -0.002   0.000   0.000   0.000   0.002   0.000  -0.000   0.000  -0.002   0.000  -0.002   0.000   0.000   0.000
 -0.003   0.000  -0.003   0.000   0.000   0.000   0.003   0.000  -0.000   0.000  -0.003   0.000  -0.003   0.000   0.000   0.000
 -0.001  -0.000  -0.001  -0.000  -0.000  -0.000   0.001   0.000  -0.001   0.000  -0.001  -0.000  -0.001  -0.000  -0.000  -0.000
  0.001  -0.000   0.001  -0.000  -0.001   0.000  -0.001  -0.000  -0.000   0.000   0.001  -0.000   0.001  -0.000  -0.001   0.000
  0.001  -0.000   0.001  -0.000   0.000   0.000  -0.001   0.000  -0.001  -0.000   0.001  -0.000   0.001  -0.000   0.000   0.000
 -0.001  -0.000  -0.001  -0.000  -0.000  -0.000   0.000   0.000  -0.000   0.000  -0.000  -0.000  -0.000  -0.000  -0.000  -0.000
  0.000  -0.000   0.001  -0.000  -0.001   0.000  -0.001  -0.000  -0.000   0.000   0.000  -0.000   0.001  -0.000  -0.001   0.000
  0.001  -0.000   0.000  -0.000   0.000   0.000  -0.001   0.000  -0.000  -0.000   0.000  -0.000   0.000  -0.000   0.000   0.000
 pseudopotential strength for first ion, spin component:           2
 -0.003   0.003   0.139   0.000  -0.000  -0.000   0.000  -0.139  -0.000  -0.000  -0.003   0.003   0.133   0.000  -0.000  -0.000
 -0.139   0.000  -0.003   0.003  -0.000  -0.240   0.000  -0.000   0.000  -0.139  -0.133   0.000  -0.003   0.003  -0.000  -0.230
  0.000   0.000   0.000   0.240  -0.003   0.003  -0.240  -0.000  -0.000   0.000   0.000   0.000   0.000   0.230  -0.003   0.003
  0.000   0.139   0.000  -0.000   0.240   0.000  -0.003   0.003  -0.139   0.000   0.000   0.133   0.000  -0.000   0.230   0.000
 -0.000  -0.000  -0.000   0.139   0.000  -0.000   0.139  -0.000  -0.003   0.003  -0.000  -0.000  -0.000   0.133   0.000  -0.000
 -0.003   0.003   0.133   0.000  -0.000  -0.000   0.000  -0.133  -0.000  -0.000  -0.003   0.003   0.128   0.000  -0.000  -0.000
 -0.133   0.000  -0.003   0.003  -0.000  -0.230   0.000  -0.000   0.000  -0.133  -0.128   0.000  -0.003   0.003  -0.000  -0.221
  0.000   0.000   0.000   0.230  -0.003   0.003  -0.230  -0.000  -0.000   0.000   0.000   0.000   0.000   0.221  -0.003   0.003
  0.000   0.133   0.000  -0.000   0.230   0.000  -0.003   0.003  -0.133   0.000   0.000   0.128   0.000  -0.000   0.221   0.000
 -0.000  -0.000  -0.000   0.133   0.000  -0.000   0.133  -0.000  -0.003   0.003  -0.000  -0.000  -0.000   0.128   0.000  -0.000
  0.000  -0.000   0.000  -0.000  -0.000  -0.000  -0.000   0.000   0.000  -0.000   0.000  -0.000   0.000  -0.000  -0.000  -0.000
  0.000  -0.000   0.000  -0.000  -0.000  -0.000  -0.000   0.000   0.000  -0.000   0.000  -0.000   0.000  -0.000  -0.000  -0.000
 -0.000   0.000  -0.000   0.000  -0.000  -0.000   0.000  -0.000   0.000  -0.000  -0.000   0.000  -0.000   0.000  -0.000  -0.000
  0.000  -0.000   0.000   0.000   0.000  -0.000  -0.000  -0.000   0.000   0.000   0.000  -0.000   0.000   0.000   0.000  -0.000
 -0.000   0.000   0.000  -0.000  -0.000  -0.000   0.000   0.000   0.000  -0.000  -0.000   0.000   0.000  -0.000  -0.000  -0.000
 -0.000   0.000  -0.000   0.000  -0.000  -0.000   0.000  -0.000   0.000  -0.000  -0.000   0.000  -0.000   0.000  -0.000  -0.000
  0.000  -0.000   0.000   0.000   0.000  -0.000  -0.000  -0.000   0.000   0.000   0.000  -0.000   0.000   0.000   0.000  -0.000
 -0.000   0.000   0.000  -0.000  -0.000  -0.000   0.000   0.000   0.000  -0.000  -0.000   0.000   0.000  -0.000  -0.000  -0.000
 pseudopotential strength for first ion, spin component:           3
 -0.003  -0.003  -0.139  -0.000   0.000  -0.000   0.000  -0.139  -0.000   0.000  -0.003  -0.003  -0.133  -0.000   0.000  -0.000
  0.139  -0.000  -0.003  -0.003   0.000  -0.240   0.000   0.000  -0.000  -0.139   0.133  -0.000  -0.003  -0.003   0.000  -0.230
 -0.000   0.000  -0.000   0.240  -0.003  -0.003   0.240  -0.000   0.000   0.000  -0.000   0.000  -0.000   0.230  -0.003  -0.003
  0.000   0.139   0.000   0.000  -0.240   0.000  -0.003  -0.003   0.139   0.000   0.000   0.133   0.000   0.000  -0.230   0.000
 -0.000   0.000   0.000   0.139  -0.000  -0.000  -0.139  -0.000  -0.003  -0.003  -0.000   0.000   0.000   0.133  -0.000  -0.000
 -0.003  -0.003  -0.133  -0.000   0.000  -0.000   0.000  -0.133  -0.000   0.000  -0.003  -0.003  -0.128  -0.000   0.000  -0.000
  0.133  -0.000  -0.003  -0.003   0.000  -0.230   0.000   0.000  -0.000  -0.133   0.128  -0.000  -0.003  -0.003   0.000  -0.221
 -0.000   0.000  -0.000   0.230  -0.003  -0.003   0.230  -0.000   0.000   0.000  -0.000   0.000  -0.000   0.221  -0.003  -0.003
  0.000   0.133   0.000   0.000  -0.230   0.000  -0.003  -0.003   0.133   0.000   0.000   0.128   0.000   0.000  -0.221   0.000
 -0.000   0.000   0.000   0.133  -0.000  -0.000  -0.133  -0.000  -0.003  -0.003  -0.000   0.000   0.000   0.128  -0.000  -0.000
  0.000   0.000  -0.000   0.000   0.000  -0.000  -0.000  -0.000  -0.000  -0.000   0.000  -0.000  -0.000   0.000   0.000  -0.000
  0.000   0.000  -0.000   0.000   0.000  -0.000  -0.000  -0.000  -0.000  -0.000   0.000  -0.000  -0.000   0.000   0.000  -0.000
  0.000   0.000  -0.000  -0.000   0.000   0.000   0.000   0.000   0.000   0.000   0.000   0.000  -0.000  -0.000   0.000   0.000
  0.000   0.000  -0.000   0.000   0.000   0.000  -0.000  -0.000   0.000   0.000   0.000   0.000  -0.000   0.000   0.000   0.000
  0.000   0.000   0.000   0.000  -0.000  -0.000  -0.000  -0.000   0.000  -0.000   0.000   0.000   0.000   0.000  -0.000  -0.000
  0.000   0.000  -0.000  -0.000   0.000   0.000   0.000   0.000   0.000   0.000   0.000   0.000  -0.000  -0.000   0.000   0.000
  0.000   0.000  -0.000   0.000   0.000   0.000  -0.000  -0.000   0.000   0.000   0.000   0.000  -0.000   0.000   0.000   0.000
  0.000   0.000   0.000   0.000  -0.000  -0.000  -0.000  -0.000   0.000  -0.000   0.000   0.000   0.000   0.000  -0.000  -0.000
 pseudopotential strength for first ion, spin component:           4
-16.613  -0.000   0.000  -0.000   0.002  -0.000  -0.000  -0.000   0.000  -0.277 -16.715   0.000   0.000  -0.000   0.002  -0.000
  0.000   0.000 -16.613  -0.000  -0.001   0.000  -0.000  -0.139   0.002  -0.000   0.000   0.000 -16.715  -0.000  -0.001   0.000
  0.002   0.000  -0.001  -0.000 -16.617   0.000   0.001  -0.000   0.000  -0.000   0.002   0.000  -0.001  -0.000 -16.719  -0.000
 -0.000   0.000  -0.000   0.139   0.001   0.000 -16.613   0.000   0.002   0.000  -0.000   0.000  -0.000   0.133   0.001   0.000
  0.000   0.277   0.002   0.000   0.000   0.000   0.002  -0.000 -16.617  -0.000   0.000   0.266   0.002   0.000   0.000   0.000
-16.715  -0.000   0.000  -0.000   0.002  -0.000  -0.000  -0.000   0.000  -0.266 -16.795  -0.000   0.000  -0.000   0.002  -0.000
  0.000   0.000 -16.715   0.000  -0.001   0.000  -0.000  -0.133   0.002  -0.000   0.000   0.000 -16.795  -0.000  -0.001   0.000
  0.002   0.000  -0.001  -0.000 -16.719   0.000   0.001  -0.000   0.000  -0.000   0.002   0.000  -0.001  -0.000 -16.799   0.000
 -0.000   0.000  -0.000   0.133   0.001   0.000 -16.715  -0.000   0.002   0.000  -0.000   0.000  -0.000   0.128   0.001   0.000
  0.000   0.266   0.002   0.000   0.000   0.000   0.002  -0.000 -16.719  -0.000   0.000   0.255   0.002   0.000   0.000   0.000
 -0.002   0.000  -0.002  -0.000  -0.000   0.000   0.002  -0.000   0.000  -0.000  -0.002   0.000  -0.002  -0.000  -0.000   0.000
 -0.003   0.000  -0.003  -0.000  -0.000   0.000   0.003  -0.000   0.000  -0.000  -0.003   0.000  -0.003  -0.000  -0.000   0.000
 -0.001   0.000  -0.001   0.000  -0.000  -0.000   0.001  -0.000  -0.001  -0.000  -0.001   0.000  -0.001   0.000  -0.000  -0.000
  0.001   0.000   0.001   0.000  -0.001   0.000  -0.001   0.000   0.000  -0.000   0.001   0.000   0.001   0.000  -0.001   0.000
  0.001  -0.000   0.001   0.000   0.000   0.000  -0.001  -0.000  -0.001   0.000   0.001  -0.000   0.001   0.000   0.000   0.000
 -0.000   0.000  -0.001   0.000  -0.000  -0.000   0.000  -0.000  -0.000  -0.000  -0.000   0.000  -0.000   0.000  -0.000  -0.000
  0.000   0.000   0.000   0.000  -0.001   0.000  -0.001   0.000   0.000  -0.000   0.000   0.000   0.000   0.000  -0.001   0.000
  0.001  -0.000   0.000   0.000   0.000   0.000  -0.000  -0.000  -0.000   0.000   0.000  -0.000   0.000   0.000   0.000   0.000
 total augmentation occupancy for first ion, spin component:           1
  4.851   0.264   0.057  -0.263   0.000  -2.519  -0.284  -0.069   0.284   0.000   0.432  -0.145   0.023   0.483  -0.023  -0.010
  0.264   4.852  -0.028  -0.263   0.049  -0.284  -2.519   0.035   0.284  -0.060   0.431  -0.145   0.023  -0.023   0.483  -0.010
  0.057  -0.028   3.080   0.029  -0.000  -0.069   0.035  -0.815  -0.035   0.000   0.000  -0.000   0.007   0.015  -0.007  -0.005
 -0.263  -0.263   0.029   4.851   0.050   0.284   0.284  -0.035  -2.518  -0.060  -0.432   0.145   0.483   0.023   0.023  -0.105
  0.000   0.049  -0.000   0.050   3.081  -0.000  -0.060   0.000  -0.061  -0.815  -0.000  -0.000   0.013  -0.000   0.013  -0.009
 -2.519  -0.284  -0.069   0.284  -0.000   2.193   0.302   0.081  -0.302  -0.000  -0.436   0.157  -0.017  -0.456   0.017   0.004
 -0.284  -2.519   0.035   0.284  -0.060   0.302   2.193  -0.040  -0.302   0.070  -0.435   0.157  -0.017   0.017  -0.456   0.004
 -0.069   0.035  -0.815  -0.035   0.000   0.081  -0.040   0.555   0.041  -0.000  -0.000   0.000  -0.004  -0.008   0.004   0.002
  0.284   0.284  -0.035  -2.518  -0.061  -0.302  -0.302   0.041   2.193   0.071   0.436  -0.158  -0.456  -0.017  -0.017   0.107
  0.000  -0.060   0.000  -0.060  -0.815  -0.000   0.070  -0.000   0.071   0.555  -0.000   0.000  -0.007   0.000  -0.007   0.003
  0.432   0.431   0.000  -0.432  -0.000  -0.436  -0.435  -0.000   0.436  -0.000   4.981  -1.848   0.003  -0.002  -0.003  -0.004
 -0.145  -0.145  -0.000   0.145  -0.000   0.157   0.157   0.000  -0.158   0.000  -1.848   0.706  -0.006   0.006   0.006   0.002
  0.023   0.023   0.007   0.483   0.013  -0.017  -0.017  -0.004  -0.456  -0.007   0.003  -0.006   0.222  -0.028  -0.028  -0.053
  0.483  -0.023   0.015   0.023  -0.000  -0.456   0.017  -0.008  -0.017   0.000  -0.002   0.006  -0.028   0.222   0.028   0.007
 -0.023   0.483  -0.007   0.023   0.013   0.017  -0.456   0.004  -0.017  -0.007  -0.003   0.006  -0.028   0.028   0.222   0.007
 -0.010  -0.010  -0.005  -0.105  -0.009   0.004   0.004   0.002   0.107   0.003  -0.004   0.002  -0.053   0.007   0.007   0.014
 -0.105   0.010  -0.010  -0.010   0.000   0.107  -0.004   0.003   0.004  -0.000   0.004  -0.002   0.007  -0.053  -0.007  -0.002
  0.010  -0.105   0.005  -0.010  -0.009  -0.004   0.107  -0.002   0.004   0.003   0.004  -0.003   0.007  -0.007  -0.053  -0.002
 total augmentation occupancy for first ion, spin component:           2
  0.060   0.010  -0.001  -0.010   0.000  -0.042  -0.009   0.001   0.009  -0.001   0.002  -0.002  -0.000   0.002   0.000  -0.000
  0.010   0.061   0.001  -0.011  -0.001  -0.009  -0.042  -0.001   0.009   0.001   0.002  -0.002  -0.000   0.000   0.002   0.000
 -0.001   0.001   0.030  -0.001   0.000   0.001  -0.001  -0.014   0.000  -0.000   0.000   0.000   0.000  -0.000   0.000  -0.000
 -0.010  -0.011  -0.001   0.062  -0.001   0.009   0.010   0.001  -0.044   0.001  -0.002   0.002   0.002  -0.000  -0.000  -0.002
  0.000  -0.001   0.000  -0.001   0.030   0.001   0.001  -0.000   0.001  -0.014   0.000  -0.000  -0.000  -0.000  -0.000  -0.000
 -0.042  -0.009   0.001   0.009   0.001   0.024   0.008  -0.001  -0.008  -0.000  -0.001   0.001   0.000  -0.002  -0.000   0.000
 -0.009  -0.042  -0.001   0.010   0.001   0.008   0.025   0.001  -0.009  -0.000  -0.001   0.001   0.000  -0.000  -0.002  -0.000
  0.001  -0.001  -0.014   0.001  -0.000  -0.001   0.001  -0.002  -0.000   0.000  -0.000  -0.000   0.000   0.000  -0.000   0.000
  0.009   0.009   0.000  -0.044   0.001  -0.008  -0.009  -0.000   0.026  -0.001   0.002  -0.001  -0.002   0.000   0.000   0.002
 -0.001   0.001  -0.000   0.001  -0.014  -0.000  -0.000   0.000  -0.001  -0.002  -0.000   0.000   0.000  -0.000   0.000   0.000
  0.002   0.002   0.000  -0.002   0.000  -0.001  -0.001  -0.000   0.002  -0.000  -0.014  -0.001  -0.001   0.001   0.001   0.000
 -0.002  -0.002   0.000   0.002  -0.000   0.001   0.001  -0.000  -0.001   0.000  -0.001   0.002   0.000  -0.000  -0.000  -0.000
 -0.000  -0.000   0.000   0.002  -0.000   0.000   0.000   0.000  -0.002   0.000  -0.001   0.000  -0.001  -0.000  -0.000  -0.000
  0.002   0.000  -0.000  -0.000  -0.000  -0.002  -0.000   0.000   0.000  -0.000   0.001  -0.000  -0.000  -0.001   0.000   0.000
  0.000   0.002   0.000  -0.000  -0.000  -0.000  -0.002  -0.000   0.000   0.000   0.001  -0.000  -0.000   0.000  -0.001   0.000
 -0.000   0.000  -0.000  -0.002  -0.000   0.000  -0.000   0.000   0.002   0.000   0.000  -0.000  -0.000   0.000   0.000   0.000
 -0.002   0.000   0.000  -0.000   0.000   0.002  -0.000  -0.000  -0.000  -0.000  -0.000   0.000   0.000  -0.000   0.000  -0.000
 -0.000  -0.002   0.000  -0.000  -0.000   0.000   0.002  -0.000   0.000   0.000  -0.000   0.000  -0.000  -0.000  -0.000  -0.000
 total augmentation occupancy for first ion, spin component:           3
  0.062   0.011  -0.001  -0.010  -0.001  -0.043  -0.010   0.001   0.009   0.001   0.002  -0.002  -0.000   0.002   0.000  -0.000
  0.011   0.062   0.000  -0.010  -0.001  -0.010  -0.043   0.000   0.009   0.002   0.002  -0.002  -0.000   0.000   0.002  -0.000
 -0.001   0.000   0.031  -0.000  -0.000   0.001  -0.001  -0.014   0.000   0.000   0.000  -0.000  -0.000  -0.000   0.000   0.000
 -0.010  -0.010  -0.000   0.059  -0.001   0.009   0.008   0.000  -0.041   0.001  -0.001   0.001   0.002  -0.000  -0.000  -0.002
 -0.001  -0.001  -0.000  -0.001   0.030  -0.000   0.001   0.000   0.001  -0.014   0.000  -0.000  -0.000   0.000  -0.000   0.000
 -0.043  -0.010   0.001   0.009  -0.000   0.026   0.009  -0.001  -0.008  -0.000  -0.002   0.001   0.000  -0.002  -0.000   0.000
 -0.010  -0.043  -0.001   0.008   0.001   0.009   0.026   0.000  -0.008  -0.001  -0.001   0.001   0.000  -0.000  -0.002   0.000
  0.001   0.000  -0.014   0.000   0.000  -0.001   0.000  -0.002  -0.000  -0.000  -0.000   0.000   0.000   0.000  -0.000  -0.000
  0.009   0.009   0.000  -0.041   0.001  -0.008  -0.008  -0.000   0.023  -0.001   0.001  -0.001  -0.002   0.000   0.000   0.002
  0.001   0.002   0.000   0.001  -0.014  -0.000  -0.001  -0.000  -0.001  -0.002  -0.000   0.000   0.000   0.000   0.000  -0.000
  0.002   0.002   0.000  -0.001   0.000  -0.002  -0.001  -0.000   0.001  -0.000  -0.014  -0.001  -0.001   0.001   0.000   0.000
 -0.002  -0.002  -0.000   0.001  -0.000   0.001   0.001   0.000  -0.001   0.000  -0.001   0.002   0.000  -0.000  -0.000  -0.000
 -0.000  -0.000  -0.000   0.002  -0.000   0.000   0.000   0.000  -0.002   0.000  -0.001   0.000  -0.001  -0.000  -0.000  -0.000
  0.002   0.000  -0.000  -0.000   0.000  -0.002  -0.000   0.000   0.000   0.000   0.001  -0.000  -0.000  -0.001   0.000  -0.000
  0.000   0.002   0.000  -0.000  -0.000  -0.000  -0.002  -0.000   0.000   0.000   0.000  -0.000  -0.000   0.000  -0.001  -0.000
 -0.000  -0.000   0.000  -0.002   0.000   0.000   0.000  -0.000   0.002  -0.000   0.000  -0.000  -0.000  -0.000  -0.000   0.000
 -0.002   0.000  -0.000   0.000  -0.000   0.002  -0.000   0.000  -0.000   0.000  -0.000   0.000   0.000  -0.000  -0.000  -0.000
  0.000  -0.002  -0.000  -0.000  -0.000  -0.000   0.001   0.000  -0.000   0.000  -0.000   0.000   0.000  -0.000  -0.000   0.000
 total augmentation occupancy for first ion, spin component:           4
  0.061   0.010  -0.001  -0.011   0.000  -0.042  -0.009   0.001   0.010  -0.000   0.002  -0.002  -0.000   0.002   0.000   0.000
  0.010   0.060   0.000  -0.010  -0.001  -0.009  -0.041  -0.001   0.009   0.000   0.001  -0.002  -0.000   0.000   0.002  -0.000
 -0.001   0.000   0.030  -0.001  -0.000   0.001   0.000  -0.014   0.001   0.000   0.000  -0.000  -0.000  -0.000   0.000   0.000
 -0.011  -0.010  -0.001   0.062  -0.001   0.010   0.009   0.000  -0.043   0.001  -0.002   0.002   0.002  -0.000  -0.000  -0.002
  0.000  -0.001  -0.000  -0.001   0.031  -0.000   0.001   0.000   0.001  -0.014   0.000   0.000   0.000  -0.000  -0.000  -0.000
 -0.042  -0.009   0.001   0.010  -0.000   0.025   0.008  -0.001  -0.009   0.000  -0.002   0.001   0.000  -0.002  -0.000  -0.000
 -0.009  -0.041   0.000   0.009   0.001   0.008   0.024   0.000  -0.008  -0.001  -0.001   0.001   0.000  -0.000  -0.002   0.000
  0.001  -0.001  -0.014   0.000   0.000  -0.001   0.000  -0.002  -0.001  -0.000  -0.000   0.000   0.000   0.000  -0.000  -0.000
  0.010   0.009   0.001  -0.043   0.001  -0.009  -0.008  -0.001   0.025  -0.001   0.002  -0.001  -0.002   0.000   0.000   0.002
 -0.000   0.000   0.000   0.001  -0.014   0.000  -0.001  -0.000  -0.001  -0.002  -0.000   0.000   0.000  -0.000   0.000   0.000
  0.002   0.001   0.000  -0.002   0.000  -0.002  -0.001  -0.000   0.002  -0.000  -0.014  -0.001  -0.001   0.001   0.001   0.000
 -0.002  -0.002  -0.000   0.002   0.000   0.001   0.001   0.000  -0.001   0.000  -0.001   0.002   0.000  -0.000  -0.000  -0.000
 -0.000  -0.000  -0.000   0.002   0.000   0.000   0.000   0.000  -0.002   0.000  -0.001   0.000  -0.001  -0.000  -0.000  -0.000
  0.002   0.000  -0.000  -0.000  -0.000  -0.002  -0.000   0.000   0.000  -0.000   0.001  -0.000  -0.000  -0.001   0.000   0.000
  0.000   0.002   0.000  -0.000  -0.000  -0.000  -0.002  -0.000   0.000   0.000   0.001  -0.000  -0.000   0.000  -0.001   0.000
  0.000  -0.000   0.000  -0.002  -0.000  -0.000   0.000  -0.000   0.002   0.000   0.000  -0.000  -0.000   0.000   0.000   0.000
 -0.002  -0.000  -0.000  -0.000   0.000   0.002   0.000   0.000   0.000  -0.000  -0.000   0.000  -0.000  -0.000  -0.000  -0.000
  0.000  -0.002   0.000  -0.000   0.000  -0.000   0.002  -0.000  -0.000  -0.000  -0.000   0.000   0.000   0.000  -0.000  -0.000


------------------------ aborting loop EDIFF was not reached (unconverged)  ----------------------------


 -----------------------------------------------------------------------------
|                                                                             |
|           W    W    AA    RRRRR   N    N  II  N    N   GGGG   !!!           |
|           W    W   A  A   R    R  NN   N  II  NN   N  G    G  !!!           |
|           W    W  A    A  R    R  N N  N  II  N N  N  G       !!!           |
|           W WW W  AAAAAA  RRRRR   N  N N  II  N  N N  G  GGG   !            |
|           WW  WW  A    A  R   R   N   NN  II  N   NN  G    G                |
|           W    W  A    A  R    R  N    N  II  N    N   GGGG   !!!           |
|                                                                             |
|     The electronic self-consistency was not achieved in the given           |
|     number of steps (NELM). The forces and other quantities evaluated       |
|     might not be reliable so examine the results carefully. If you find     |
|     spurious results, we suggest increasing NELM, if you were close to      |
|     convergence or switching to a different ALGO or adjusting the           |
|     density mixing parameters otherwise.                                    |
|                                                                             |
 -----------------------------------------------------------------------------




 total charge

# of ion       s       p       d       tot
------------------------------------------
    1        0.411   0.280   9.581  10.273
    2        0.420   0.293   9.581  10.294
    3        0.420   0.293   9.581  10.294
    4        0.419   0.294   9.581  10.294
    5        0.420   0.293   9.581  10.294
    6        0.419   0.294   9.581  10.294
    7        0.419   0.294   9.581  10.294
    8        0.418   0.291   9.581  10.290
    9        0.420   0.293   9.581  10.294
   10        0.411   0.280   9.581  10.273
   11        0.419   0.294   9.581  10.294
   12        0.420   0.293   9.581  10.294
   13        0.419   0.294   9.581  10.294
   14        0.420   0.293   9.581  10.294
   15        0.418   0.291   9.581  10.290
   16        0.419   0.294   9.581  10.294
   17        0.419   0.294   9.581  10.294
   18        0.420   0.293   9.581  10.294
   19        0.418   0.291   9.581  10.290
   20        0.419   0.294   9.581  10.294
   21        0.420   0.293   9.581  10.294
   22        0.411   0.280   9.581  10.273
   23        0.419   0.294   9.581  10.294
   24        0.420   0.293   9.581  10.294
   25        0.420   0.293   9.581  10.294
   26        0.419   0.294   9.581  10.294
   27        0.419   0.294   9.581  10.294
   28        0.418   0.291   9.581  10.290
   29        0.411   0.280   9.581  10.273
   30        0.420   0.293   9.581  10.294
   31        0.420   0.293   9.581  10.294
   32        0.419   0.294   9.581  10.294
   33        0.733   0.156   9.553  10.442
   34        1.295   2.225   0.017   3.537
   35        1.306   2.198   0.017   3.521
   36        1.295   2.223   0.016   3.534
   37        1.295   2.225   0.017   3.537
   38        1.295   2.225   0.017   3.537
   39        1.306   2.198   0.017   3.521
   40        1.295   2.223   0.016   3.534
   41        1.295   2.225   0.017   3.537
   42        1.294   2.221   0.016   3.532
   43        1.295   2.222   0.017   3.533
   44        1.295   2.222   0.017   3.533
   45        1.294   2.221   0.016   3.532
   46        1.295   2.222   0.017   3.533
   47        1.294   2.221   0.016   3.532
   48        1.294   2.221   0.016   3.532
   49        1.295   2.222   0.017   3.533
   50        1.295   2.225   0.017   3.537
   51        1.295   2.225   0.017   3.537
   52        1.295   2.223   0.016   3.534
   53        1.295   2.223   0.016   3.534
   54        1.306   2.198   0.017   3.521
   55        1.306   2.198   0.017   3.521
   56        1.295   2.225   0.017   3.537
   57        1.295   2.225   0.017   3.537
   58        1.295   2.223   0.016   3.534
   59        1.295   2.225   0.017   3.537
   60        1.295   2.223   0.016   3.534
   61        1.295   2.225   0.017   3.537
   62        1.295   2.225   0.017   3.537
   63        1.306   2.198   0.017   3.521
   64        1.295   2.225   0.017   3.537
   65        1.306   2.198   0.017   3.521
--------------------------------------------------
tot         55.618  80.481 316.678 452.776



 magnetization (x)

# of ion       s       p       d       tot
------------------------------------------
    1       -0.005  -0.004   0.003  -0.006
    2       -0.005  -0.003   0.003  -0.005
    3       -0.004  -0.003   0.003  -0.005
    4       -0.004  -0.003   0.003  -0.005
    5       -0.004  -0.003   0.003  -0.005
    6       -0.004  -0.003   0.003  -0.005
    7       -0.004  -0.003   0.003  -0.005
    8       -0.004  -0.003   0.003  -0.005
    9       -0.004  -0.003   0.003  -0.005
   10       -0.005  -0.004   0.003  -0.006
   11       -0.004  -0.003   0.003  -0.005
   12       -0.005  -0.003   0.003  -0.005
   13       -0.004  -0.003   0.003  -0.005
   14       -0.004  -0.003   0.003  -0.005
   15       -0.004  -0.003   0.003  -0.005
   16       -0.004  -0.003   0.003  -0.005
   17       -0.004  -0.003   0.003  -0.005
   18       -0.004  -0.003   0.003  -0.005
   19       -0.004  -0.003   0.003  -0.005
   20       -0.004  -0.003   0.003  -0.005
   21       -0.005  -0.003   0.003  -0.005
   22       -0.005  -0.004   0.003  -0.006
   23       -0.004  -0.003   0.003  -0.005
   24       -0.005  -0.003   0.003  -0.005
   25       -0.005  -0.003   0.003  -0.005
   26       -0.004  -0.003   0.003  -0.005
   27       -0.004  -0.003   0.003  -0.005
   28       -0.004  -0.003   0.003  -0.005
   29       -0.005  -0.004   0.003  -0.006
   30       -0.004  -0.003   0.003  -0.005
   31       -0.004  -0.003   0.003  -0.005
   32       -0.004  -0.003   0.003  -0.005
   33        0.016  -0.003   0.002   0.015
   34        0.007   0.022  -0.000   0.029
   35        0.007   0.025  -0.000   0.032
   36        0.007   0.022  -0.000   0.029
   37        0.007   0.022  -0.000   0.029
   38        0.007   0.022  -0.000   0.029
   39        0.007   0.025  -0.000   0.032
   40        0.007   0.022  -0.000   0.029
   41        0.007   0.022  -0.000   0.029
   42        0.007   0.022  -0.000   0.029
   43        0.008   0.022  -0.000   0.030
   44        0.008   0.022  -0.000   0.030
   45        0.007   0.022  -0.000   0.029
   46        0.008   0.022  -0.000   0.030
   47        0.007   0.022  -0.000   0.029
   48        0.007   0.022  -0.000   0.029
   49        0.007   0.022  -0.000   0.030
   50        0.007   0.022  -0.000   0.029
   51        0.007   0.022  -0.000   0.029
   52        0.007   0.022  -0.000   0.029
   53        0.007   0.022  -0.000   0.029
   54        0.007   0.025  -0.000   0.032
   55        0.007   0.025  -0.000   0.032
   56        0.007   0.022  -0.000   0.029
   57        0.007   0.022  -0.000   0.029
   58        0.007   0.022  -0.000   0.029
   59        0.007   0.022  -0.000   0.029
   60        0.007   0.022  -0.000   0.029
   61        0.007   0.022  -0.000   0.029
   62        0.007   0.022  -0.000   0.029
   63        0.007   0.025  -0.000   0.032
   64        0.007   0.022  -0.000   0.029
   65        0.007   0.025  -0.000   0.032
--------------------------------------------------
tot          0.107   0.619   0.081   0.807



 magnetization (y)

# of ion       s       p       d       tot
------------------------------------------
    1       -0.005  -0.004   0.003  -0.006
    2       -0.004  -0.003   0.003  -0.005
    3       -0.005  -0.003   0.003  -0.005
    4       -0.004  -0.003   0.003  -0.005
    5       -0.004  -0.003   0.003  -0.005
    6       -0.004  -0.003   0.003  -0.005
    7       -0.004  -0.003   0.003  -0.005
    8       -0.004  -0.003   0.003  -0.005
    9       -0.004  -0.003   0.003  -0.005
   10       -0.005  -0.004   0.003  -0.006
   11       -0.004  -0.003   0.003  -0.005
   12       -0.004  -0.003   0.003  -0.005
   13       -0.004  -0.003   0.003  -0.005
   14       -0.005  -0.003   0.003  -0.005
   15       -0.004  -0.003   0.003  -0.005
   16       -0.004  -0.003   0.003  -0.005
   17       -0.004  -0.003   0.003  -0.005
   18       -0.005  -0.003   0.003  -0.005
   19       -0.004  -0.003   0.003  -0.005
   20       -0.004  -0.003   0.003  -0.005
   21       -0.005  -0.003   0.003  -0.005
   22       -0.005  -0.004   0.003  -0.006
   23       -0.004  -0.003   0.003  -0.005
   24       -0.004  -0.003   0.003  -0.005
   25       -0.004  -0.003   0.003  -0.005
   26       -0.004  -0.003   0.003  -0.005
   27       -0.004  -0.003   0.003  -0.005
   28       -0.004  -0.003   0.003  -0.005
   29       -0.005  -0.004   0.003  -0.006
   30       -0.004  -0.003   0.003  -0.005
   31       -0.004  -0.003   0.003  -0.005
   32       -0.004  -0.003   0.003  -0.005
   33        0.016  -0.003   0.002   0.015
   34        0.007   0.022  -0.000   0.029
   35        0.007   0.025  -0.000   0.032
   36        0.007   0.022  -0.000   0.029
   37        0.007   0.022  -0.000   0.029
   38        0.007   0.022  -0.000   0.029
   39        0.007   0.025  -0.000   0.032
   40        0.007   0.022  -0.000   0.029
   41        0.007   0.022  -0.000   0.029
   42        0.007   0.022  -0.000   0.029
   43        0.008   0.022  -0.000   0.030
   44        0.008   0.022  -0.000   0.030
   45        0.007   0.022  -0.000   0.029
   46        0.008   0.022  -0.000   0.030
   47        0.007   0.022  -0.000   0.029
   48        0.007   0.022  -0.000   0.029
   49        0.007   0.022  -0.000   0.030
   50        0.007   0.022  -0.000   0.029
   51        0.007   0.022  -0.000   0.029
   52        0.007   0.022  -0.000   0.029
   53        0.007   0.022  -0.000   0.029
   54        0.007   0.025  -0.000   0.032
   55        0.007   0.025  -0.000   0.032
   56        0.007   0.022  -0.000   0.029
   57        0.007   0.022  -0.000   0.029
   58        0.007   0.022  -0.000   0.029
   59        0.007   0.022  -0.000   0.029
   60        0.007   0.022  -0.000   0.029
   61        0.007   0.022  -0.000   0.029
   62        0.007   0.022  -0.000   0.029
   63        0.007   0.025  -0.000   0.032
   64        0.007   0.022  -0.000   0.029
   65        0.007   0.025  -0.000   0.032
--------------------------------------------------
tot          0.107   0.619   0.081   0.807



 magnetization (z)

# of ion       s       p       d       tot
------------------------------------------
    1       -0.005  -0.004   0.003  -0.006
    2       -0.004  -0.003   0.003  -0.005
    3       -0.004  -0.003   0.003  -0.005
    4       -0.004  -0.003   0.003  -0.005
    5       -0.005  -0.003   0.003  -0.005
    6       -0.004  -0.003   0.003  -0.005
    7       -0.004  -0.003   0.003  -0.005
    8       -0.004  -0.003   0.003  -0.005
    9       -0.005  -0.003   0.003  -0.005
   10       -0.005  -0.004   0.003  -0.006
   11       -0.004  -0.003   0.003  -0.005
   12       -0.004  -0.003   0.003  -0.005
   13       -0.004  -0.003   0.003  -0.005
   14       -0.004  -0.003   0.003  -0.005
   15       -0.004  -0.003   0.003  -0.005
   16       -0.004  -0.003   0.003  -0.005
   17       -0.004  -0.003   0.003  -0.005
   18       -0.005  -0.003   0.003  -0.005
   19       -0.004  -0.003   0.003  -0.005
   20       -0.004  -0.003   0.003  -0.005
   21       -0.004  -0.003   0.003  -0.005
   22       -0.005  -0.004   0.003  -0.006
   23       -0.004  -0.003   0.003  -0.005
   24       -0.005  -0.003   0.003  -0.005
   25       -0.004  -0.003   0.003  -0.005
   26       -0.004  -0.003   0.003  -0.005
   27       -0.004  -0.003   0.003  -0.005
   28       -0.004  -0.003   0.003  -0.005
   29       -0.005  -0.004   0.003  -0.006
   30       -0.004  -0.003   0.003  -0.005
   31       -0.005  -0.003   0.003  -0.005
   32       -0.004  -0.003   0.003  -0.005
   33        0.016  -0.003   0.002   0.015
   34        0.007   0.022  -0.000   0.029
   35        0.007   0.025  -0.000   0.032
   36        0.007   0.022  -0.000   0.029
   37        0.007   0.022  -0.000   0.029
   38        0.007   0.022  -0.000   0.029
   39        0.007   0.025  -0.000   0.032
   40        0.007   0.022  -0.000   0.029
   41        0.007   0.022  -0.000   0.029
   42        0.007   0.022  -0.000   0.029
   43        0.008   0.022  -0.000   0.030
   44        0.008   0.022  -0.000   0.030
   45        0.007   0.022  -0.000   0.029
   46        0.008   0.022  -0.000   0.030
   47        0.007   0.022  -0.000   0.029
   48        0.007   0.022  -0.000   0.029
   49        0.007   0.022  -0.000   0.030
   50        0.007   0.022  -0.000   0.029
   51        0.007   0.022  -0.000   0.029
   52        0.007   0.022  -0.000   0.029
   53        0.007   0.022  -0.000   0.029
   54        0.007   0.025  -0.000   0.032
   55        0.007   0.025  -0.000   0.032
   56        0.007   0.022  -0.000   0.029
   57        0.007   0.022  -0.000   0.029
   58        0.007   0.022  -0.000   0.029
   59        0.007   0.022  -0.000   0.029
   60        0.007   0.022  -0.000   0.029
   61        0.007   0.022  -0.000   0.029
   62        0.007   0.022  -0.000   0.029
   63        0.007   0.025  -0.000   0.032
   64        0.007   0.022  -0.000   0.029
   65        0.007   0.025  -0.000   0.032
--------------------------------------------------
tot          0.107   0.619   0.081   0.807

    FORLOC:  cpu time      0.0089: real time      0.0091
    FORHF :  cpu time     89.8073: real time     90.7235
    FORNL :  cpu time      2.2286: real time      2.2507
    STRESS:  cpu time      6.7103: real time      6.7787
    FORCOR:  cpu time      0.2878: real time      0.2910
    OFIELD:  cpu time      0.0086: real time      0.0092

  FORCE on cell =-STRESS in cart. coord.  units (eV):
  Direction    XX          YY          ZZ          XY          YZ          ZX
  --------------------------------------------------------------------------------------
  Alpha Z  1642.45119  1642.45119  1642.45119
  Ewald  -11313.45310-11313.46250-11313.46200    -0.00065     0.00037     0.00096
  Hartree  5669.70496  5669.69324  5669.69516    -0.00760    -0.00433    -0.00052
  E(xc)   -2178.57264 -2178.57282 -2178.57244    -0.00010    -0.00047    -0.00020
  Local    -665.04353  -665.02730  -665.02004     0.01504     0.00101     0.00096
  n-local  2099.64364  2099.64778  2099.64118     0.01945     0.02673     0.02160
  augment     3.78308     3.78237     3.78411    -0.00055    -0.00121     0.00028
  Kinetic  6662.62458  6662.62208  6662.62575    -0.00285    -0.00545    -0.00284
  Fock    -1838.05276 -1838.05232 -1838.05258    -0.00024    -0.00068    -0.00034
  -------------------------------------------------------------------------------------
  Total      83.08541    83.08172    83.09033     0.02249     0.01597     0.01990
  in kB      59.39339    59.39075    59.39691     0.01608     0.01141     0.01422
  external pressure =       59.39 kB  Pullay stress =        0.00 kB


 VOLUME and BASIS-vectors are now :
 -----------------------------------------------------------------------------
  energy-cutoff  :      450.00
  volume of cell :     2241.29
      direct lattice vectors                 reciprocal lattice vectors
    13.086768000  0.000000000  0.000000000     0.076413061  0.000000000  0.000000000
     0.000000000 13.086768000  0.000000000     0.000000000  0.076413061  0.000000000
     0.000000000  0.000000000 13.086768000     0.000000000  0.000000000  0.076413061

  length of vectors
    13.086768000 13.086768000 13.086768000     0.076413061  0.076413061  0.076413061


 FORCES acting on ions:
    Electron-Ion                     Ewald-Force                    Non-Local-Force
 -----------------------------------------------------------------------------------------------
   -.106E+03 0.106E+03 -.106E+03   0.105E+03 -.105E+03 0.105E+03   -.285E+00 0.285E+00 -.285E+00
   -.146E+02 0.146E+02 0.225E+02   0.142E+02 -.142E+02 -.220E+02   0.401E+00 -.402E+00 -.608E-01
   -.146E+02 -.225E+02 -.146E+02   0.142E+02 0.220E+02 0.142E+02   0.402E+00 0.616E-01 0.403E+00
   -.808E+01 -.720E+01 0.720E+01   0.767E+01 0.717E+01 -.717E+01   0.251E+00 -.185E+00 0.183E+00
   0.225E+02 0.146E+02 -.146E+02   -.220E+02 -.142E+02 0.142E+02   -.608E-01 -.402E+00 0.402E+00
   0.719E+01 0.808E+01 0.719E+01   -.716E+01 -.767E+01 -.716E+01   0.184E+00 -.251E+00 0.185E+00
   0.719E+01 -.719E+01 -.808E+01   -.717E+01 0.716E+01 0.767E+01   0.185E+00 -.184E+00 0.253E+00
   0.681E+01 -.681E+01 0.681E+01   -.657E+01 0.657E+01 -.657E+01   -.489E-01 0.483E-01 -.486E-01
   -.146E+02 -.146E+02 -.225E+02   0.142E+02 0.142E+02 0.220E+02   0.402E+00 0.400E+00 0.605E-01
   -.106E+03 -.106E+03 0.106E+03   0.105E+03 0.105E+03 -.105E+03   -.284E+00 -.286E+00 0.284E+00
   -.808E+01 0.720E+01 -.720E+01   0.767E+01 -.717E+01 0.717E+01   0.251E+00 0.185E+00 -.184E+00
   -.146E+02 0.225E+02 0.146E+02   0.142E+02 -.220E+02 -.142E+02   0.400E+00 -.592E-01 -.403E+00
   0.720E+01 -.808E+01 -.719E+01   -.717E+01 0.767E+01 0.716E+01   0.184E+00 0.252E+00 -.185E+00
   0.225E+02 -.146E+02 0.146E+02   -.220E+02 0.142E+02 -.142E+02   -.603E-01 0.402E+00 -.402E+00
   0.681E+01 0.681E+01 -.681E+01   -.657E+01 -.657E+01 0.657E+01   -.494E-01 -.485E-01 0.480E-01
   0.719E+01 0.719E+01 0.808E+01   -.716E+01 -.716E+01 -.767E+01   0.185E+00 0.184E+00 -.252E+00
   -.720E+01 0.808E+01 -.719E+01   0.716E+01 -.767E+01 0.716E+01   -.185E+00 -.252E+00 -.185E+00
   -.225E+02 0.146E+02 0.146E+02   0.220E+02 -.142E+02 -.142E+02   0.596E-01 -.402E+00 -.401E+00
   -.682E+01 -.681E+01 -.681E+01   0.657E+01 0.657E+01 0.657E+01   0.505E-01 0.483E-01 0.484E-01
   -.719E+01 -.719E+01 0.808E+01   0.717E+01 0.716E+01 -.767E+01   -.185E+00 -.186E+00 -.252E+00
   0.146E+02 0.146E+02 -.225E+02   -.142E+02 -.142E+02 0.220E+02   -.402E+00 -.401E+00 0.583E-01
   0.106E+03 0.106E+03 0.106E+03   -.105E+03 -.105E+03 -.105E+03   0.285E+00 0.285E+00 0.286E+00
   0.808E+01 -.719E+01 -.719E+01   -.766E+01 0.717E+01 0.717E+01   -.253E+00 -.186E+00 -.186E+00
   0.146E+02 -.225E+02 0.146E+02   -.142E+02 0.220E+02 -.142E+02   -.402E+00 0.597E-01 -.402E+00
   -.225E+02 -.146E+02 -.146E+02   0.220E+02 0.142E+02 0.142E+02   0.598E-01 0.401E+00 0.402E+00
   -.720E+01 -.808E+01 0.720E+01   0.716E+01 0.767E+01 -.717E+01   -.184E+00 0.252E+00 0.183E+00
   -.720E+01 0.719E+01 -.808E+01   0.716E+01 -.716E+01 0.767E+01   -.184E+00 0.184E+00 0.252E+00
   -.681E+01 0.681E+01 0.681E+01   0.657E+01 -.657E+01 -.657E+01   0.477E-01 -.485E-01 -.487E-01
   0.106E+03 -.106E+03 -.106E+03   -.105E+03 0.105E+03 0.105E+03   0.285E+00 -.286E+00 -.285E+00
   0.146E+02 -.146E+02 0.225E+02   -.142E+02 0.142E+02 -.220E+02   -.401E+00 0.401E+00 -.595E-01
   0.146E+02 0.225E+02 -.146E+02   -.142E+02 -.220E+02 0.142E+02   -.401E+00 -.594E-01 0.402E+00
   0.807E+01 0.719E+01 0.720E+01   -.766E+01 -.717E+01 -.717E+01   -.251E+00 0.185E+00 0.184E+00
   0.858E-03 0.640E-03 0.137E-02   -.126E-03 0.632E-03 -.109E-02   0.234E-03 -.366E-03 0.267E-03
   -.514E+01 -.181E-02 0.167E-02   0.498E+01 0.656E-03 -.134E-03   0.483E-01 0.277E-03 -.808E-03
   -.604E+02 0.138E-02 -.618E-04   0.587E+02 -.529E-03 0.376E-03   0.757E+00 0.533E-04 0.417E-03
   -.678E+01 0.251E-03 -.449E-03   0.676E+01 -.837E-04 0.196E-04   -.101E+00 -.306E-04 0.683E-03
   -.514E+01 0.145E-03 0.115E-02   0.498E+01 0.607E-04 -.145E-04   0.512E-01 -.973E-04 0.957E-04
   0.514E+01 -.172E-03 -.169E-02   -.498E+01 -.526E-03 0.490E-03   -.504E-01 0.150E-02 0.571E-03
   0.604E+02 -.282E-02 -.128E-02   -.587E+02 -.672E-03 0.570E-03   -.759E+00 0.264E-02 -.199E-03
   0.678E+01 -.305E-02 -.209E-03   -.676E+01 0.708E-03 0.709E-03   0.103E+00 0.186E-02 -.360E-03
   0.514E+01 -.443E-03 0.189E-02   -.498E+01 -.542E-04 -.502E-03   -.505E-01 -.814E-04 -.133E-03
   -.675E+01 -.675E+01 -.675E+01   0.643E+01 0.644E+01 0.644E+01   0.840E-01 0.834E-01 0.841E-01
   -.128E+02 -.128E+02 0.128E+02   0.130E+02 0.130E+02 -.130E+02   -.358E+00 -.359E+00 0.358E+00
   -.128E+02 0.128E+02 -.128E+02   0.130E+02 -.130E+02 0.130E+02   -.360E+00 0.360E+00 -.358E+00
   -.674E+01 0.675E+01 0.675E+01   0.643E+01 -.644E+01 -.644E+01   0.828E-01 -.819E-01 -.819E-01
   0.128E+02 -.128E+02 -.128E+02   -.130E+02 0.130E+02 0.130E+02   0.359E+00 -.361E+00 -.357E+00
   0.675E+01 -.675E+01 0.675E+01   -.644E+01 0.644E+01 -.644E+01   -.822E-01 0.834E-01 -.821E-01
   0.674E+01 0.675E+01 -.675E+01   -.644E+01 -.644E+01 0.643E+01   -.812E-01 -.829E-01 0.830E-01
   0.128E+02 0.128E+02 0.128E+02   -.130E+02 -.130E+02 -.130E+02   0.360E+00 0.360E+00 0.359E+00
   0.101E-02 -.365E-02 -.514E+01   -.985E-04 0.119E-02 0.498E+01   0.570E-03 0.259E-02 0.517E-01
   0.644E-03 0.136E-02 0.514E+01   -.133E-03 -.254E-04 -.498E+01   -.526E-03 0.228E-03 -.496E-01
   -.184E-02 -.106E-02 -.678E+01   -.281E-04 -.139E-03 0.676E+01   0.150E-02 0.220E-03 -.101E+00
   0.341E-03 0.667E-03 0.678E+01   -.204E-04 0.362E-04 -.676E+01   0.165E-03 0.861E-04 0.103E+00
   -.498E-02 -.275E-02 -.604E+02   -.150E-03 0.680E-03 0.586E+02   0.472E-02 0.252E-02 0.761E+00
   -.244E-02 -.138E-02 0.604E+02   0.696E-03 -.743E-03 -.586E+02   0.127E-02 0.123E-02 -.758E+00
   -.196E-02 -.131E-03 -.514E+01   0.984E-05 -.566E-03 0.498E+01   0.812E-03 0.295E-03 0.523E-01
   -.159E-02 -.880E-03 0.514E+01   -.466E-03 0.688E-04 -.498E+01   0.197E-02 0.222E-03 -.504E-01
   -.136E-02 -.678E+01 -.204E-02   0.185E-04 0.676E+01 -.648E-03   0.195E-02 -.103E+00 0.212E-02
   -.325E-03 -.514E+01 0.168E-02   -.744E-04 0.498E+01 0.106E-03   0.100E-02 0.502E-01 -.504E-03
   0.275E-02 0.678E+01 -.115E-02   -.241E-04 -.676E+01 0.528E-04   -.122E-02 0.102E+00 0.611E-03
   0.235E-02 0.514E+01 0.145E-02   -.201E-03 -.498E+01 -.570E-03   -.592E-03 -.501E-01 -.103E-02
   -.240E-02 -.514E+01 0.315E-02   0.172E-03 0.498E+01 -.529E-03   0.968E-03 0.512E-01 -.869E-03
   0.607E-03 -.604E+02 0.156E-02   0.572E-03 0.586E+02 0.743E-03   0.169E-03 0.759E+00 -.625E-03
   0.120E-02 0.514E+01 -.280E-03   -.478E-03 -.498E+01 0.812E-04   -.721E-03 -.507E-01 -.471E-03
   -.140E-02 0.604E+02 -.749E-03   -.184E-03 -.586E+02 -.706E-03   0.243E-02 -.759E+00 0.263E-03
 -----------------------------------------------------------------------------------------------
   -.384E-01 -.259E-01 -.308E-01   -.967E-13 0.121E-12 -.181E-12   0.162E-01 0.104E-01 0.827E-02


 POSITION                                       TOTAL-FORCE (eV/Angst)
 -----------------------------------------------------------------------------------
      0.05869     13.02807      0.05869        -1.149327      1.149974     -1.149388
      0.01632     13.07045      6.50359         0.058771     -0.059821      0.486623
      0.01632      6.58318      0.01632         0.057917     -0.489670      0.057355
     13.08186      6.55932      6.52744        -0.155498     -0.227725      0.227681
      6.50359     13.07045      0.01632         0.486238     -0.059327      0.057847
      6.52743      0.00491      6.52743         0.227614      0.155367      0.226381
      6.52743      6.55934     13.08186         0.226787     -0.228597     -0.157980
      6.55029      6.53647      6.55029         0.195561     -0.196188      0.195133
      0.01632      3.28801      3.31148         0.058519      0.059256     -0.488183
      0.05871      3.33039      9.75638        -1.150542     -1.149717      1.149060
     13.08186      9.79914      3.28763        -0.156930      0.227397     -0.228383
      0.01632      9.77528      9.79876         0.059371      0.485284     -0.058432
      6.52744      3.26678      3.28764         0.227635     -0.156581     -0.227086
      6.50360      3.28801      9.79876         0.486057      0.057803     -0.060704
      6.55029      9.82199      3.26478         0.196428      0.195571     -0.195651
      6.52743      9.79912      9.81998         0.226449      0.228178      0.155616
      3.28764      0.00491      3.28764        -0.228882      0.155335     -0.228312
      3.31148     13.07045      9.79876        -0.487087     -0.059806     -0.060911
      3.26478      6.53647      3.26478        -0.198125     -0.197570     -0.196722
      3.28764      6.55934      9.81998        -0.228389     -0.228660      0.155698
      9.79876     13.07045      3.31148        -0.060205     -0.060521     -0.486150
      9.75637     13.02807      9.75638         1.150581      1.150372      1.149009
      9.81998      6.55934      3.28764         0.155860     -0.227684     -0.228581
      9.79876      6.58317      9.79876        -0.059870     -0.486849     -0.059577
      3.31148      3.28801      0.01632        -0.487426      0.058205      0.057539
      3.28764      3.26678      6.52743        -0.227747     -0.156221      0.229044
      3.28764      9.79912     13.08186        -0.229185      0.227166     -0.156450
      3.26478      9.82199      6.55029        -0.195370      0.195222      0.196678
      9.75637      3.33039      0.05869         1.150430     -1.149841     -1.149666
      9.79876      3.28801      6.50360        -0.060763      0.059112      0.485326
      9.79876      9.77528      0.01632        -0.060787      0.484969      0.059052
      9.81998      9.79914      6.52744         0.154523      0.226237      0.227583
     11.45092      1.63585     11.45092         0.001410      0.001221      0.000983
      1.65752      1.63585      4.90754        -0.105592     -0.000588      0.001132
      1.73765      1.63585     11.45092        -0.953212      0.001201      0.001136
      1.64752      8.17923      4.90754        -0.122302      0.000427      0.000658
      1.65752      8.17923     11.45092        -0.106785      0.000403      0.001625
      8.15756      1.63585      4.90754         0.107452      0.001108     -0.000220
      8.07743      1.63585     11.45092         0.953884     -0.000542     -0.000506
      8.16756      8.17923      4.90754         0.122078     -0.000182      0.000538
      8.15756      8.17923     11.45092         0.107005     -0.000283      0.001666
      1.63386      4.90555      1.63386        -0.227619     -0.228075     -0.229007
      1.66841      4.94010      8.14667        -0.200491     -0.198938      0.200778
      1.66841     11.41836      1.66841        -0.199280      0.201301     -0.199674
      1.63386     11.45291      8.18122        -0.226430      0.229015      0.229112
      8.14667      4.94010      1.66841         0.200201     -0.197696     -0.200429
      8.18122      4.90555      8.18122         0.228386     -0.227898      0.228994
      8.18122     11.45291      1.63386         0.227285      0.229436     -0.226792
      8.14667     11.41836      8.14667         0.200416      0.199926      0.200831
      4.90754      1.63585      1.65752         0.001867      0.000441     -0.106579
      4.90754      1.63585      8.15756         0.000363      0.001867      0.107756
      4.90754      8.17923      1.64752         0.000023     -0.000685     -0.122641
      4.90754      8.17923      8.16756         0.000873      0.001078      0.121962
     11.45092      1.63585      1.73765         0.000025      0.000773     -0.954575
     11.45092      1.63585      8.07743        -0.000076     -0.000592      0.955075
     11.45092      8.17923      1.65752        -0.000755     -0.000114     -0.107036
     11.45092      8.17923      8.15756         0.000324     -0.000296      0.106875
      4.90754      4.91921      4.90754         0.001008     -0.122936     -0.000148
      4.90754      4.92921     11.45092         0.000998     -0.105146      0.001691
      4.90754     11.43925      4.90754         0.001887      0.123288     -0.000089
      4.90754     11.42925     11.45092         0.001944      0.107682      0.000250
     11.45092      4.92921      4.90754        -0.000871     -0.106885      0.002156
     11.45092      5.00934     11.45092         0.001737     -0.952776      0.002086
     11.45092     11.42925      4.90754         0.000381      0.109151     -0.000270
     11.45092     11.34912     11.45092         0.001259      0.954645     -0.000789
 -----------------------------------------------------------------------------------
    total drift:                               -0.024673     -0.018591     -0.025843


--------------------------------------------------------------------------------------------------------



  FREE ENERGIE OF THE ION-ELECTRON SYSTEM (eV)
  ---------------------------------------------------
  free  energy   TOTEN  =      -184.39607834 eV

  energy  without entropy=     -184.39149930  energy(sigma->0) =     -184.39378882



--------------------------------------------------------------------------------------------------------


    POTLOK:  cpu time      1.0249: real time      1.0358


--------------------------------------------------------------------------------------------------------


 writing wavefunctions
     LOOP+:  cpu time   1157.4632: real time   1168.4374
    4ORBIT:  cpu time      0.0000: real time      0.0000

 Spin-Orbit-Coupling matrix elements

 Ion:    1  E_soc:     -0.0549002
 l=   1
     0.0000000    -0.0023959    -0.0023947
    -0.0023959     0.0000000    -0.0023952
    -0.0023947    -0.0023952     0.0000000
 l=   2
     0.0000000    -0.0013677     0.0000000    -0.0013681    -0.0053881
    -0.0013677     0.0000000    -0.0040403    -0.0013658    -0.0013476
     0.0000000    -0.0040403     0.0000000    -0.0040396     0.0000000
    -0.0013681    -0.0013658    -0.0040396     0.0000000    -0.0013471
    -0.0053881    -0.0013476     0.0000000    -0.0013471     0.0000000
 l=   3
     0.0000000     0.0000000     0.0000000     0.0000000     0.0000000     0.0000000     0.0000000
     0.0000000     0.0000000     0.0000000     0.0000000     0.0000000     0.0000000     0.0000000
     0.0000000     0.0000000     0.0000000     0.0000000     0.0000000     0.0000000     0.0000000
     0.0000000     0.0000000     0.0000000     0.0000000     0.0000000     0.0000000     0.0000000
     0.0000000     0.0000000     0.0000000     0.0000000     0.0000000     0.0000000     0.0000000
     0.0000000     0.0000000     0.0000000     0.0000000     0.0000000     0.0000000     0.0000000
     0.0000000     0.0000000     0.0000000     0.0000000     0.0000000     0.0000000     0.0000000

 Ion:    2  E_soc:     -0.0559075
 l=   1
     0.0000000    -0.0025742    -0.0026082
    -0.0025742     0.0000000    -0.0025758
    -0.0026082    -0.0025758     0.0000000
 l=   2
     0.0000000    -0.0013627     0.0000000    -0.0013618    -0.0053686
    -0.0013627     0.0000000    -0.0040274    -0.0013592    -0.0013432
     0.0000000    -0.0040274     0.0000000    -0.0040294     0.0000000
    -0.0013618    -0.0013592    -0.0040294     0.0000000    -0.0013435
    -0.0053686    -0.0013432     0.0000000    -0.0013435     0.0000000
 l=   3
     0.0000000     0.0000000     0.0000000     0.0000000     0.0000000     0.0000000     0.0000000
     0.0000000     0.0000000     0.0000000     0.0000000     0.0000000     0.0000000     0.0000000
     0.0000000     0.0000000     0.0000000     0.0000000     0.0000000     0.0000000     0.0000000
     0.0000000     0.0000000     0.0000000     0.0000000     0.0000000     0.0000000     0.0000000
     0.0000000     0.0000000     0.0000000     0.0000000     0.0000000     0.0000000     0.0000000
     0.0000000     0.0000000     0.0000000     0.0000000     0.0000000     0.0000000     0.0000000
     0.0000000     0.0000000     0.0000000     0.0000000     0.0000000     0.0000000     0.0000000

 Ion:    3  E_soc:     -0.0559049
 l=   1
     0.0000000    -0.0025752    -0.0025736
    -0.0025752     0.0000000    -0.0026082
    -0.0025736    -0.0026082     0.0000000
 l=   2
     0.0000000    -0.0013589     0.0000000    -0.0013614    -0.0053722
    -0.0013589     0.0000000    -0.0040289    -0.0013605    -0.0013431
     0.0000000    -0.0040289     0.0000000    -0.0040278     0.0000000
    -0.0013614    -0.0013605    -0.0040278     0.0000000    -0.0013426
    -0.0053722    -0.0013431     0.0000000    -0.0013426     0.0000000
 l=   3
     0.0000000     0.0000000     0.0000000     0.0000000     0.0000000     0.0000000     0.0000000
     0.0000000     0.0000000     0.0000000     0.0000000     0.0000000     0.0000000     0.0000000
     0.0000000     0.0000000     0.0000000     0.0000000     0.0000000     0.0000000     0.0000000
     0.0000000     0.0000000     0.0000000     0.0000000     0.0000000     0.0000000     0.0000000
     0.0000000     0.0000000     0.0000000     0.0000000     0.0000000     0.0000000     0.0000000
     0.0000000     0.0000000     0.0000000     0.0000000     0.0000000     0.0000000     0.0000000
     0.0000000     0.0000000     0.0000000     0.0000000     0.0000000     0.0000000     0.0000000

 Ion:    4  E_soc:     -0.0559076
 l=   1
     0.0000000    -0.0025763    -0.0025845
    -0.0025763     0.0000000    -0.0025875
    -0.0025845    -0.0025875     0.0000000
 l=   2
     0.0000000    -0.0013629     0.0000000    -0.0013643    -0.0053701
    -0.0013629     0.0000000    -0.0040305    -0.0013635    -0.0013434
     0.0000000    -0.0040305     0.0000000    -0.0040283     0.0000000
    -0.0013643    -0.0013635    -0.0040283     0.0000000    -0.0013424
    -0.0053701    -0.0013434     0.0000000    -0.0013424     0.0000000
 l=   3
     0.0000000     0.0000000     0.0000000     0.0000000     0.0000000     0.0000000     0.0000000
     0.0000000     0.0000000     0.0000000     0.0000000     0.0000000     0.0000000     0.0000000
     0.0000000     0.0000000     0.0000000     0.0000000     0.0000000     0.0000000     0.0000000
     0.0000000     0.0000000     0.0000000     0.0000000     0.0000000     0.0000000     0.0000000
     0.0000000     0.0000000     0.0000000     0.0000000     0.0000000     0.0000000     0.0000000
     0.0000000     0.0000000     0.0000000     0.0000000     0.0000000     0.0000000     0.0000000
     0.0000000     0.0000000     0.0000000     0.0000000     0.0000000     0.0000000     0.0000000

 Ion:    5  E_soc:     -0.0559091
 l=   1
     0.0000000    -0.0026054    -0.0025763
    -0.0026054     0.0000000    -0.0025760
    -0.0025763    -0.0025760     0.0000000
 l=   2
     0.0000000    -0.0013616     0.0000000    -0.0013591    -0.0053729
    -0.0013616     0.0000000    -0.0040280    -0.0013619    -0.0013424
     0.0000000    -0.0040280     0.0000000    -0.0040282     0.0000000
    -0.0013591    -0.0013619    -0.0040282     0.0000000    -0.0013428
    -0.0053729    -0.0013424     0.0000000    -0.0013428     0.0000000
 l=   3
     0.0000000     0.0000000     0.0000000     0.0000000     0.0000000     0.0000000     0.0000000
     0.0000000     0.0000000     0.0000000     0.0000000     0.0000000     0.0000000     0.0000000
     0.0000000     0.0000000     0.0000000     0.0000000     0.0000000     0.0000000     0.0000000
     0.0000000     0.0000000     0.0000000     0.0000000     0.0000000     0.0000000     0.0000000
     0.0000000     0.0000000     0.0000000     0.0000000     0.0000000     0.0000000     0.0000000
     0.0000000     0.0000000     0.0000000     0.0000000     0.0000000     0.0000000     0.0000000
     0.0000000     0.0000000     0.0000000     0.0000000     0.0000000     0.0000000     0.0000000

 Ion:    6  E_soc:     -0.0559184
 l=   1
     0.0000000    -0.0025861    -0.0025882
    -0.0025861     0.0000000    -0.0025774
    -0.0025882    -0.0025774     0.0000000
 l=   2
     0.0000000    -0.0013635     0.0000000    -0.0013642    -0.0053683
    -0.0013635     0.0000000    -0.0040278    -0.0013647    -0.0013433
     0.0000000    -0.0040278     0.0000000    -0.0040315     0.0000000
    -0.0013642    -0.0013647    -0.0040315     0.0000000    -0.0013441
    -0.0053683    -0.0013433     0.0000000    -0.0013441     0.0000000
 l=   3
     0.0000000     0.0000000     0.0000000     0.0000000     0.0000000     0.0000000     0.0000000
     0.0000000     0.0000000     0.0000000     0.0000000     0.0000000     0.0000000     0.0000000
     0.0000000     0.0000000     0.0000000     0.0000000     0.0000000     0.0000000     0.0000000
     0.0000000     0.0000000     0.0000000     0.0000000     0.0000000     0.0000000     0.0000000
     0.0000000     0.0000000     0.0000000     0.0000000     0.0000000     0.0000000     0.0000000
     0.0000000     0.0000000     0.0000000     0.0000000     0.0000000     0.0000000     0.0000000
     0.0000000     0.0000000     0.0000000     0.0000000     0.0000000     0.0000000     0.0000000

 Ion:    7  E_soc:     -0.0559138
 l=   1
     0.0000000    -0.0025834    -0.0025795
    -0.0025834     0.0000000    -0.0025851
    -0.0025795    -0.0025851     0.0000000
 l=   2
     0.0000000    -0.0013647     0.0000000    -0.0013638    -0.0053731
    -0.0013647     0.0000000    -0.0040291    -0.0013642    -0.0013427
     0.0000000    -0.0040291     0.0000000    -0.0040283     0.0000000
    -0.0013638    -0.0013642    -0.0040283     0.0000000    -0.0013431
    -0.0053731    -0.0013427     0.0000000    -0.0013431     0.0000000
 l=   3
     0.0000000     0.0000000     0.0000000     0.0000000     0.0000000     0.0000000     0.0000000
     0.0000000     0.0000000     0.0000000     0.0000000     0.0000000     0.0000000     0.0000000
     0.0000000     0.0000000     0.0000000     0.0000000     0.0000000     0.0000000     0.0000000
     0.0000000     0.0000000     0.0000000     0.0000000     0.0000000     0.0000000     0.0000000
     0.0000000     0.0000000     0.0000000     0.0000000     0.0000000     0.0000000     0.0000000
     0.0000000     0.0000000     0.0000000     0.0000000     0.0000000     0.0000000     0.0000000
     0.0000000     0.0000000     0.0000000     0.0000000     0.0000000     0.0000000     0.0000000

 Ion:    8  E_soc:     -0.0557829
 l=   1
     0.0000000    -0.0025613    -0.0025602
    -0.0025613     0.0000000    -0.0025622
    -0.0025602    -0.0025622     0.0000000
 l=   2
     0.0000000    -0.0013634     0.0000000    -0.0013643    -0.0053701
    -0.0013634     0.0000000    -0.0040296    -0.0013635    -0.0013429
     0.0000000    -0.0040296     0.0000000    -0.0040309     0.0000000
    -0.0013643    -0.0013635    -0.0040309     0.0000000    -0.0013431
    -0.0053701    -0.0013429     0.0000000    -0.0013431     0.0000000
 l=   3
     0.0000000     0.0000000     0.0000000     0.0000000     0.0000000     0.0000000     0.0000000
     0.0000000     0.0000000     0.0000000     0.0000000     0.0000000     0.0000000     0.0000000
     0.0000000     0.0000000     0.0000000     0.0000000     0.0000000     0.0000000     0.0000000
     0.0000000     0.0000000     0.0000000     0.0000000     0.0000000     0.0000000     0.0000000
     0.0000000     0.0000000     0.0000000     0.0000000     0.0000000     0.0000000     0.0000000
     0.0000000     0.0000000     0.0000000     0.0000000     0.0000000     0.0000000     0.0000000
     0.0000000     0.0000000     0.0000000     0.0000000     0.0000000     0.0000000     0.0000000

 Ion:    9  E_soc:     -0.0559050
 l=   1
     0.0000000    -0.0025739    -0.0026055
    -0.0025739     0.0000000    -0.0025740
    -0.0026055    -0.0025740     0.0000000
 l=   2
     0.0000000    -0.0013619     0.0000000    -0.0013614    -0.0053695
    -0.0013619     0.0000000    -0.0040304    -0.0013592    -0.0013442
     0.0000000    -0.0040304     0.0000000    -0.0040288     0.0000000
    -0.0013614    -0.0013592    -0.0040288     0.0000000    -0.0013437
    -0.0053695    -0.0013442     0.0000000    -0.0013437     0.0000000
 l=   3
     0.0000000     0.0000000     0.0000000     0.0000000     0.0000000     0.0000000     0.0000000
     0.0000000     0.0000000     0.0000000     0.0000000     0.0000000     0.0000000     0.0000000
     0.0000000     0.0000000     0.0000000     0.0000000     0.0000000     0.0000000     0.0000000
     0.0000000     0.0000000     0.0000000     0.0000000     0.0000000     0.0000000     0.0000000
     0.0000000     0.0000000     0.0000000     0.0000000     0.0000000     0.0000000     0.0000000
     0.0000000     0.0000000     0.0000000     0.0000000     0.0000000     0.0000000     0.0000000
     0.0000000     0.0000000     0.0000000     0.0000000     0.0000000     0.0000000     0.0000000

 Ion:   10  E_soc:     -0.0548996
 l=   1
     0.0000000    -0.0023936    -0.0023945
    -0.0023936     0.0000000    -0.0023953
    -0.0023945    -0.0023953     0.0000000
 l=   2
     0.0000000    -0.0013680     0.0000000    -0.0013668    -0.0053882
    -0.0013680     0.0000000    -0.0040421    -0.0013665    -0.0013469
     0.0000000    -0.0040421     0.0000000    -0.0040419     0.0000000
    -0.0013668    -0.0013665    -0.0040419     0.0000000    -0.0013461
    -0.0053882    -0.0013469     0.0000000    -0.0013461     0.0000000
 l=   3
     0.0000000     0.0000000     0.0000000     0.0000000     0.0000000     0.0000000     0.0000000
     0.0000000     0.0000000     0.0000000     0.0000000     0.0000000     0.0000000     0.0000000
     0.0000000     0.0000000     0.0000000     0.0000000     0.0000000     0.0000000     0.0000000
     0.0000000     0.0000000     0.0000000     0.0000000     0.0000000     0.0000000     0.0000000
     0.0000000     0.0000000     0.0000000     0.0000000     0.0000000     0.0000000     0.0000000
     0.0000000     0.0000000     0.0000000     0.0000000     0.0000000     0.0000000     0.0000000
     0.0000000     0.0000000     0.0000000     0.0000000     0.0000000     0.0000000     0.0000000

 Ion:   11  E_soc:     -0.0559130
 l=   1
     0.0000000    -0.0025782    -0.0025844
    -0.0025782     0.0000000    -0.0025840
    -0.0025844    -0.0025840     0.0000000
 l=   2
     0.0000000    -0.0013647     0.0000000    -0.0013636    -0.0053720
    -0.0013647     0.0000000    -0.0040312    -0.0013644    -0.0013436
     0.0000000    -0.0040312     0.0000000    -0.0040275     0.0000000
    -0.0013636    -0.0013644    -0.0040275     0.0000000    -0.0013429
    -0.0053720    -0.0013436     0.0000000    -0.0013429     0.0000000
 l=   3
     0.0000000     0.0000000     0.0000000     0.0000000     0.0000000     0.0000000     0.0000000
     0.0000000     0.0000000     0.0000000     0.0000000     0.0000000     0.0000000     0.0000000
     0.0000000     0.0000000     0.0000000     0.0000000     0.0000000     0.0000000     0.0000000
     0.0000000     0.0000000     0.0000000     0.0000000     0.0000000     0.0000000     0.0000000
     0.0000000     0.0000000     0.0000000     0.0000000     0.0000000     0.0000000     0.0000000
     0.0000000     0.0000000     0.0000000     0.0000000     0.0000000     0.0000000     0.0000000
     0.0000000     0.0000000     0.0000000     0.0000000     0.0000000     0.0000000     0.0000000

 Ion:   12  E_soc:     -0.0558986
 l=   1
     0.0000000    -0.0025757    -0.0025761
    -0.0025757     0.0000000    -0.0026048
    -0.0025761    -0.0026048     0.0000000
 l=   2
     0.0000000    -0.0013596     0.0000000    -0.0013618    -0.0053696
    -0.0013596     0.0000000    -0.0040288    -0.0013626    -0.0013417
     0.0000000    -0.0040288     0.0000000    -0.0040260     0.0000000
    -0.0013618    -0.0013626    -0.0040260     0.0000000    -0.0013424
    -0.0053696    -0.0013417     0.0000000    -0.0013424     0.0000000
 l=   3
     0.0000000     0.0000000     0.0000000     0.0000000     0.0000000     0.0000000     0.0000000
     0.0000000     0.0000000     0.0000000     0.0000000     0.0000000     0.0000000     0.0000000
     0.0000000     0.0000000     0.0000000     0.0000000     0.0000000     0.0000000     0.0000000
     0.0000000     0.0000000     0.0000000     0.0000000     0.0000000     0.0000000     0.0000000
     0.0000000     0.0000000     0.0000000     0.0000000     0.0000000     0.0000000     0.0000000
     0.0000000     0.0000000     0.0000000     0.0000000     0.0000000     0.0000000     0.0000000
     0.0000000     0.0000000     0.0000000     0.0000000     0.0000000     0.0000000     0.0000000

 Ion:   13  E_soc:     -0.0559063
 l=   1
     0.0000000    -0.0025863    -0.0025835
    -0.0025863     0.0000000    -0.0025771
    -0.0025835    -0.0025771     0.0000000
 l=   2
     0.0000000    -0.0013645     0.0000000    -0.0013632    -0.0053728
    -0.0013645     0.0000000    -0.0040270    -0.0013637    -0.0013425
     0.0000000    -0.0040270     0.0000000    -0.0040293     0.0000000
    -0.0013632    -0.0013637    -0.0040293     0.0000000    -0.0013432
    -0.0053728    -0.0013425     0.0000000    -0.0013432     0.0000000
 l=   3
     0.0000000     0.0000000     0.0000000     0.0000000     0.0000000     0.0000000     0.0000000
     0.0000000     0.0000000     0.0000000     0.0000000     0.0000000     0.0000000     0.0000000
     0.0000000     0.0000000     0.0000000     0.0000000     0.0000000     0.0000000     0.0000000
     0.0000000     0.0000000     0.0000000     0.0000000     0.0000000     0.0000000     0.0000000
     0.0000000     0.0000000     0.0000000     0.0000000     0.0000000     0.0000000     0.0000000
     0.0000000     0.0000000     0.0000000     0.0000000     0.0000000     0.0000000     0.0000000
     0.0000000     0.0000000     0.0000000     0.0000000     0.0000000     0.0000000     0.0000000

 Ion:   14  E_soc:     -0.0559130
 l=   1
     0.0000000    -0.0026048    -0.0025748
    -0.0026048     0.0000000    -0.0025777
    -0.0025748    -0.0025777     0.0000000
 l=   2
     0.0000000    -0.0013620     0.0000000    -0.0013590    -0.0053737
    -0.0013620     0.0000000    -0.0040284    -0.0013612    -0.0013424
     0.0000000    -0.0040284     0.0000000    -0.0040304     0.0000000
    -0.0013590    -0.0013612    -0.0040304     0.0000000    -0.0013420
    -0.0053737    -0.0013424     0.0000000    -0.0013420     0.0000000
 l=   3
     0.0000000     0.0000000     0.0000000     0.0000000     0.0000000     0.0000000     0.0000000
     0.0000000     0.0000000     0.0000000     0.0000000     0.0000000     0.0000000     0.0000000
     0.0000000     0.0000000     0.0000000     0.0000000     0.0000000     0.0000000     0.0000000
     0.0000000     0.0000000     0.0000000     0.0000000     0.0000000     0.0000000     0.0000000
     0.0000000     0.0000000     0.0000000     0.0000000     0.0000000     0.0000000     0.0000000
     0.0000000     0.0000000     0.0000000     0.0000000     0.0000000     0.0000000     0.0000000
     0.0000000     0.0000000     0.0000000     0.0000000     0.0000000     0.0000000     0.0000000

 Ion:   15  E_soc:     -0.0557692
 l=   1
     0.0000000    -0.0025579    -0.0025614
    -0.0025579     0.0000000    -0.0025597
    -0.0025614    -0.0025597     0.0000000
 l=   2
     0.0000000    -0.0013640     0.0000000    -0.0013636    -0.0053728
    -0.0013640     0.0000000    -0.0040283    -0.0013624    -0.0013433
     0.0000000    -0.0040283     0.0000000    -0.0040285     0.0000000
    -0.0013636    -0.0013624    -0.0040285     0.0000000    -0.0013426
    -0.0053728    -0.0013433     0.0000000    -0.0013426     0.0000000
 l=   3
     0.0000000     0.0000000     0.0000000     0.0000000     0.0000000     0.0000000     0.0000000
     0.0000000     0.0000000     0.0000000     0.0000000     0.0000000     0.0000000     0.0000000
     0.0000000     0.0000000     0.0000000     0.0000000     0.0000000     0.0000000     0.0000000
     0.0000000     0.0000000     0.0000000     0.0000000     0.0000000     0.0000000     0.0000000
     0.0000000     0.0000000     0.0000000     0.0000000     0.0000000     0.0000000     0.0000000
     0.0000000     0.0000000     0.0000000     0.0000000     0.0000000     0.0000000     0.0000000
     0.0000000     0.0000000     0.0000000     0.0000000     0.0000000     0.0000000     0.0000000

 Ion:   16  E_soc:     -0.0559077
 l=   1
     0.0000000    -0.0025846    -0.0025799
    -0.0025846     0.0000000    -0.0025823
    -0.0025799    -0.0025823     0.0000000
 l=   2
     0.0000000    -0.0013637     0.0000000    -0.0013642    -0.0053742
    -0.0013637     0.0000000    -0.0040279    -0.0013647    -0.0013424
     0.0000000    -0.0040279     0.0000000    -0.0040276     0.0000000
    -0.0013642    -0.0013647    -0.0040276     0.0000000    -0.0013424
    -0.0053742    -0.0013424     0.0000000    -0.0013424     0.0000000
 l=   3
     0.0000000     0.0000000     0.0000000     0.0000000     0.0000000     0.0000000     0.0000000
     0.0000000     0.0000000     0.0000000     0.0000000     0.0000000     0.0000000     0.0000000
     0.0000000     0.0000000     0.0000000     0.0000000     0.0000000     0.0000000     0.0000000
     0.0000000     0.0000000     0.0000000     0.0000000     0.0000000     0.0000000     0.0000000
     0.0000000     0.0000000     0.0000000     0.0000000     0.0000000     0.0000000     0.0000000
     0.0000000     0.0000000     0.0000000     0.0000000     0.0000000     0.0000000     0.0000000
     0.0000000     0.0000000     0.0000000     0.0000000     0.0000000     0.0000000     0.0000000

 Ion:   17  E_soc:     -0.0559148
 l=   1
     0.0000000    -0.0025869    -0.0025858
    -0.0025869     0.0000000    -0.0025778
    -0.0025858    -0.0025778     0.0000000
 l=   2
     0.0000000    -0.0013639     0.0000000    -0.0013641    -0.0053700
    -0.0013639     0.0000000    -0.0040289    -0.0013643    -0.0013422
     0.0000000    -0.0040289     0.0000000    -0.0040297     0.0000000
    -0.0013641    -0.0013643    -0.0040297     0.0000000    -0.0013439
    -0.0053700    -0.0013422     0.0000000    -0.0013439     0.0000000
 l=   3
     0.0000000     0.0000000     0.0000000     0.0000000     0.0000000     0.0000000     0.0000000
     0.0000000     0.0000000     0.0000000     0.0000000     0.0000000     0.0000000     0.0000000
     0.0000000     0.0000000     0.0000000     0.0000000     0.0000000     0.0000000     0.0000000
     0.0000000     0.0000000     0.0000000     0.0000000     0.0000000     0.0000000     0.0000000
     0.0000000     0.0000000     0.0000000     0.0000000     0.0000000     0.0000000     0.0000000
     0.0000000     0.0000000     0.0000000     0.0000000     0.0000000     0.0000000     0.0000000
     0.0000000     0.0000000     0.0000000     0.0000000     0.0000000     0.0000000     0.0000000

 Ion:   18  E_soc:     -0.0559041
 l=   1
     0.0000000    -0.0026076    -0.0025754
    -0.0026076     0.0000000    -0.0025759
    -0.0025754    -0.0025759     0.0000000
 l=   2
     0.0000000    -0.0013622     0.0000000    -0.0013581    -0.0053701
    -0.0013622     0.0000000    -0.0040282    -0.0013608    -0.0013410
     0.0000000    -0.0040282     0.0000000    -0.0040303     0.0000000
    -0.0013581    -0.0013608    -0.0040303     0.0000000    -0.0013423
    -0.0053701    -0.0013410     0.0000000    -0.0013423     0.0000000
 l=   3
     0.0000000     0.0000000     0.0000000     0.0000000     0.0000000     0.0000000     0.0000000
     0.0000000     0.0000000     0.0000000     0.0000000     0.0000000     0.0000000     0.0000000
     0.0000000     0.0000000     0.0000000     0.0000000     0.0000000     0.0000000     0.0000000
     0.0000000     0.0000000     0.0000000     0.0000000     0.0000000     0.0000000     0.0000000
     0.0000000     0.0000000     0.0000000     0.0000000     0.0000000     0.0000000     0.0000000
     0.0000000     0.0000000     0.0000000     0.0000000     0.0000000     0.0000000     0.0000000
     0.0000000     0.0000000     0.0000000     0.0000000     0.0000000     0.0000000     0.0000000

 Ion:   19  E_soc:     -0.0557832
 l=   1
     0.0000000    -0.0025639    -0.0025612
    -0.0025639     0.0000000    -0.0025616
    -0.0025612    -0.0025616     0.0000000
 l=   2
     0.0000000    -0.0013642     0.0000000    -0.0013635    -0.0053707
    -0.0013642     0.0000000    -0.0040293    -0.0013631    -0.0013432
     0.0000000    -0.0040293     0.0000000    -0.0040280     0.0000000
    -0.0013635    -0.0013631    -0.0040280     0.0000000    -0.0013430
    -0.0053707    -0.0013432     0.0000000    -0.0013430     0.0000000
 l=   3
     0.0000000     0.0000000     0.0000000     0.0000000     0.0000000     0.0000000     0.0000000
     0.0000000     0.0000000     0.0000000     0.0000000     0.0000000     0.0000000     0.0000000
     0.0000000     0.0000000     0.0000000     0.0000000     0.0000000     0.0000000     0.0000000
     0.0000000     0.0000000     0.0000000     0.0000000     0.0000000     0.0000000     0.0000000
     0.0000000     0.0000000     0.0000000     0.0000000     0.0000000     0.0000000     0.0000000
     0.0000000     0.0000000     0.0000000     0.0000000     0.0000000     0.0000000     0.0000000
     0.0000000     0.0000000     0.0000000     0.0000000     0.0000000     0.0000000     0.0000000

 Ion:   20  E_soc:     -0.0559090
 l=   1
     0.0000000    -0.0025855    -0.0025752
    -0.0025855     0.0000000    -0.0025862
    -0.0025752    -0.0025862     0.0000000
 l=   2
     0.0000000    -0.0013640     0.0000000    -0.0013643    -0.0053739
    -0.0013640     0.0000000    -0.0040289    -0.0013654    -0.0013421
     0.0000000    -0.0040289     0.0000000    -0.0040264     0.0000000
    -0.0013643    -0.0013654    -0.0040264     0.0000000    -0.0013425
    -0.0053739    -0.0013421     0.0000000    -0.0013425     0.0000000
 l=   3
     0.0000000     0.0000000     0.0000000     0.0000000     0.0000000     0.0000000     0.0000000
     0.0000000     0.0000000     0.0000000     0.0000000     0.0000000     0.0000000     0.0000000
     0.0000000     0.0000000     0.0000000     0.0000000     0.0000000     0.0000000     0.0000000
     0.0000000     0.0000000     0.0000000     0.0000000     0.0000000     0.0000000     0.0000000
     0.0000000     0.0000000     0.0000000     0.0000000     0.0000000     0.0000000     0.0000000
     0.0000000     0.0000000     0.0000000     0.0000000     0.0000000     0.0000000     0.0000000
     0.0000000     0.0000000     0.0000000     0.0000000     0.0000000     0.0000000     0.0000000

 Ion:   21  E_soc:     -0.0559031
 l=   1
     0.0000000    -0.0025733    -0.0026058
    -0.0025733     0.0000000    -0.0025765
    -0.0026058    -0.0025765     0.0000000
 l=   2
     0.0000000    -0.0013615     0.0000000    -0.0013617    -0.0053692
    -0.0013615     0.0000000    -0.0040289    -0.0013578    -0.0013438
     0.0000000    -0.0040289     0.0000000    -0.0040289     0.0000000
    -0.0013617    -0.0013578    -0.0040289     0.0000000    -0.0013443
    -0.0053692    -0.0013438     0.0000000    -0.0013443     0.0000000
 l=   3
     0.0000000     0.0000000     0.0000000     0.0000000     0.0000000     0.0000000     0.0000000
     0.0000000     0.0000000     0.0000000     0.0000000     0.0000000     0.0000000     0.0000000
     0.0000000     0.0000000     0.0000000     0.0000000     0.0000000     0.0000000     0.0000000
     0.0000000     0.0000000     0.0000000     0.0000000     0.0000000     0.0000000     0.0000000
     0.0000000     0.0000000     0.0000000     0.0000000     0.0000000     0.0000000     0.0000000
     0.0000000     0.0000000     0.0000000     0.0000000     0.0000000     0.0000000     0.0000000
     0.0000000     0.0000000     0.0000000     0.0000000     0.0000000     0.0000000     0.0000000

 Ion:   22  E_soc:     -0.0549113
 l=   1
     0.0000000    -0.0023950    -0.0023945
    -0.0023950     0.0000000    -0.0023953
    -0.0023945    -0.0023953     0.0000000
 l=   2
     0.0000000    -0.0013675     0.0000000    -0.0013677    -0.0053890
    -0.0013675     0.0000000    -0.0040420    -0.0013678    -0.0013479
     0.0000000    -0.0040420     0.0000000    -0.0040421     0.0000000
    -0.0013677    -0.0013678    -0.0040421     0.0000000    -0.0013467
    -0.0053890    -0.0013479     0.0000000    -0.0013467     0.0000000
 l=   3
     0.0000000     0.0000000     0.0000000     0.0000000     0.0000000     0.0000000     0.0000000
     0.0000000     0.0000000     0.0000000     0.0000000     0.0000000     0.0000000     0.0000000
     0.0000000     0.0000000     0.0000000     0.0000000     0.0000000     0.0000000     0.0000000
     0.0000000     0.0000000     0.0000000     0.0000000     0.0000000     0.0000000     0.0000000
     0.0000000     0.0000000     0.0000000     0.0000000     0.0000000     0.0000000     0.0000000
     0.0000000     0.0000000     0.0000000     0.0000000     0.0000000     0.0000000     0.0000000
     0.0000000     0.0000000     0.0000000     0.0000000     0.0000000     0.0000000     0.0000000

 Ion:   23  E_soc:     -0.0559046
 l=   1
     0.0000000    -0.0025772    -0.0025822
    -0.0025772     0.0000000    -0.0025836
    -0.0025822    -0.0025836     0.0000000
 l=   2
     0.0000000    -0.0013634     0.0000000    -0.0013644    -0.0053710
    -0.0013634     0.0000000    -0.0040312    -0.0013632    -0.0013434
     0.0000000    -0.0040312     0.0000000    -0.0040299     0.0000000
    -0.0013644    -0.0013632    -0.0040299     0.0000000    -0.0013429
    -0.0053710    -0.0013434     0.0000000    -0.0013429     0.0000000
 l=   3
     0.0000000     0.0000000     0.0000000     0.0000000     0.0000000     0.0000000     0.0000000
     0.0000000     0.0000000     0.0000000     0.0000000     0.0000000     0.0000000     0.0000000
     0.0000000     0.0000000     0.0000000     0.0000000     0.0000000     0.0000000     0.0000000
     0.0000000     0.0000000     0.0000000     0.0000000     0.0000000     0.0000000     0.0000000
     0.0000000     0.0000000     0.0000000     0.0000000     0.0000000     0.0000000     0.0000000
     0.0000000     0.0000000     0.0000000     0.0000000     0.0000000     0.0000000     0.0000000
     0.0000000     0.0000000     0.0000000     0.0000000     0.0000000     0.0000000     0.0000000

 Ion:   24  E_soc:     -0.0559163
 l=   1
     0.0000000    -0.0025779    -0.0025762
    -0.0025779     0.0000000    -0.0026080
    -0.0025762    -0.0026080     0.0000000
 l=   2
     0.0000000    -0.0013600     0.0000000    -0.0013608    -0.0053723
    -0.0013600     0.0000000    -0.0040282    -0.0013619    -0.0013421
     0.0000000    -0.0040282     0.0000000    -0.0040271     0.0000000
    -0.0013608    -0.0013619    -0.0040271     0.0000000    -0.0013435
    -0.0053723    -0.0013421     0.0000000    -0.0013435     0.0000000
 l=   3
     0.0000000     0.0000000     0.0000000     0.0000000     0.0000000     0.0000000     0.0000000
     0.0000000     0.0000000     0.0000000     0.0000000     0.0000000     0.0000000     0.0000000
     0.0000000     0.0000000     0.0000000     0.0000000     0.0000000     0.0000000     0.0000000
     0.0000000     0.0000000     0.0000000     0.0000000     0.0000000     0.0000000     0.0000000
     0.0000000     0.0000000     0.0000000     0.0000000     0.0000000     0.0000000     0.0000000
     0.0000000     0.0000000     0.0000000     0.0000000     0.0000000     0.0000000     0.0000000
     0.0000000     0.0000000     0.0000000     0.0000000     0.0000000     0.0000000     0.0000000

 Ion:   25  E_soc:     -0.0559163
 l=   1
     0.0000000    -0.0026080    -0.0025773
    -0.0026080     0.0000000    -0.0025761
    -0.0025773    -0.0025761     0.0000000
 l=   2
     0.0000000    -0.0013624     0.0000000    -0.0013586    -0.0053723
    -0.0013624     0.0000000    -0.0040259    -0.0013612    -0.0013432
     0.0000000    -0.0040259     0.0000000    -0.0040298     0.0000000
    -0.0013586    -0.0013612    -0.0040298     0.0000000    -0.0013433
    -0.0053723    -0.0013432     0.0000000    -0.0013433     0.0000000
 l=   3
     0.0000000     0.0000000     0.0000000     0.0000000     0.0000000     0.0000000     0.0000000
     0.0000000     0.0000000     0.0000000     0.0000000     0.0000000     0.0000000     0.0000000
     0.0000000     0.0000000     0.0000000     0.0000000     0.0000000     0.0000000     0.0000000
     0.0000000     0.0000000     0.0000000     0.0000000     0.0000000     0.0000000     0.0000000
     0.0000000     0.0000000     0.0000000     0.0000000     0.0000000     0.0000000     0.0000000
     0.0000000     0.0000000     0.0000000     0.0000000     0.0000000     0.0000000     0.0000000
     0.0000000     0.0000000     0.0000000     0.0000000     0.0000000     0.0000000     0.0000000

 Ion:   26  E_soc:     -0.0559146
 l=   1
     0.0000000    -0.0025835    -0.0025848
    -0.0025835     0.0000000    -0.0025774
    -0.0025848    -0.0025774     0.0000000
 l=   2
     0.0000000    -0.0013638     0.0000000    -0.0013646    -0.0053711
    -0.0013638     0.0000000    -0.0040291    -0.0013639    -0.0013437
     0.0000000    -0.0040291     0.0000000    -0.0040315     0.0000000
    -0.0013646    -0.0013639    -0.0040315     0.0000000    -0.0013440
    -0.0053711    -0.0013437     0.0000000    -0.0013440     0.0000000
 l=   3
     0.0000000     0.0000000     0.0000000     0.0000000     0.0000000     0.0000000     0.0000000
     0.0000000     0.0000000     0.0000000     0.0000000     0.0000000     0.0000000     0.0000000
     0.0000000     0.0000000     0.0000000     0.0000000     0.0000000     0.0000000     0.0000000
     0.0000000     0.0000000     0.0000000     0.0000000     0.0000000     0.0000000     0.0000000
     0.0000000     0.0000000     0.0000000     0.0000000     0.0000000     0.0000000     0.0000000
     0.0000000     0.0000000     0.0000000     0.0000000     0.0000000     0.0000000     0.0000000
     0.0000000     0.0000000     0.0000000     0.0000000     0.0000000     0.0000000     0.0000000

 Ion:   27  E_soc:     -0.0559111
 l=   1
     0.0000000    -0.0025850    -0.0025764
    -0.0025850     0.0000000    -0.0025853
    -0.0025764    -0.0025853     0.0000000
 l=   2
     0.0000000    -0.0013637     0.0000000    -0.0013633    -0.0053740
    -0.0013637     0.0000000    -0.0040277    -0.0013642    -0.0013437
     0.0000000    -0.0040277     0.0000000    -0.0040292     0.0000000
    -0.0013633    -0.0013642    -0.0040292     0.0000000    -0.0013429
    -0.0053740    -0.0013437     0.0000000    -0.0013429     0.0000000
 l=   3
     0.0000000     0.0000000     0.0000000     0.0000000     0.0000000     0.0000000     0.0000000
     0.0000000     0.0000000     0.0000000     0.0000000     0.0000000     0.0000000     0.0000000
     0.0000000     0.0000000     0.0000000     0.0000000     0.0000000     0.0000000     0.0000000
     0.0000000     0.0000000     0.0000000     0.0000000     0.0000000     0.0000000     0.0000000
     0.0000000     0.0000000     0.0000000     0.0000000     0.0000000     0.0000000     0.0000000
     0.0000000     0.0000000     0.0000000     0.0000000     0.0000000     0.0000000     0.0000000
     0.0000000     0.0000000     0.0000000     0.0000000     0.0000000     0.0000000     0.0000000

 Ion:   28  E_soc:     -0.0557813
 l=   1
     0.0000000    -0.0025606    -0.0025617
    -0.0025606     0.0000000    -0.0025620
    -0.0025617    -0.0025620     0.0000000
 l=   2
     0.0000000    -0.0013646     0.0000000    -0.0013629    -0.0053716
    -0.0013646     0.0000000    -0.0040285    -0.0013635    -0.0013428
     0.0000000    -0.0040285     0.0000000    -0.0040297     0.0000000
    -0.0013629    -0.0013635    -0.0040297     0.0000000    -0.0013428
    -0.0053716    -0.0013428     0.0000000    -0.0013428     0.0000000
 l=   3
     0.0000000     0.0000000     0.0000000     0.0000000     0.0000000     0.0000000     0.0000000
     0.0000000     0.0000000     0.0000000     0.0000000     0.0000000     0.0000000     0.0000000
     0.0000000     0.0000000     0.0000000     0.0000000     0.0000000     0.0000000     0.0000000
     0.0000000     0.0000000     0.0000000     0.0000000     0.0000000     0.0000000     0.0000000
     0.0000000     0.0000000     0.0000000     0.0000000     0.0000000     0.0000000     0.0000000
     0.0000000     0.0000000     0.0000000     0.0000000     0.0000000     0.0000000     0.0000000
     0.0000000     0.0000000     0.0000000     0.0000000     0.0000000     0.0000000     0.0000000

 Ion:   29  E_soc:     -0.0549061
 l=   1
     0.0000000    -0.0023970    -0.0023956
    -0.0023970     0.0000000    -0.0023942
    -0.0023956    -0.0023942     0.0000000
 l=   2
     0.0000000    -0.0013673     0.0000000    -0.0013690    -0.0053883
    -0.0013673     0.0000000    -0.0040402    -0.0013669    -0.0013470
     0.0000000    -0.0040402     0.0000000    -0.0040407     0.0000000
    -0.0013690    -0.0013669    -0.0040407     0.0000000    -0.0013470
    -0.0053883    -0.0013470     0.0000000    -0.0013470     0.0000000
 l=   3
     0.0000000     0.0000000     0.0000000     0.0000000     0.0000000     0.0000000     0.0000000
     0.0000000     0.0000000     0.0000000     0.0000000     0.0000000     0.0000000     0.0000000
     0.0000000     0.0000000     0.0000000     0.0000000     0.0000000     0.0000000     0.0000000
     0.0000000     0.0000000     0.0000000     0.0000000     0.0000000     0.0000000     0.0000000
     0.0000000     0.0000000     0.0000000     0.0000000     0.0000000     0.0000000     0.0000000
     0.0000000     0.0000000     0.0000000     0.0000000     0.0000000     0.0000000     0.0000000
     0.0000000     0.0000000     0.0000000     0.0000000     0.0000000     0.0000000     0.0000000

 Ion:   30  E_soc:     -0.0559239
 l=   1
     0.0000000    -0.0025784    -0.0026091
    -0.0025784     0.0000000    -0.0025781
    -0.0026091    -0.0025781     0.0000000
 l=   2
     0.0000000    -0.0013626     0.0000000    -0.0013616    -0.0053698
    -0.0013626     0.0000000    -0.0040283    -0.0013591    -0.0013431
     0.0000000    -0.0040283     0.0000000    -0.0040289     0.0000000
    -0.0013616    -0.0013591    -0.0040289     0.0000000    -0.0013428
    -0.0053698    -0.0013431     0.0000000    -0.0013428     0.0000000
 l=   3
     0.0000000     0.0000000     0.0000000     0.0000000     0.0000000     0.0000000     0.0000000
     0.0000000     0.0000000     0.0000000     0.0000000     0.0000000     0.0000000     0.0000000
     0.0000000     0.0000000     0.0000000     0.0000000     0.0000000     0.0000000     0.0000000
     0.0000000     0.0000000     0.0000000     0.0000000     0.0000000     0.0000000     0.0000000
     0.0000000     0.0000000     0.0000000     0.0000000     0.0000000     0.0000000     0.0000000
     0.0000000     0.0000000     0.0000000     0.0000000     0.0000000     0.0000000     0.0000000
     0.0000000     0.0000000     0.0000000     0.0000000     0.0000000     0.0000000     0.0000000

 Ion:   31  E_soc:     -0.0559069
 l=   1
     0.0000000    -0.0025778    -0.0025764
    -0.0025778     0.0000000    -0.0026057
    -0.0025764    -0.0026057     0.0000000
 l=   2
     0.0000000    -0.0013585     0.0000000    -0.0013629    -0.0053705
    -0.0013585     0.0000000    -0.0040285    -0.0013620    -0.0013433
     0.0000000    -0.0040285     0.0000000    -0.0040261     0.0000000
    -0.0013629    -0.0013620    -0.0040261     0.0000000    -0.0013417
    -0.0053705    -0.0013433     0.0000000    -0.0013417     0.0000000
 l=   3
     0.0000000     0.0000000     0.0000000     0.0000000     0.0000000     0.0000000     0.0000000
     0.0000000     0.0000000     0.0000000     0.0000000     0.0000000     0.0000000     0.0000000
     0.0000000     0.0000000     0.0000000     0.0000000     0.0000000     0.0000000     0.0000000
     0.0000000     0.0000000     0.0000000     0.0000000     0.0000000     0.0000000     0.0000000
     0.0000000     0.0000000     0.0000000     0.0000000     0.0000000     0.0000000     0.0000000
     0.0000000     0.0000000     0.0000000     0.0000000     0.0000000     0.0000000     0.0000000
     0.0000000     0.0000000     0.0000000     0.0000000     0.0000000     0.0000000     0.0000000

 Ion:   32  E_soc:     -0.0558951
 l=   1
     0.0000000    -0.0025769    -0.0025842
    -0.0025769     0.0000000    -0.0025813
    -0.0025842    -0.0025813     0.0000000
 l=   2
     0.0000000    -0.0013636     0.0000000    -0.0013634    -0.0053712
    -0.0013636     0.0000000    -0.0040306    -0.0013625    -0.0013433
     0.0000000    -0.0040306     0.0000000    -0.0040283     0.0000000
    -0.0013634    -0.0013625    -0.0040283     0.0000000    -0.0013421
    -0.0053712    -0.0013433     0.0000000    -0.0013421     0.0000000
 l=   3
     0.0000000     0.0000000     0.0000000     0.0000000     0.0000000     0.0000000     0.0000000
     0.0000000     0.0000000     0.0000000     0.0000000     0.0000000     0.0000000     0.0000000
     0.0000000     0.0000000     0.0000000     0.0000000     0.0000000     0.0000000     0.0000000
     0.0000000     0.0000000     0.0000000     0.0000000     0.0000000     0.0000000     0.0000000
     0.0000000     0.0000000     0.0000000     0.0000000     0.0000000     0.0000000     0.0000000
     0.0000000     0.0000000     0.0000000     0.0000000     0.0000000     0.0000000     0.0000000
     0.0000000     0.0000000     0.0000000     0.0000000     0.0000000     0.0000000     0.0000000

 Ion:   33  E_soc:     -0.0506254
 l=   1
     0.0000000    -0.0014435    -0.0014448
    -0.0014435     0.0000000    -0.0014425
    -0.0014448    -0.0014425     0.0000000
 l=   2
     0.0000000    -0.0013641     0.0000000    -0.0013646    -0.0056295
    -0.0013641     0.0000000    -0.0042223    -0.0013643    -0.0014075
     0.0000000    -0.0042223     0.0000000    -0.0042223     0.0000000
    -0.0013646    -0.0013643    -0.0042223     0.0000000    -0.0014073
    -0.0056295    -0.0014075     0.0000000    -0.0014073     0.0000000
 l=   3
     0.0000000     0.0000000     0.0000000     0.0000000     0.0000000     0.0000000     0.0000000
     0.0000000     0.0000000     0.0000000     0.0000000     0.0000000     0.0000000     0.0000000
     0.0000000     0.0000000     0.0000000     0.0000000     0.0000000     0.0000000     0.0000000
     0.0000000     0.0000000     0.0000000     0.0000000     0.0000000     0.0000000     0.0000000
     0.0000000     0.0000000     0.0000000     0.0000000     0.0000000     0.0000000     0.0000000
     0.0000000     0.0000000     0.0000000     0.0000000     0.0000000     0.0000000     0.0000000
     0.0000000     0.0000000     0.0000000     0.0000000     0.0000000     0.0000000     0.0000000

 Ion:   34  E_soc:     -0.1843829
 l=   1
     0.0000000    -0.0306521    -0.0306462
    -0.0306521     0.0000000    -0.0306957
    -0.0306462    -0.0306957     0.0000000
 l=   2
     0.0000000    -0.0000296     0.0000000    -0.0000292    -0.0000362
    -0.0000296     0.0000000    -0.0000267    -0.0000285    -0.0000091
     0.0000000    -0.0000267     0.0000000    -0.0000282     0.0000000
    -0.0000292    -0.0000285    -0.0000282     0.0000000    -0.0000099
    -0.0000362    -0.0000091     0.0000000    -0.0000099     0.0000000
 l=   3
     0.0000000     0.0000000     0.0000000     0.0000000     0.0000000     0.0000000     0.0000000
     0.0000000     0.0000000     0.0000000     0.0000000     0.0000000     0.0000000     0.0000000
     0.0000000     0.0000000     0.0000000     0.0000000     0.0000000     0.0000000     0.0000000
     0.0000000     0.0000000     0.0000000     0.0000000     0.0000000     0.0000000     0.0000000
     0.0000000     0.0000000     0.0000000     0.0000000     0.0000000     0.0000000     0.0000000
     0.0000000     0.0000000     0.0000000     0.0000000     0.0000000     0.0000000     0.0000000
     0.0000000     0.0000000     0.0000000     0.0000000     0.0000000     0.0000000     0.0000000

 Ion:   35  E_soc:     -0.1869988
 l=   1
     0.0000000    -0.0310361    -0.0311496
    -0.0310361     0.0000000    -0.0311412
    -0.0311496    -0.0311412     0.0000000
 l=   2
     0.0000000    -0.0000261     0.0000000    -0.0000265    -0.0000315
    -0.0000261     0.0000000    -0.0000234    -0.0000258    -0.0000078
     0.0000000    -0.0000234     0.0000000    -0.0000239     0.0000000
    -0.0000265    -0.0000258    -0.0000239     0.0000000    -0.0000075
    -0.0000315    -0.0000078     0.0000000    -0.0000075     0.0000000
 l=   3
     0.0000000     0.0000000     0.0000000     0.0000000     0.0000000     0.0000000     0.0000000
     0.0000000     0.0000000     0.0000000     0.0000000     0.0000000     0.0000000     0.0000000
     0.0000000     0.0000000     0.0000000     0.0000000     0.0000000     0.0000000     0.0000000
     0.0000000     0.0000000     0.0000000     0.0000000     0.0000000     0.0000000     0.0000000
     0.0000000     0.0000000     0.0000000     0.0000000     0.0000000     0.0000000     0.0000000
     0.0000000     0.0000000     0.0000000     0.0000000     0.0000000     0.0000000     0.0000000
     0.0000000     0.0000000     0.0000000     0.0000000     0.0000000     0.0000000     0.0000000

 Ion:   36  E_soc:     -0.1845826
 l=   1
     0.0000000    -0.0307073    -0.0306945
    -0.0307073     0.0000000    -0.0306972
    -0.0306945    -0.0306972     0.0000000
 l=   2
     0.0000000    -0.0000288     0.0000000    -0.0000286    -0.0000352
    -0.0000288     0.0000000    -0.0000265    -0.0000289    -0.0000088
     0.0000000    -0.0000265     0.0000000    -0.0000267     0.0000000
    -0.0000286    -0.0000289    -0.0000267     0.0000000    -0.0000088
    -0.0000352    -0.0000088     0.0000000    -0.0000088     0.0000000
 l=   3
     0.0000000     0.0000000     0.0000000     0.0000000     0.0000000     0.0000000     0.0000000
     0.0000000     0.0000000     0.0000000     0.0000000     0.0000000     0.0000000     0.0000000
     0.0000000     0.0000000     0.0000000     0.0000000     0.0000000     0.0000000     0.0000000
     0.0000000     0.0000000     0.0000000     0.0000000     0.0000000     0.0000000     0.0000000
     0.0000000     0.0000000     0.0000000     0.0000000     0.0000000     0.0000000     0.0000000
     0.0000000     0.0000000     0.0000000     0.0000000     0.0000000     0.0000000     0.0000000
     0.0000000     0.0000000     0.0000000     0.0000000     0.0000000     0.0000000     0.0000000

 Ion:   37  E_soc:     -0.1843927
 l=   1
     0.0000000    -0.0306574    -0.0306973
    -0.0306574     0.0000000    -0.0306443
    -0.0306973    -0.0306443     0.0000000
 l=   2
     0.0000000    -0.0000286     0.0000000    -0.0000292    -0.0000382
    -0.0000286     0.0000000    -0.0000267    -0.0000296    -0.0000088
     0.0000000    -0.0000267     0.0000000    -0.0000272     0.0000000
    -0.0000292    -0.0000296    -0.0000272     0.0000000    -0.0000090
    -0.0000382    -0.0000088     0.0000000    -0.0000090     0.0000000
 l=   3
     0.0000000     0.0000000     0.0000000     0.0000000     0.0000000     0.0000000     0.0000000
     0.0000000     0.0000000     0.0000000     0.0000000     0.0000000     0.0000000     0.0000000
     0.0000000     0.0000000     0.0000000     0.0000000     0.0000000     0.0000000     0.0000000
     0.0000000     0.0000000     0.0000000     0.0000000     0.0000000     0.0000000     0.0000000
     0.0000000     0.0000000     0.0000000     0.0000000     0.0000000     0.0000000     0.0000000
     0.0000000     0.0000000     0.0000000     0.0000000     0.0000000     0.0000000     0.0000000
     0.0000000     0.0000000     0.0000000     0.0000000     0.0000000     0.0000000     0.0000000

 Ion:   38  E_soc:     -0.1843792
 l=   1
     0.0000000    -0.0306520    -0.0306405
    -0.0306520     0.0000000    -0.0306997
    -0.0306405    -0.0306997     0.0000000
 l=   2
     0.0000000    -0.0000294     0.0000000    -0.0000292    -0.0000363
    -0.0000294     0.0000000    -0.0000265    -0.0000285    -0.0000090
     0.0000000    -0.0000265     0.0000000    -0.0000285     0.0000000
    -0.0000292    -0.0000285    -0.0000285     0.0000000    -0.0000099
    -0.0000363    -0.0000090     0.0000000    -0.0000099     0.0000000
 l=   3
     0.0000000     0.0000000     0.0000000     0.0000000     0.0000000     0.0000000     0.0000000
     0.0000000     0.0000000     0.0000000     0.0000000     0.0000000     0.0000000     0.0000000
     0.0000000     0.0000000     0.0000000     0.0000000     0.0000000     0.0000000     0.0000000
     0.0000000     0.0000000     0.0000000     0.0000000     0.0000000     0.0000000     0.0000000
     0.0000000     0.0000000     0.0000000     0.0000000     0.0000000     0.0000000     0.0000000
     0.0000000     0.0000000     0.0000000     0.0000000     0.0000000     0.0000000     0.0000000
     0.0000000     0.0000000     0.0000000     0.0000000     0.0000000     0.0000000     0.0000000

 Ion:   39  E_soc:     -0.1869964
 l=   1
     0.0000000    -0.0310353    -0.0311423
    -0.0310353     0.0000000    -0.0311475
    -0.0311423    -0.0311475     0.0000000
 l=   2
     0.0000000    -0.0000260     0.0000000    -0.0000265    -0.0000318
    -0.0000260     0.0000000    -0.0000235    -0.0000259    -0.0000079
     0.0000000    -0.0000235     0.0000000    -0.0000238     0.0000000
    -0.0000265    -0.0000259    -0.0000238     0.0000000    -0.0000077
    -0.0000318    -0.0000079     0.0000000    -0.0000077     0.0000000
 l=   3
     0.0000000     0.0000000     0.0000000     0.0000000     0.0000000     0.0000000     0.0000000
     0.0000000     0.0000000     0.0000000     0.0000000     0.0000000     0.0000000     0.0000000
     0.0000000     0.0000000     0.0000000     0.0000000     0.0000000     0.0000000     0.0000000
     0.0000000     0.0000000     0.0000000     0.0000000     0.0000000     0.0000000     0.0000000
     0.0000000     0.0000000     0.0000000     0.0000000     0.0000000     0.0000000     0.0000000
     0.0000000     0.0000000     0.0000000     0.0000000     0.0000000     0.0000000     0.0000000
     0.0000000     0.0000000     0.0000000     0.0000000     0.0000000     0.0000000     0.0000000

 Ion:   40  E_soc:     -0.1846042
 l=   1
     0.0000000    -0.0307126    -0.0306947
    -0.0307126     0.0000000    -0.0307025
    -0.0306947    -0.0307025     0.0000000
 l=   2
     0.0000000    -0.0000287     0.0000000    -0.0000287    -0.0000353
    -0.0000287     0.0000000    -0.0000266    -0.0000288    -0.0000089
     0.0000000    -0.0000266     0.0000000    -0.0000266     0.0000000
    -0.0000287    -0.0000288    -0.0000266     0.0000000    -0.0000088
    -0.0000353    -0.0000089     0.0000000    -0.0000088     0.0000000
 l=   3
     0.0000000     0.0000000     0.0000000     0.0000000     0.0000000     0.0000000     0.0000000
     0.0000000     0.0000000     0.0000000     0.0000000     0.0000000     0.0000000     0.0000000
     0.0000000     0.0000000     0.0000000     0.0000000     0.0000000     0.0000000     0.0000000
     0.0000000     0.0000000     0.0000000     0.0000000     0.0000000     0.0000000     0.0000000
     0.0000000     0.0000000     0.0000000     0.0000000     0.0000000     0.0000000     0.0000000
     0.0000000     0.0000000     0.0000000     0.0000000     0.0000000     0.0000000     0.0000000
     0.0000000     0.0000000     0.0000000     0.0000000     0.0000000     0.0000000     0.0000000

 Ion:   41  E_soc:     -0.1843925
 l=   1
     0.0000000    -0.0306515    -0.0307087
    -0.0306515     0.0000000    -0.0306388
    -0.0307087    -0.0306388     0.0000000
 l=   2
     0.0000000    -0.0000287     0.0000000    -0.0000291    -0.0000384
    -0.0000287     0.0000000    -0.0000268    -0.0000294    -0.0000089
     0.0000000    -0.0000268     0.0000000    -0.0000271     0.0000000
    -0.0000291    -0.0000294    -0.0000271     0.0000000    -0.0000089
    -0.0000384    -0.0000089     0.0000000    -0.0000089     0.0000000
 l=   3
     0.0000000     0.0000000     0.0000000     0.0000000     0.0000000     0.0000000     0.0000000
     0.0000000     0.0000000     0.0000000     0.0000000     0.0000000     0.0000000     0.0000000
     0.0000000     0.0000000     0.0000000     0.0000000     0.0000000     0.0000000     0.0000000
     0.0000000     0.0000000     0.0000000     0.0000000     0.0000000     0.0000000     0.0000000
     0.0000000     0.0000000     0.0000000     0.0000000     0.0000000     0.0000000     0.0000000
     0.0000000     0.0000000     0.0000000     0.0000000     0.0000000     0.0000000     0.0000000
     0.0000000     0.0000000     0.0000000     0.0000000     0.0000000     0.0000000     0.0000000

 Ion:   42  E_soc:     -0.1845511
 l=   1
     0.0000000    -0.0306933    -0.0306966
    -0.0306933     0.0000000    -0.0306975
    -0.0306966    -0.0306975     0.0000000
 l=   2
     0.0000000    -0.0000282     0.0000000    -0.0000280    -0.0000346
    -0.0000282     0.0000000    -0.0000260    -0.0000280    -0.0000087
     0.0000000    -0.0000260     0.0000000    -0.0000260     0.0000000
    -0.0000280    -0.0000280    -0.0000260     0.0000000    -0.0000086
    -0.0000346    -0.0000087     0.0000000    -0.0000086     0.0000000
 l=   3
     0.0000000     0.0000000     0.0000000     0.0000000     0.0000000     0.0000000     0.0000000
     0.0000000     0.0000000     0.0000000     0.0000000     0.0000000     0.0000000     0.0000000
     0.0000000     0.0000000     0.0000000     0.0000000     0.0000000     0.0000000     0.0000000
     0.0000000     0.0000000     0.0000000     0.0000000     0.0000000     0.0000000     0.0000000
     0.0000000     0.0000000     0.0000000     0.0000000     0.0000000     0.0000000     0.0000000
     0.0000000     0.0000000     0.0000000     0.0000000     0.0000000     0.0000000     0.0000000
     0.0000000     0.0000000     0.0000000     0.0000000     0.0000000     0.0000000     0.0000000

 Ion:   43  E_soc:     -0.1847064
 l=   1
     0.0000000    -0.0307182    -0.0307150
    -0.0307182     0.0000000    -0.0307216
    -0.0307150    -0.0307216     0.0000000
 l=   2
     0.0000000    -0.0000296     0.0000000    -0.0000297    -0.0000366
    -0.0000296     0.0000000    -0.0000275    -0.0000295    -0.0000092
     0.0000000    -0.0000275     0.0000000    -0.0000273     0.0000000
    -0.0000297    -0.0000295    -0.0000273     0.0000000    -0.0000091
    -0.0000366    -0.0000092     0.0000000    -0.0000091     0.0000000
 l=   3
     0.0000000     0.0000000     0.0000000     0.0000000     0.0000000     0.0000000     0.0000000
     0.0000000     0.0000000     0.0000000     0.0000000     0.0000000     0.0000000     0.0000000
     0.0000000     0.0000000     0.0000000     0.0000000     0.0000000     0.0000000     0.0000000
     0.0000000     0.0000000     0.0000000     0.0000000     0.0000000     0.0000000     0.0000000
     0.0000000     0.0000000     0.0000000     0.0000000     0.0000000     0.0000000     0.0000000
     0.0000000     0.0000000     0.0000000     0.0000000     0.0000000     0.0000000     0.0000000
     0.0000000     0.0000000     0.0000000     0.0000000     0.0000000     0.0000000     0.0000000

 Ion:   44  E_soc:     -0.1846805
 l=   1
     0.0000000    -0.0307168    -0.0307109
    -0.0307168     0.0000000    -0.0307141
    -0.0307109    -0.0307141     0.0000000
 l=   2
     0.0000000    -0.0000297     0.0000000    -0.0000296    -0.0000364
    -0.0000297     0.0000000    -0.0000274    -0.0000296    -0.0000092
     0.0000000    -0.0000274     0.0000000    -0.0000275     0.0000000
    -0.0000296    -0.0000296    -0.0000275     0.0000000    -0.0000092
    -0.0000364    -0.0000092     0.0000000    -0.0000092     0.0000000
 l=   3
     0.0000000     0.0000000     0.0000000     0.0000000     0.0000000     0.0000000     0.0000000
     0.0000000     0.0000000     0.0000000     0.0000000     0.0000000     0.0000000     0.0000000
     0.0000000     0.0000000     0.0000000     0.0000000     0.0000000     0.0000000     0.0000000
     0.0000000     0.0000000     0.0000000     0.0000000     0.0000000     0.0000000     0.0000000
     0.0000000     0.0000000     0.0000000     0.0000000     0.0000000     0.0000000     0.0000000
     0.0000000     0.0000000     0.0000000     0.0000000     0.0000000     0.0000000     0.0000000
     0.0000000     0.0000000     0.0000000     0.0000000     0.0000000     0.0000000     0.0000000

 Ion:   45  E_soc:     -0.1845494
 l=   1
     0.0000000    -0.0306984    -0.0307030
    -0.0306984     0.0000000    -0.0306846
    -0.0307030    -0.0306846     0.0000000
 l=   2
     0.0000000    -0.0000282     0.0000000    -0.0000281    -0.0000348
    -0.0000282     0.0000000    -0.0000260    -0.0000280    -0.0000087
     0.0000000    -0.0000260     0.0000000    -0.0000261     0.0000000
    -0.0000281    -0.0000280    -0.0000261     0.0000000    -0.0000088
    -0.0000348    -0.0000087     0.0000000    -0.0000088     0.0000000
 l=   3
     0.0000000     0.0000000     0.0000000     0.0000000     0.0000000     0.0000000     0.0000000
     0.0000000     0.0000000     0.0000000     0.0000000     0.0000000     0.0000000     0.0000000
     0.0000000     0.0000000     0.0000000     0.0000000     0.0000000     0.0000000     0.0000000
     0.0000000     0.0000000     0.0000000     0.0000000     0.0000000     0.0000000     0.0000000
     0.0000000     0.0000000     0.0000000     0.0000000     0.0000000     0.0000000     0.0000000
     0.0000000     0.0000000     0.0000000     0.0000000     0.0000000     0.0000000     0.0000000
     0.0000000     0.0000000     0.0000000     0.0000000     0.0000000     0.0000000     0.0000000

 Ion:   46  E_soc:     -0.1847219
 l=   1
     0.0000000    -0.0307161    -0.0307255
    -0.0307161     0.0000000    -0.0307210
    -0.0307255    -0.0307210     0.0000000
 l=   2
     0.0000000    -0.0000296     0.0000000    -0.0000296    -0.0000365
    -0.0000296     0.0000000    -0.0000274    -0.0000297    -0.0000090
     0.0000000    -0.0000274     0.0000000    -0.0000275     0.0000000
    -0.0000296    -0.0000297    -0.0000275     0.0000000    -0.0000091
    -0.0000365    -0.0000090     0.0000000    -0.0000091     0.0000000
 l=   3
     0.0000000     0.0000000     0.0000000     0.0000000     0.0000000     0.0000000     0.0000000
     0.0000000     0.0000000     0.0000000     0.0000000     0.0000000     0.0000000     0.0000000
     0.0000000     0.0000000     0.0000000     0.0000000     0.0000000     0.0000000     0.0000000
     0.0000000     0.0000000     0.0000000     0.0000000     0.0000000     0.0000000     0.0000000
     0.0000000     0.0000000     0.0000000     0.0000000     0.0000000     0.0000000     0.0000000
     0.0000000     0.0000000     0.0000000     0.0000000     0.0000000     0.0000000     0.0000000
     0.0000000     0.0000000     0.0000000     0.0000000     0.0000000     0.0000000     0.0000000

 Ion:   47  E_soc:     -0.1845440
 l=   1
     0.0000000    -0.0306926    -0.0306954
    -0.0306926     0.0000000    -0.0306953
    -0.0306954    -0.0306953     0.0000000
 l=   2
     0.0000000    -0.0000283     0.0000000    -0.0000281    -0.0000348
    -0.0000283     0.0000000    -0.0000261    -0.0000282    -0.0000087
     0.0000000    -0.0000261     0.0000000    -0.0000260     0.0000000
    -0.0000281    -0.0000282    -0.0000260     0.0000000    -0.0000087
    -0.0000348    -0.0000087     0.0000000    -0.0000087     0.0000000
 l=   3
     0.0000000     0.0000000     0.0000000     0.0000000     0.0000000     0.0000000     0.0000000
     0.0000000     0.0000000     0.0000000     0.0000000     0.0000000     0.0000000     0.0000000
     0.0000000     0.0000000     0.0000000     0.0000000     0.0000000     0.0000000     0.0000000
     0.0000000     0.0000000     0.0000000     0.0000000     0.0000000     0.0000000     0.0000000
     0.0000000     0.0000000     0.0000000     0.0000000     0.0000000     0.0000000     0.0000000
     0.0000000     0.0000000     0.0000000     0.0000000     0.0000000     0.0000000     0.0000000
     0.0000000     0.0000000     0.0000000     0.0000000     0.0000000     0.0000000     0.0000000

 Ion:   48  E_soc:     -0.1845579
 l=   1
     0.0000000    -0.0306954    -0.0306970
    -0.0306954     0.0000000    -0.0306982
    -0.0306970    -0.0306982     0.0000000
 l=   2
     0.0000000    -0.0000280     0.0000000    -0.0000283    -0.0000346
    -0.0000280     0.0000000    -0.0000259    -0.0000281    -0.0000088
     0.0000000    -0.0000259     0.0000000    -0.0000260     0.0000000
    -0.0000283    -0.0000281    -0.0000260     0.0000000    -0.0000086
    -0.0000346    -0.0000088     0.0000000    -0.0000086     0.0000000
 l=   3
     0.0000000     0.0000000     0.0000000     0.0000000     0.0000000     0.0000000     0.0000000
     0.0000000     0.0000000     0.0000000     0.0000000     0.0000000     0.0000000     0.0000000
     0.0000000     0.0000000     0.0000000     0.0000000     0.0000000     0.0000000     0.0000000
     0.0000000     0.0000000     0.0000000     0.0000000     0.0000000     0.0000000     0.0000000
     0.0000000     0.0000000     0.0000000     0.0000000     0.0000000     0.0000000     0.0000000
     0.0000000     0.0000000     0.0000000     0.0000000     0.0000000     0.0000000     0.0000000
     0.0000000     0.0000000     0.0000000     0.0000000     0.0000000     0.0000000     0.0000000

 Ion:   49  E_soc:     -0.1846852
 l=   1
     0.0000000    -0.0307189    -0.0307146
    -0.0307189     0.0000000    -0.0307111
    -0.0307146    -0.0307111     0.0000000
 l=   2
     0.0000000    -0.0000297     0.0000000    -0.0000296    -0.0000365
    -0.0000297     0.0000000    -0.0000271    -0.0000296    -0.0000092
     0.0000000    -0.0000271     0.0000000    -0.0000273     0.0000000
    -0.0000296    -0.0000296    -0.0000273     0.0000000    -0.0000092
    -0.0000365    -0.0000092     0.0000000    -0.0000092     0.0000000
 l=   3
     0.0000000     0.0000000     0.0000000     0.0000000     0.0000000     0.0000000     0.0000000
     0.0000000     0.0000000     0.0000000     0.0000000     0.0000000     0.0000000     0.0000000
     0.0000000     0.0000000     0.0000000     0.0000000     0.0000000     0.0000000     0.0000000
     0.0000000     0.0000000     0.0000000     0.0000000     0.0000000     0.0000000     0.0000000
     0.0000000     0.0000000     0.0000000     0.0000000     0.0000000     0.0000000     0.0000000
     0.0000000     0.0000000     0.0000000     0.0000000     0.0000000     0.0000000     0.0000000
     0.0000000     0.0000000     0.0000000     0.0000000     0.0000000     0.0000000     0.0000000

 Ion:   50  E_soc:     -0.1843944
 l=   1
     0.0000000    -0.0306457    -0.0306476
    -0.0306457     0.0000000    -0.0307061
    -0.0306476    -0.0307061     0.0000000
 l=   2
     0.0000000    -0.0000295     0.0000000    -0.0000286    -0.0000358
    -0.0000295     0.0000000    -0.0000273    -0.0000292    -0.0000091
     0.0000000    -0.0000273     0.0000000    -0.0000292     0.0000000
    -0.0000286    -0.0000292    -0.0000292     0.0000000    -0.0000091
    -0.0000358    -0.0000091     0.0000000    -0.0000091     0.0000000
 l=   3
     0.0000000     0.0000000     0.0000000     0.0000000     0.0000000     0.0000000     0.0000000
     0.0000000     0.0000000     0.0000000     0.0000000     0.0000000     0.0000000     0.0000000
     0.0000000     0.0000000     0.0000000     0.0000000     0.0000000     0.0000000     0.0000000
     0.0000000     0.0000000     0.0000000     0.0000000     0.0000000     0.0000000     0.0000000
     0.0000000     0.0000000     0.0000000     0.0000000     0.0000000     0.0000000     0.0000000
     0.0000000     0.0000000     0.0000000     0.0000000     0.0000000     0.0000000     0.0000000
     0.0000000     0.0000000     0.0000000     0.0000000     0.0000000     0.0000000     0.0000000

 Ion:   51  E_soc:     -0.1843887
 l=   1
     0.0000000    -0.0306439    -0.0306519
    -0.0306439     0.0000000    -0.0307015
    -0.0306519    -0.0307015     0.0000000
 l=   2
     0.0000000    -0.0000295     0.0000000    -0.0000286    -0.0000356
    -0.0000295     0.0000000    -0.0000271    -0.0000290    -0.0000091
     0.0000000    -0.0000271     0.0000000    -0.0000290     0.0000000
    -0.0000286    -0.0000290    -0.0000290     0.0000000    -0.0000091
    -0.0000356    -0.0000091     0.0000000    -0.0000091     0.0000000
 l=   3
     0.0000000     0.0000000     0.0000000     0.0000000     0.0000000     0.0000000     0.0000000
     0.0000000     0.0000000     0.0000000     0.0000000     0.0000000     0.0000000     0.0000000
     0.0000000     0.0000000     0.0000000     0.0000000     0.0000000     0.0000000     0.0000000
     0.0000000     0.0000000     0.0000000     0.0000000     0.0000000     0.0000000     0.0000000
     0.0000000     0.0000000     0.0000000     0.0000000     0.0000000     0.0000000     0.0000000
     0.0000000     0.0000000     0.0000000     0.0000000     0.0000000     0.0000000     0.0000000
     0.0000000     0.0000000     0.0000000     0.0000000     0.0000000     0.0000000     0.0000000

 Ion:   52  E_soc:     -0.1845850
 l=   1
     0.0000000    -0.0306930    -0.0307112
    -0.0306930     0.0000000    -0.0306960
    -0.0307112    -0.0306960     0.0000000
 l=   2
     0.0000000    -0.0000289     0.0000000    -0.0000288    -0.0000350
    -0.0000289     0.0000000    -0.0000266    -0.0000287    -0.0000088
     0.0000000    -0.0000266     0.0000000    -0.0000266     0.0000000
    -0.0000288    -0.0000287    -0.0000266     0.0000000    -0.0000088
    -0.0000350    -0.0000088     0.0000000    -0.0000088     0.0000000
 l=   3
     0.0000000     0.0000000     0.0000000     0.0000000     0.0000000     0.0000000     0.0000000
     0.0000000     0.0000000     0.0000000     0.0000000     0.0000000     0.0000000     0.0000000
     0.0000000     0.0000000     0.0000000     0.0000000     0.0000000     0.0000000     0.0000000
     0.0000000     0.0000000     0.0000000     0.0000000     0.0000000     0.0000000     0.0000000
     0.0000000     0.0000000     0.0000000     0.0000000     0.0000000     0.0000000     0.0000000
     0.0000000     0.0000000     0.0000000     0.0000000     0.0000000     0.0000000     0.0000000
     0.0000000     0.0000000     0.0000000     0.0000000     0.0000000     0.0000000     0.0000000

 Ion:   53  E_soc:     -0.1845979
 l=   1
     0.0000000    -0.0306986    -0.0307134
    -0.0306986     0.0000000    -0.0306947
    -0.0307134    -0.0306947     0.0000000
 l=   2
     0.0000000    -0.0000288     0.0000000    -0.0000288    -0.0000352
    -0.0000288     0.0000000    -0.0000266    -0.0000286    -0.0000088
     0.0000000    -0.0000266     0.0000000    -0.0000265     0.0000000
    -0.0000288    -0.0000286    -0.0000265     0.0000000    -0.0000089
    -0.0000352    -0.0000088     0.0000000    -0.0000089     0.0000000
 l=   3
     0.0000000     0.0000000     0.0000000     0.0000000     0.0000000     0.0000000     0.0000000
     0.0000000     0.0000000     0.0000000     0.0000000     0.0000000     0.0000000     0.0000000
     0.0000000     0.0000000     0.0000000     0.0000000     0.0000000     0.0000000     0.0000000
     0.0000000     0.0000000     0.0000000     0.0000000     0.0000000     0.0000000     0.0000000
     0.0000000     0.0000000     0.0000000     0.0000000     0.0000000     0.0000000     0.0000000
     0.0000000     0.0000000     0.0000000     0.0000000     0.0000000     0.0000000     0.0000000
     0.0000000     0.0000000     0.0000000     0.0000000     0.0000000     0.0000000     0.0000000

 Ion:   54  E_soc:     -0.1870247
 l=   1
     0.0000000    -0.0311431    -0.0310571
    -0.0311431     0.0000000    -0.0311397
    -0.0310571    -0.0311397     0.0000000
 l=   2
     0.0000000    -0.0000261     0.0000000    -0.0000260    -0.0000312
    -0.0000261     0.0000000    -0.0000233    -0.0000262    -0.0000082
     0.0000000    -0.0000233     0.0000000    -0.0000232     0.0000000
    -0.0000260    -0.0000262    -0.0000232     0.0000000    -0.0000083
    -0.0000312    -0.0000082     0.0000000    -0.0000083     0.0000000
 l=   3
     0.0000000     0.0000000     0.0000000     0.0000000     0.0000000     0.0000000     0.0000000
     0.0000000     0.0000000     0.0000000     0.0000000     0.0000000     0.0000000     0.0000000
     0.0000000     0.0000000     0.0000000     0.0000000     0.0000000     0.0000000     0.0000000
     0.0000000     0.0000000     0.0000000     0.0000000     0.0000000     0.0000000     0.0000000
     0.0000000     0.0000000     0.0000000     0.0000000     0.0000000     0.0000000     0.0000000
     0.0000000     0.0000000     0.0000000     0.0000000     0.0000000     0.0000000     0.0000000
     0.0000000     0.0000000     0.0000000     0.0000000     0.0000000     0.0000000     0.0000000

 Ion:   55  E_soc:     -0.1869865
 l=   1
     0.0000000    -0.0311417    -0.0310433
    -0.0311417     0.0000000    -0.0311356
    -0.0310433    -0.0311356     0.0000000
 l=   2
     0.0000000    -0.0000259     0.0000000    -0.0000261    -0.0000312
    -0.0000259     0.0000000    -0.0000237    -0.0000261    -0.0000082
     0.0000000    -0.0000237     0.0000000    -0.0000234     0.0000000
    -0.0000261    -0.0000261    -0.0000234     0.0000000    -0.0000082
    -0.0000312    -0.0000082     0.0000000    -0.0000082     0.0000000
 l=   3
     0.0000000     0.0000000     0.0000000     0.0000000     0.0000000     0.0000000     0.0000000
     0.0000000     0.0000000     0.0000000     0.0000000     0.0000000     0.0000000     0.0000000
     0.0000000     0.0000000     0.0000000     0.0000000     0.0000000     0.0000000     0.0000000
     0.0000000     0.0000000     0.0000000     0.0000000     0.0000000     0.0000000     0.0000000
     0.0000000     0.0000000     0.0000000     0.0000000     0.0000000     0.0000000     0.0000000
     0.0000000     0.0000000     0.0000000     0.0000000     0.0000000     0.0000000     0.0000000
     0.0000000     0.0000000     0.0000000     0.0000000     0.0000000     0.0000000     0.0000000

 Ion:   56  E_soc:     -0.1843444
 l=   1
     0.0000000    -0.0306895    -0.0306464
    -0.0306895     0.0000000    -0.0306386
    -0.0306464    -0.0306386     0.0000000
 l=   2
     0.0000000    -0.0000286     0.0000000    -0.0000296    -0.0000356
    -0.0000286     0.0000000    -0.0000291    -0.0000292    -0.0000092
     0.0000000    -0.0000291     0.0000000    -0.0000273     0.0000000
    -0.0000296    -0.0000292    -0.0000273     0.0000000    -0.0000092
    -0.0000356    -0.0000092     0.0000000    -0.0000092     0.0000000
 l=   3
     0.0000000     0.0000000     0.0000000     0.0000000     0.0000000     0.0000000     0.0000000
     0.0000000     0.0000000     0.0000000     0.0000000     0.0000000     0.0000000     0.0000000
     0.0000000     0.0000000     0.0000000     0.0000000     0.0000000     0.0000000     0.0000000
     0.0000000     0.0000000     0.0000000     0.0000000     0.0000000     0.0000000     0.0000000
     0.0000000     0.0000000     0.0000000     0.0000000     0.0000000     0.0000000     0.0000000
     0.0000000     0.0000000     0.0000000     0.0000000     0.0000000     0.0000000     0.0000000
     0.0000000     0.0000000     0.0000000     0.0000000     0.0000000     0.0000000     0.0000000

 Ion:   57  E_soc:     -0.1844216
 l=   1
     0.0000000    -0.0307106    -0.0306472
    -0.0307106     0.0000000    -0.0306556
    -0.0306472    -0.0306556     0.0000000
 l=   2
     0.0000000    -0.0000287     0.0000000    -0.0000295    -0.0000356
    -0.0000287     0.0000000    -0.0000290    -0.0000292    -0.0000092
     0.0000000    -0.0000290     0.0000000    -0.0000272     0.0000000
    -0.0000295    -0.0000292    -0.0000272     0.0000000    -0.0000092
    -0.0000356    -0.0000092     0.0000000    -0.0000092     0.0000000
 l=   3
     0.0000000     0.0000000     0.0000000     0.0000000     0.0000000     0.0000000     0.0000000
     0.0000000     0.0000000     0.0000000     0.0000000     0.0000000     0.0000000     0.0000000
     0.0000000     0.0000000     0.0000000     0.0000000     0.0000000     0.0000000     0.0000000
     0.0000000     0.0000000     0.0000000     0.0000000     0.0000000     0.0000000     0.0000000
     0.0000000     0.0000000     0.0000000     0.0000000     0.0000000     0.0000000     0.0000000
     0.0000000     0.0000000     0.0000000     0.0000000     0.0000000     0.0000000     0.0000000
     0.0000000     0.0000000     0.0000000     0.0000000     0.0000000     0.0000000     0.0000000

 Ion:   58  E_soc:     -0.1845810
 l=   1
     0.0000000    -0.0306952    -0.0306955
    -0.0306952     0.0000000    -0.0307074
    -0.0306955    -0.0307074     0.0000000
 l=   2
     0.0000000    -0.0000287     0.0000000    -0.0000287    -0.0000353
    -0.0000287     0.0000000    -0.0000267    -0.0000289    -0.0000089
     0.0000000    -0.0000267     0.0000000    -0.0000264     0.0000000
    -0.0000287    -0.0000289    -0.0000264     0.0000000    -0.0000089
    -0.0000353    -0.0000089     0.0000000    -0.0000089     0.0000000
 l=   3
     0.0000000     0.0000000     0.0000000     0.0000000     0.0000000     0.0000000     0.0000000
     0.0000000     0.0000000     0.0000000     0.0000000     0.0000000     0.0000000     0.0000000
     0.0000000     0.0000000     0.0000000     0.0000000     0.0000000     0.0000000     0.0000000
     0.0000000     0.0000000     0.0000000     0.0000000     0.0000000     0.0000000     0.0000000
     0.0000000     0.0000000     0.0000000     0.0000000     0.0000000     0.0000000     0.0000000
     0.0000000     0.0000000     0.0000000     0.0000000     0.0000000     0.0000000     0.0000000
     0.0000000     0.0000000     0.0000000     0.0000000     0.0000000     0.0000000     0.0000000

 Ion:   59  E_soc:     -0.1843981
 l=   1
     0.0000000    -0.0306486    -0.0306970
    -0.0306486     0.0000000    -0.0306562
    -0.0306970    -0.0306562     0.0000000
 l=   2
     0.0000000    -0.0000291     0.0000000    -0.0000287    -0.0000382
    -0.0000291     0.0000000    -0.0000273    -0.0000294    -0.0000090
     0.0000000    -0.0000273     0.0000000    -0.0000268     0.0000000
    -0.0000287    -0.0000294    -0.0000268     0.0000000    -0.0000087
    -0.0000382    -0.0000090     0.0000000    -0.0000087     0.0000000
 l=   3
     0.0000000     0.0000000     0.0000000     0.0000000     0.0000000     0.0000000     0.0000000
     0.0000000     0.0000000     0.0000000     0.0000000     0.0000000     0.0000000     0.0000000
     0.0000000     0.0000000     0.0000000     0.0000000     0.0000000     0.0000000     0.0000000
     0.0000000     0.0000000     0.0000000     0.0000000     0.0000000     0.0000000     0.0000000
     0.0000000     0.0000000     0.0000000     0.0000000     0.0000000     0.0000000     0.0000000
     0.0000000     0.0000000     0.0000000     0.0000000     0.0000000     0.0000000     0.0000000
     0.0000000     0.0000000     0.0000000     0.0000000     0.0000000     0.0000000     0.0000000

 Ion:   60  E_soc:     -0.1846084
 l=   1
     0.0000000    -0.0307031    -0.0306962
    -0.0307031     0.0000000    -0.0307123
    -0.0306962    -0.0307123     0.0000000
 l=   2
     0.0000000    -0.0000288     0.0000000    -0.0000288    -0.0000355
    -0.0000288     0.0000000    -0.0000265    -0.0000287    -0.0000089
     0.0000000    -0.0000265     0.0000000    -0.0000264     0.0000000
    -0.0000288    -0.0000287    -0.0000264     0.0000000    -0.0000089
    -0.0000355    -0.0000089     0.0000000    -0.0000089     0.0000000
 l=   3
     0.0000000     0.0000000     0.0000000     0.0000000     0.0000000     0.0000000     0.0000000
     0.0000000     0.0000000     0.0000000     0.0000000     0.0000000     0.0000000     0.0000000
     0.0000000     0.0000000     0.0000000     0.0000000     0.0000000     0.0000000     0.0000000
     0.0000000     0.0000000     0.0000000     0.0000000     0.0000000     0.0000000     0.0000000
     0.0000000     0.0000000     0.0000000     0.0000000     0.0000000     0.0000000     0.0000000
     0.0000000     0.0000000     0.0000000     0.0000000     0.0000000     0.0000000     0.0000000
     0.0000000     0.0000000     0.0000000     0.0000000     0.0000000     0.0000000     0.0000000

 Ion:   61  E_soc:     -0.1844004
 l=   1
     0.0000000    -0.0306469    -0.0307027
    -0.0306469     0.0000000    -0.0306536
    -0.0307027    -0.0306536     0.0000000
 l=   2
     0.0000000    -0.0000290     0.0000000    -0.0000285    -0.0000382
    -0.0000290     0.0000000    -0.0000271    -0.0000295    -0.0000090
     0.0000000    -0.0000271     0.0000000    -0.0000267     0.0000000
    -0.0000285    -0.0000295    -0.0000267     0.0000000    -0.0000089
    -0.0000382    -0.0000090     0.0000000    -0.0000089     0.0000000
 l=   3
     0.0000000     0.0000000     0.0000000     0.0000000     0.0000000     0.0000000     0.0000000
     0.0000000     0.0000000     0.0000000     0.0000000     0.0000000     0.0000000     0.0000000
     0.0000000     0.0000000     0.0000000     0.0000000     0.0000000     0.0000000     0.0000000
     0.0000000     0.0000000     0.0000000     0.0000000     0.0000000     0.0000000     0.0000000
     0.0000000     0.0000000     0.0000000     0.0000000     0.0000000     0.0000000     0.0000000
     0.0000000     0.0000000     0.0000000     0.0000000     0.0000000     0.0000000     0.0000000
     0.0000000     0.0000000     0.0000000     0.0000000     0.0000000     0.0000000     0.0000000

 Ion:   62  E_soc:     -0.1844155
 l=   1
     0.0000000    -0.0307025    -0.0306487
    -0.0307025     0.0000000    -0.0306593
    -0.0306487    -0.0306593     0.0000000
 l=   2
     0.0000000    -0.0000291     0.0000000    -0.0000295    -0.0000364
    -0.0000291     0.0000000    -0.0000282    -0.0000287    -0.0000100
     0.0000000    -0.0000282     0.0000000    -0.0000265     0.0000000
    -0.0000295    -0.0000287    -0.0000265     0.0000000    -0.0000090
    -0.0000364    -0.0000100     0.0000000    -0.0000090     0.0000000
 l=   3
     0.0000000     0.0000000     0.0000000     0.0000000     0.0000000     0.0000000     0.0000000
     0.0000000     0.0000000     0.0000000     0.0000000     0.0000000     0.0000000     0.0000000
     0.0000000     0.0000000     0.0000000     0.0000000     0.0000000     0.0000000     0.0000000
     0.0000000     0.0000000     0.0000000     0.0000000     0.0000000     0.0000000     0.0000000
     0.0000000     0.0000000     0.0000000     0.0000000     0.0000000     0.0000000     0.0000000
     0.0000000     0.0000000     0.0000000     0.0000000     0.0000000     0.0000000     0.0000000
     0.0000000     0.0000000     0.0000000     0.0000000     0.0000000     0.0000000     0.0000000

 Ion:   63  E_soc:     -0.1869985
 l=   1
     0.0000000    -0.0311437    -0.0311381
    -0.0311437     0.0000000    -0.0310443
    -0.0311381    -0.0310443     0.0000000
 l=   2
     0.0000000    -0.0000262     0.0000000    -0.0000260    -0.0000317
    -0.0000262     0.0000000    -0.0000241    -0.0000261    -0.0000076
     0.0000000    -0.0000241     0.0000000    -0.0000236     0.0000000
    -0.0000260    -0.0000261    -0.0000236     0.0000000    -0.0000079
    -0.0000317    -0.0000076     0.0000000    -0.0000079     0.0000000
 l=   3
     0.0000000     0.0000000     0.0000000     0.0000000     0.0000000     0.0000000     0.0000000
     0.0000000     0.0000000     0.0000000     0.0000000     0.0000000     0.0000000     0.0000000
     0.0000000     0.0000000     0.0000000     0.0000000     0.0000000     0.0000000     0.0000000
     0.0000000     0.0000000     0.0000000     0.0000000     0.0000000     0.0000000     0.0000000
     0.0000000     0.0000000     0.0000000     0.0000000     0.0000000     0.0000000     0.0000000
     0.0000000     0.0000000     0.0000000     0.0000000     0.0000000     0.0000000     0.0000000
     0.0000000     0.0000000     0.0000000     0.0000000     0.0000000     0.0000000     0.0000000

 Ion:   64  E_soc:     -0.1843869
 l=   1
     0.0000000    -0.0307008    -0.0306467
    -0.0307008     0.0000000    -0.0306489
    -0.0306467    -0.0306489     0.0000000
 l=   2
     0.0000000    -0.0000291     0.0000000    -0.0000294    -0.0000361
    -0.0000291     0.0000000    -0.0000284    -0.0000285    -0.0000099
     0.0000000    -0.0000284     0.0000000    -0.0000267     0.0000000
    -0.0000294    -0.0000285    -0.0000267     0.0000000    -0.0000091
    -0.0000361    -0.0000099     0.0000000    -0.0000091     0.0000000
 l=   3
     0.0000000     0.0000000     0.0000000     0.0000000     0.0000000     0.0000000     0.0000000
     0.0000000     0.0000000     0.0000000     0.0000000     0.0000000     0.0000000     0.0000000
     0.0000000     0.0000000     0.0000000     0.0000000     0.0000000     0.0000000     0.0000000
     0.0000000     0.0000000     0.0000000     0.0000000     0.0000000     0.0000000     0.0000000
     0.0000000     0.0000000     0.0000000     0.0000000     0.0000000     0.0000000     0.0000000
     0.0000000     0.0000000     0.0000000     0.0000000     0.0000000     0.0000000     0.0000000
     0.0000000     0.0000000     0.0000000     0.0000000     0.0000000     0.0000000     0.0000000

 Ion:   65  E_soc:     -0.1870159
 l=   1
     0.0000000    -0.0311446    -0.0311397
    -0.0311446     0.0000000    -0.0310508
    -0.0311397    -0.0310508     0.0000000
 l=   2
     0.0000000    -0.0000263     0.0000000    -0.0000260    -0.0000314
    -0.0000263     0.0000000    -0.0000240    -0.0000259    -0.0000077
     0.0000000    -0.0000240     0.0000000    -0.0000237     0.0000000
    -0.0000260    -0.0000259    -0.0000237     0.0000000    -0.0000078
    -0.0000314    -0.0000077     0.0000000    -0.0000078     0.0000000
 l=   3
     0.0000000     0.0000000     0.0000000     0.0000000     0.0000000     0.0000000     0.0000000
     0.0000000     0.0000000     0.0000000     0.0000000     0.0000000     0.0000000     0.0000000
     0.0000000     0.0000000     0.0000000     0.0000000     0.0000000     0.0000000     0.0000000
     0.0000000     0.0000000     0.0000000     0.0000000     0.0000000     0.0000000     0.0000000
     0.0000000     0.0000000     0.0000000     0.0000000     0.0000000     0.0000000     0.0000000
     0.0000000     0.0000000     0.0000000     0.0000000     0.0000000     0.0000000     0.0000000
     0.0000000     0.0000000     0.0000000     0.0000000     0.0000000     0.0000000     0.0000000



 total charge

# of ion       s       p       d       tot
------------------------------------------
    1        0.411   0.280   9.581  10.273
    2        0.420   0.293   9.581  10.294
    3        0.420   0.293   9.581  10.294
    4        0.419   0.294   9.581  10.294
    5        0.420   0.293   9.581  10.294
    6        0.419   0.294   9.581  10.294
    7        0.419   0.294   9.581  10.294
    8        0.418   0.291   9.581  10.290
    9        0.420   0.293   9.581  10.294
   10        0.411   0.280   9.581  10.273
   11        0.419   0.294   9.581  10.294
   12        0.420   0.293   9.581  10.294
   13        0.419   0.294   9.581  10.294
   14        0.420   0.293   9.581  10.294
   15        0.418   0.291   9.581  10.290
   16        0.419   0.294   9.581  10.294
   17        0.419   0.294   9.581  10.294
   18        0.420   0.293   9.581  10.294
   19        0.418   0.291   9.581  10.290
   20        0.419   0.294   9.581  10.294
   21        0.420   0.293   9.581  10.294
   22        0.411   0.280   9.581  10.273
   23        0.419   0.294   9.581  10.294
   24        0.420   0.293   9.581  10.294
   25        0.420   0.293   9.581  10.294
   26        0.419   0.294   9.581  10.294
   27        0.419   0.294   9.581  10.294
   28        0.418   0.291   9.581  10.290
   29        0.411   0.280   9.581  10.273
   30        0.420   0.293   9.581  10.294
   31        0.420   0.293   9.581  10.294
   32        0.419   0.294   9.581  10.294
   33        0.733   0.156   9.553  10.442
   34        1.295   2.225   0.017   3.537
   35        1.306   2.198   0.017   3.521
   36        1.295   2.223   0.016   3.534
   37        1.295   2.225   0.017   3.537
   38        1.295   2.225   0.017   3.537
   39        1.306   2.198   0.017   3.521
   40        1.295   2.223   0.016   3.534
   41        1.295   2.225   0.017   3.537
   42        1.294   2.221   0.016   3.532
   43        1.295   2.222   0.017   3.533
   44        1.295   2.222   0.017   3.533
   45        1.294   2.221   0.016   3.532
   46        1.295   2.222   0.017   3.533
   47        1.294   2.221   0.016   3.532
   48        1.294   2.221   0.016   3.532
   49        1.295   2.222   0.017   3.533
   50        1.295   2.225   0.017   3.537
   51        1.295   2.225   0.017   3.537
   52        1.295   2.223   0.016   3.534
   53        1.295   2.223   0.016   3.534
   54        1.306   2.198   0.017   3.521
   55        1.306   2.198   0.017   3.521
   56        1.295   2.225   0.017   3.537
   57        1.295   2.225   0.017   3.537
   58        1.295   2.223   0.016   3.534
   59        1.295   2.225   0.017   3.537
   60        1.295   2.223   0.016   3.534
   61        1.295   2.225   0.017   3.537
   62        1.295   2.225   0.017   3.537
   63        1.306   2.198   0.017   3.521
   64        1.295   2.225   0.017   3.537
   65        1.306   2.198   0.017   3.521
--------------------------------------------------
tot         55.618  80.481 316.678 452.776



 magnetization (x)

# of ion       s       p       d       tot
------------------------------------------
    1       -0.005  -0.004   0.003  -0.006
    2       -0.005  -0.003   0.003  -0.005
    3       -0.004  -0.003   0.003  -0.005
    4       -0.004  -0.003   0.003  -0.005
    5       -0.004  -0.003   0.003  -0.005
    6       -0.004  -0.003   0.003  -0.005
    7       -0.004  -0.003   0.003  -0.005
    8       -0.004  -0.003   0.003  -0.005
    9       -0.004  -0.003   0.003  -0.005
   10       -0.005  -0.004   0.003  -0.006
   11       -0.004  -0.003   0.003  -0.005
   12       -0.005  -0.003   0.003  -0.005
   13       -0.004  -0.003   0.003  -0.005
   14       -0.004  -0.003   0.003  -0.005
   15       -0.004  -0.003   0.003  -0.005
   16       -0.004  -0.003   0.003  -0.005
   17       -0.004  -0.003   0.003  -0.005
   18       -0.004  -0.003   0.003  -0.005
   19       -0.004  -0.003   0.003  -0.005
   20       -0.004  -0.003   0.003  -0.005
   21       -0.005  -0.003   0.003  -0.005
   22       -0.005  -0.004   0.003  -0.006
   23       -0.004  -0.003   0.003  -0.005
   24       -0.005  -0.003   0.003  -0.005
   25       -0.005  -0.003   0.003  -0.005
   26       -0.004  -0.003   0.003  -0.005
   27       -0.004  -0.003   0.003  -0.005
   28       -0.004  -0.003   0.003  -0.005
   29       -0.005  -0.004   0.003  -0.006
   30       -0.004  -0.003   0.003  -0.005
   31       -0.004  -0.003   0.003  -0.005
   32       -0.004  -0.003   0.003  -0.005
   33        0.016  -0.003   0.002   0.015
   34        0.007   0.022  -0.000   0.029
   35        0.007   0.025  -0.000   0.032
   36        0.007   0.022  -0.000   0.029
   37        0.007   0.022  -0.000   0.029
   38        0.007   0.022  -0.000   0.029
   39        0.007   0.025  -0.000   0.032
   40        0.007   0.022  -0.000   0.029
   41        0.007   0.022  -0.000   0.029
   42        0.007   0.022  -0.000   0.029
   43        0.008   0.022  -0.000   0.030
   44        0.008   0.022  -0.000   0.030
   45        0.007   0.022  -0.000   0.029
   46        0.008   0.022  -0.000   0.030
   47        0.007   0.022  -0.000   0.029
   48        0.007   0.022  -0.000   0.029
   49        0.007   0.022  -0.000   0.030
   50        0.007   0.022  -0.000   0.029
   51        0.007   0.022  -0.000   0.029
   52        0.007   0.022  -0.000   0.029
   53        0.007   0.022  -0.000   0.029
   54        0.007   0.025  -0.000   0.032
   55        0.007   0.025  -0.000   0.032
   56        0.007   0.022  -0.000   0.029
   57        0.007   0.022  -0.000   0.029
   58        0.007   0.022  -0.000   0.029
   59        0.007   0.022  -0.000   0.029
   60        0.007   0.022  -0.000   0.029
   61        0.007   0.022  -0.000   0.029
   62        0.007   0.022  -0.000   0.029
   63        0.007   0.025  -0.000   0.032
   64        0.007   0.022  -0.000   0.029
   65        0.007   0.025  -0.000   0.032
--------------------------------------------------
tot          0.107   0.619   0.081   0.807



 magnetization (y)

# of ion       s       p       d       tot
------------------------------------------
    1       -0.005  -0.004   0.003  -0.006
    2       -0.004  -0.003   0.003  -0.005
    3       -0.005  -0.003   0.003  -0.005
    4       -0.004  -0.003   0.003  -0.005
    5       -0.004  -0.003   0.003  -0.005
    6       -0.004  -0.003   0.003  -0.005
    7       -0.004  -0.003   0.003  -0.005
    8       -0.004  -0.003   0.003  -0.005
    9       -0.004  -0.003   0.003  -0.005
   10       -0.005  -0.004   0.003  -0.006
   11       -0.004  -0.003   0.003  -0.005
   12       -0.004  -0.003   0.003  -0.005
   13       -0.004  -0.003   0.003  -0.005
   14       -0.005  -0.003   0.003  -0.005
   15       -0.004  -0.003   0.003  -0.005
   16       -0.004  -0.003   0.003  -0.005
   17       -0.004  -0.003   0.003  -0.005
   18       -0.005  -0.003   0.003  -0.005
   19       -0.004  -0.003   0.003  -0.005
   20       -0.004  -0.003   0.003  -0.005
   21       -0.005  -0.003   0.003  -0.005
   22       -0.005  -0.004   0.003  -0.006
   23       -0.004  -0.003   0.003  -0.005
   24       -0.004  -0.003   0.003  -0.005
   25       -0.004  -0.003   0.003  -0.005
   26       -0.004  -0.003   0.003  -0.005
   27       -0.004  -0.003   0.003  -0.005
   28       -0.004  -0.003   0.003  -0.005
   29       -0.005  -0.004   0.003  -0.006
   30       -0.004  -0.003   0.003  -0.005
   31       -0.004  -0.003   0.003  -0.005
   32       -0.004  -0.003   0.003  -0.005
   33        0.016  -0.003   0.002   0.015
   34        0.007   0.022  -0.000   0.029
   35        0.007   0.025  -0.000   0.032
   36        0.007   0.022  -0.000   0.029
   37        0.007   0.022  -0.000   0.029
   38        0.007   0.022  -0.000   0.029
   39        0.007   0.025  -0.000   0.032
   40        0.007   0.022  -0.000   0.029
   41        0.007   0.022  -0.000   0.029
   42        0.007   0.022  -0.000   0.029
   43        0.008   0.022  -0.000   0.030
   44        0.008   0.022  -0.000   0.030
   45        0.007   0.022  -0.000   0.029
   46        0.008   0.022  -0.000   0.030
   47        0.007   0.022  -0.000   0.029
   48        0.007   0.022  -0.000   0.029
   49        0.007   0.022  -0.000   0.030
   50        0.007   0.022  -0.000   0.029
   51        0.007   0.022  -0.000   0.029
   52        0.007   0.022  -0.000   0.029
   53        0.007   0.022  -0.000   0.029
   54        0.007   0.025  -0.000   0.032
   55        0.007   0.025  -0.000   0.032
   56        0.007   0.022  -0.000   0.029
   57        0.007   0.022  -0.000   0.029
   58        0.007   0.022  -0.000   0.029
   59        0.007   0.022  -0.000   0.029
   60        0.007   0.022  -0.000   0.029
   61        0.007   0.022  -0.000   0.029
   62        0.007   0.022  -0.000   0.029
   63        0.007   0.025  -0.000   0.032
   64        0.007   0.022  -0.000   0.029
   65        0.007   0.025  -0.000   0.032
--------------------------------------------------
tot          0.107   0.619   0.081   0.807



 magnetization (z)

# of ion       s       p       d       tot
------------------------------------------
    1       -0.005  -0.004   0.003  -0.006
    2       -0.004  -0.003   0.003  -0.005
    3       -0.004  -0.003   0.003  -0.005
    4       -0.004  -0.003   0.003  -0.005
    5       -0.005  -0.003   0.003  -0.005
    6       -0.004  -0.003   0.003  -0.005
    7       -0.004  -0.003   0.003  -0.005
    8       -0.004  -0.003   0.003  -0.005
    9       -0.005  -0.003   0.003  -0.005
   10       -0.005  -0.004   0.003  -0.006
   11       -0.004  -0.003   0.003  -0.005
   12       -0.004  -0.003   0.003  -0.005
   13       -0.004  -0.003   0.003  -0.005
   14       -0.004  -0.003   0.003  -0.005
   15       -0.004  -0.003   0.003  -0.005
   16       -0.004  -0.003   0.003  -0.005
   17       -0.004  -0.003   0.003  -0.005
   18       -0.005  -0.003   0.003  -0.005
   19       -0.004  -0.003   0.003  -0.005
   20       -0.004  -0.003   0.003  -0.005
   21       -0.004  -0.003   0.003  -0.005
   22       -0.005  -0.004   0.003  -0.006
   23       -0.004  -0.003   0.003  -0.005
   24       -0.005  -0.003   0.003  -0.005
   25       -0.004  -0.003   0.003  -0.005
   26       -0.004  -0.003   0.003  -0.005
   27       -0.004  -0.003   0.003  -0.005
   28       -0.004  -0.003   0.003  -0.005
   29       -0.005  -0.004   0.003  -0.006
   30       -0.004  -0.003   0.003  -0.005
   31       -0.005  -0.003   0.003  -0.005
   32       -0.004  -0.003   0.003  -0.005
   33        0.016  -0.003   0.002   0.015
   34        0.007   0.022  -0.000   0.029
   35        0.007   0.025  -0.000   0.032
   36        0.007   0.022  -0.000   0.029
   37        0.007   0.022  -0.000   0.029
   38        0.007   0.022  -0.000   0.029
   39        0.007   0.025  -0.000   0.032
   40        0.007   0.022  -0.000   0.029
   41        0.007   0.022  -0.000   0.029
   42        0.007   0.022  -0.000   0.029
   43        0.008   0.022  -0.000   0.030
   44        0.008   0.022  -0.000   0.030
   45        0.007   0.022  -0.000   0.029
   46        0.008   0.022  -0.000   0.030
   47        0.007   0.022  -0.000   0.029
   48        0.007   0.022  -0.000   0.029
   49        0.007   0.022  -0.000   0.030
   50        0.007   0.022  -0.000   0.029
   51        0.007   0.022  -0.000   0.029
   52        0.007   0.022  -0.000   0.029
   53        0.007   0.022  -0.000   0.029
   54        0.007   0.025  -0.000   0.032
   55        0.007   0.025  -0.000   0.032
   56        0.007   0.022  -0.000   0.029
   57        0.007   0.022  -0.000   0.029
   58        0.007   0.022  -0.000   0.029
   59        0.007   0.022  -0.000   0.029
   60        0.007   0.022  -0.000   0.029
   61        0.007   0.022  -0.000   0.029
   62        0.007   0.022  -0.000   0.029
   63        0.007   0.025  -0.000   0.032
   64        0.007   0.022  -0.000   0.029
   65        0.007   0.025  -0.000   0.032
--------------------------------------------------
tot          0.107   0.619   0.081   0.807


 total amount of memory used by VASP MPI-rank0   325622. kBytes
=======================================================================

   base                                    :      30000. kBytes
   nonl-proj                               :      42375. kBytes
   fftplans                                :      14364. kBytes
   grid                                    :      37158. kBytes
   one-center                              :       1057. kBytes
   HF                                      :        129. kBytes
   nonlr-proj                              :      12683. kBytes
   wavefun                                 :      20346. kBytes
   fock_wrk                                :     167510. kBytes

  
  
 General timing and accounting informations for this job:
 ========================================================
  
                  Total CPU time used (sec):     1309.146
                            User time (sec):     1276.900
                          System time (sec):       32.247
                         Elapsed time (sec):     1350.934
  
                   Maximum memory used (kb):     1273424.
                   Average memory used (kb):          N/A
  
                          Minor page faults:       753451
                          Major page faults:          203
                 Voluntary context switches:         6172
