 vasp.6.5.1 10Mar25 (build Nov  5 2025 10:40:17) complex                         
 executed on        HPECrayEX_GCC date 2025.12.22  19:12:41
 running 4608 mpi-ranks, with    1 threads/rank, on   16 nodes
 distrk:  each k-point on 2304 cores,    2 groups
 distr:  one band on NCORE=  16 cores,  144 groups


--------------------------------------------------------------------------------------------------------


 INCAR:
   AEXX = 0.25
   ENCUT = 450
   ICORELEVEL = 0
   NSW = 0
   LSORBIT = True
   EDIFF = 1e-06
   EDIFFG = -0.01
   ALGO = All
   ADDGRID = True
   HFSCREEN = 0.2
   IBRION = -1
   ICHARG = 1
   ISIF = 2
   ISYM = 0
   ISMEAR = 0
   LASPH = True
   LHFCALC = True
   LORBIT = 11
   LREAL = False
   LVHAR = True
   LWAVE = True
   NEDOS = 2000
   NELM = 6
   PREC = Accurate
   PRECFOCK = Fast
   SIGMA = 0.05
   NELECT = 588
   NCORE = 16
   KPAR = 2

 POTCAR:    PAW_PBE Cd 06Sep2000                  
 POTCAR:    PAW_PBE Te 08Apr2002                  
 -----------------------------------------------------------------------------
|                                                                             |
|           W    W    AA    RRRRR   N    N  II  N    N   GGGG   !!!           |
|           W    W   A  A   R    R  NN   N  II  NN   N  G    G  !!!           |
|           W    W  A    A  R    R  N N  N  II  N N  N  G       !!!           |
|           W WW W  AAAAAA  RRRRR   N  N N  II  N  N N  G  GGG   !            |
|           WW  WW  A    A  R   R   N   NN  II  N   NN  G    G                |
|           W    W  A    A  R    R  N    N  II  N    N   GGGG   !!!           |
|                                                                             |
|     You requested a magnetic or noncollinear calculation, but did not       |
|     specify the initial magnetic moment with the MAGMOM tag. Note that      |
|     a default of 1 will be used for all atoms. This ferromagnetic setup     |
|     may break the symmetry of the crystal, in particular it may rule        |
|     out finding an antiferromagnetic solution. Thence, we recommend         |
|     setting the initial magnetic moment manually or verifying carefully     |
|     that this magnetic setup is desired.                                    |
|                                                                             |
 -----------------------------------------------------------------------------

 POTCAR:    PAW_PBE Cd 06Sep2000                  
   VRHFIN =Cd : s2 d10                                                                              
   LEXCH  = PE                                                                                      
   EATOM  =  1293.1815 eV,   95.0462 Ry                                                             
                                                                                                    
   TITEL  = PAW_PBE Cd 06Sep2000                                                                    
   LULTRA =        F    use ultrasoft PP ?                                                          
   IUNSCR =        1    unscreen: 0-lin 1-nonlin 2-no                                               
   RPACOR =    2.000    partial core radius                                                         
   POMASS =  112.411; ZVAL   =   12.000    mass and valenz                                          
   RCORE  =    2.300    outmost cutoff radius                                                       
   RWIGS  =    2.980; RWIGS  =    1.577    wigner-seitz radius (au A)                               
   ENMAX  =  274.336; ENMIN  =  205.752 eV                                                          
   RCLOC  =    2.054    cutoff for local pot                                                        
   LCOR   =        T    correct aug charges                                                         
   LPAW   =        T    paw PP                                                                      
   EAUG   =  456.106                                                                                
   DEXC   =    0.000                                                                                
   RMAX   =    2.358    core radius for proj-oper                                                   
   RAUG   =    1.300    factor for augmentation sphere                                              
   RDEP   =    2.450    radius for radial grids                                                     
   RDEPT  =    1.955    core radius for aug-charge                                                  
                                                                                                    
   Atomic configuration                                                                             
   12 entries                                                                                       
     n  l   j            E        occ.                                                              
     1  0  0.50    -26519.7817   2.0000                                                             
     2  0  0.50     -3936.9612   2.0000                                                             
     2  1  1.50     -3532.2230   6.0000                                                             
     3  0  0.50      -733.7908   2.0000                                                             
     3  1  1.50      -601.0792   6.0000                                                             
     3  2  2.50      -393.5307  10.0000                                                             
     4  0  0.50      -105.8977   2.0000                                                             
     4  1  1.50       -66.9488   6.0000                                                             
     4  2  2.50       -11.7331  10.0000                                                             
     5  0  0.50        -5.6592   2.0000                                                             
     5  1  0.50        -1.3606   0.0000                                                             
     4  3  2.50        -1.3606   0.0000                                                             
   Description                                                                                      
     l       E           TYP  RCUT    TYP  RCUT                                                     
     2    -11.7331479     23  2.300                                                                 
     2    -13.0937305     23  2.300                                                                 
     0     -5.6591502     23  2.300                                                                 
     0     -1.5561433     23  2.300                                                                 
     1     -2.7211652     23  2.300                                                                 
     1      8.3548275     23  2.300                                                                 
  local pseudopotential read in
  partial core-charges read in
  partial kinetic energy density read in
  atomic valenz-charges read in
  non local Contribution for L=           2  read in
    real space projection operators read in
  non local Contribution for L=           2  read in
    real space projection operators read in
  non local Contribution for L=           0  read in
    real space projection operators read in
  non local Contribution for L=           0  read in
    real space projection operators read in
  non local Contribution for L=           1  read in
    real space projection operators read in
  non local Contribution for L=           1  read in
    real space projection operators read in
    PAW grid and wavefunctions read in

   number of l-projection  operators is LMAX  =           6
   number of lm-projection operators is LMMAX =          18

 POTCAR:    PAW_PBE Te 08Apr2002                  
   VRHFIN =Te: s2p4                                                                                 
   LEXCH  = PE                                                                                      
   EATOM  =   223.2721 eV,   16.4100 Ry                                                             
                                                                                                    
   TITEL  = PAW_PBE Te 08Apr2002                                                                    
   LULTRA =        F    use ultrasoft PP ?                                                          
   IUNSCR =        1    unscreen: 0-lin 1-nonlin 2-no                                               
   RPACOR =    2.200    partial core radius                                                         
   POMASS =  127.600; ZVAL   =    6.000    mass and valenz                                          
   RCORE  =    2.300    outmost cutoff radius                                                       
   RWIGS  =    2.900; RWIGS  =    1.535    wigner-seitz radius (au A)                               
   ENMAX  =  174.982; ENMIN  =  131.236 eV                                                          
   ICORE  =        3    local potential                                                             
   LCOR   =        T    correct aug charges                                                         
   LPAW   =        T    paw PP                                                                      
   EAUG   =  368.792                                                                                
   DEXC   =    0.000                                                                                
   RMAX   =    2.345    core radius for proj-oper                                                   
   RAUG   =    1.300    factor for augmentation sphere                                              
   RDEP   =    2.397    radius for radial grids                                                     
   RDEPT  =    2.174    core radius for aug-charge                                                  
                                                                                                    
   Atomic configuration                                                                             
   13 entries                                                                                       
     n  l   j            E        occ.                                                              
     1  0  0.50    -31621.2075   2.0000                                                             
     2  0  0.50     -4848.7941   2.0000                                                             
     2  1  1.50     -4352.1960   6.0000                                                             
     3  0  0.50      -964.9612   2.0000                                                             
     3  1  1.50      -803.6179   6.0000                                                             
     3  2  2.50      -559.8710  10.0000                                                             
     4  0  0.50      -164.3522   2.0000                                                             
     4  1  1.50      -114.3756   6.0000                                                             
     4  2  2.50       -41.6483  10.0000                                                             
     5  0  0.50       -15.1072   2.0000                                                             
     5  1  0.50        -5.9526   4.0000                                                             
     5  2  1.50        -5.4423   0.0000                                                             
     4  3  2.50        -5.4423   0.0000                                                             
   Description                                                                                      
     l       E           TYP  RCUT    TYP  RCUT                                                     
     0    -15.1072389     23  2.300                                                                 
     0    -16.4678215     23  2.300                                                                 
     1     -5.9526306     23  2.300                                                                 
     1     -2.4873968     23  2.300                                                                 
     2     -5.4423304     23  2.300                                                                 
     3     -1.3605826     23  2.300                                                                 
  local pseudopotential read in
  partial core-charges read in
  partial kinetic energy density read in
  atomic valenz-charges read in
  non local Contribution for L=           0  read in
    real space projection operators read in
  non local Contribution for L=           0  read in
    real space projection operators read in
  non local Contribution for L=           1  read in
    real space projection operators read in
  non local Contribution for L=           1  read in
    real space projection operators read in
  non local Contribution for L=           2  read in
    real space projection operators read in
    PAW grid and wavefunctions read in

   number of l-projection  operators is LMAX  =           5
   number of lm-projection operators is LMMAX =          13

 -----------------------------------------------------------------------------
|                                                                             |
|               ----> ADVICE to this user running VASP <----                  |
|                                                                             |
|     You have a (more or less) 'large supercell' and for larger cells it     |
|     might be more efficient to use real-space projection operators.         |
|     Therefore, try LREAL= Auto in the INCAR file.                           |
|     Mind: For very accurate calculation, you might also keep the            |
|     reciprocal projection scheme (i.e. LREAL=.FALSE.).                      |
|                                                                             |
 -----------------------------------------------------------------------------

  PAW_PBE Cd 06Sep2000                  :
 energy of atom  1       EATOM=-1293.1815
 kinetic energy error for atom=    0.0084 (will be added to EATOM!!)
  PAW_PBE Te 08Apr2002                  :
 energy of atom  2       EATOM= -223.2721
 kinetic energy error for atom=    0.0008 (will be added to EATOM!!)


 POSCAR: Cd33 Te32
  positions in direct lattice
  No initial velocities read in


 exchange-correlation table for PE
   RHO(1)=    0.500       N(1)  =     2000
   RHO(2)=  100.500       N(2)  =     4000



--------------------------------------------------------------------------------------------------------


 ion  position               nearest neighbor table
   1  0.004  0.996  0.004-  44 2.79  35 2.93  54 2.93  65 2.93  33 2.94
   2  0.001  0.999  0.497-  55 2.82  34 2.82  64 2.82  45 2.84
   3  0.001  0.503  0.001-  63 2.82  56 2.82  37 2.82  42 2.84
   4  1.000  0.501  0.499-  57 2.82  62 2.82  36 2.82  43 2.84
   5  0.497  0.999  0.001-  39 2.82  50 2.82  61 2.82  48 2.84
   6  0.499  0.000  0.499-  38 2.82  51 2.82  60 2.82  49 2.84
   7  0.499  0.501  1.000-  41 2.82  59 2.82  52 2.82  46 2.84
   8  0.501  0.499  0.501-  47 2.82  40 2.83  53 2.83  58 2.83
   9  0.001  0.251  0.253-  54 2.82  34 2.82  62 2.82  42 2.84
  10  0.004  0.254  0.746-  43 2.79  35 2.93  55 2.93  63 2.93  33 2.94
  11  1.000  0.749  0.251-  56 2.82  64 2.82  36 2.82  44 2.84
  12  0.001  0.747  0.749-  65 2.82  57 2.82  37 2.82  45 2.84
  13  0.499  0.250  0.251-  38 2.82  50 2.82  58 2.82  46 2.84
  14  0.497  0.251  0.749-  39 2.82  51 2.82  59 2.82  47 2.84
  15  0.501  0.751  0.249-  48 2.82  40 2.83  52 2.83  60 2.83
  16  0.499  0.749  0.750-  41 2.82  61 2.82  53 2.82  49 2.84
  17  0.251  0.000  0.251-  34 2.82  50 2.82  60 2.82  44 2.84
  18  0.253  0.999  0.749-  35 2.82  51 2.82  61 2.82  45 2.84
  19  0.249  0.499  0.249-  42 2.82  36 2.83  52 2.83  58 2.83
  20  0.251  0.501  0.750-  37 2.82  59 2.82  53 2.82  43 2.84
  21  0.749  0.999  0.253-  54 2.82  38 2.82  64 2.82  48 2.84
  22  0.746  0.996  0.746-  49 2.79  39 2.93  55 2.93  65 2.93  33 2.94
  23  0.750  0.501  0.251-  56 2.82  62 2.82  40 2.82  46 2.84
  24  0.749  0.503  0.749-  63 2.82  57 2.82  41 2.82  47 2.84
  25  0.253  0.251  0.001-  35 2.82  50 2.82  59 2.82  42 2.84
  26  0.251  0.250  0.499-  34 2.82  51 2.82  58 2.82  43 2.84
  27  0.251  0.749  1.000-  37 2.82  61 2.82  52 2.82  44 2.84
  28  0.249  0.751  0.501-  45 2.82  36 2.83  53 2.83  60 2.83
  29  0.746  0.254  0.004-  46 2.79  39 2.93  54 2.93  63 2.93  33 2.94
  30  0.749  0.251  0.497-  55 2.82  38 2.82  62 2.82  47 2.84
  31  0.749  0.747  0.001-  65 2.82  56 2.82  41 2.82  48 2.84
  32  0.750  0.749  0.499-  57 2.82  64 2.82  40 2.82  49 2.84
  33  0.875  0.125  0.875-   1 2.94  10 2.94  22 2.94  29 2.94  35 3.37  39 3.37  54 3.37  55 3.37
                            63 3.37  65 3.37
  34  0.127  0.125  0.375-  17 2.82  26 2.82   2 2.82   9 2.82
  35  0.133  0.125  0.875-  18 2.82  25 2.82  10 2.93   1 2.93  33 3.37
  36  0.126  0.625  0.375-   4 2.82  11 2.82  19 2.83  28 2.83
  37  0.127  0.625  0.875-  20 2.82  27 2.82   3 2.82  12 2.82
  38  0.623  0.125  0.375-  13 2.82   6 2.82  21 2.82  30 2.82
  39  0.617  0.125  0.875-  14 2.82   5 2.82  22 2.93  29 2.93  33 3.37
  40  0.624  0.625  0.375-  23 2.82  32 2.82   8 2.83  15 2.83
  41  0.623  0.625  0.875-   7 2.82  16 2.82  31 2.82  24 2.82
  42  0.125  0.375  0.125-  19 2.82   9 2.84  25 2.84   3 2.84
  43  0.127  0.377  0.623-  10 2.79   4 2.84  26 2.84  20 2.84
  44  0.127  0.873  0.127-   1 2.79  11 2.84  17 2.84  27 2.84
  45  0.125  0.875  0.625-  28 2.82  18 2.84   2 2.84  12 2.84
  46  0.623  0.377  0.127-  29 2.79  13 2.84  23 2.84   7 2.84
  47  0.625  0.375  0.625-   8 2.82  14 2.84  24 2.84  30 2.84
  48  0.625  0.875  0.125-  15 2.82  21 2.84   5 2.84  31 2.84
  49  0.623  0.873  0.623-  22 2.79  32 2.84   6 2.84  16 2.84
  50  0.375  0.125  0.127-  17 2.82  13 2.82   5 2.82  25 2.82
  51  0.375  0.125  0.623-   6 2.82  26 2.82  18 2.82  14 2.82
  52  0.375  0.625  0.126-   7 2.82  27 2.82  19 2.83  15 2.83
  53  0.375  0.625  0.624-  16 2.82  20 2.82   8 2.83  28 2.83
  54  0.875  0.125  0.133-   9 2.82  21 2.82   1 2.93  29 2.93  33 3.37
  55  0.875  0.125  0.617-  30 2.82   2 2.82  22 2.93  10 2.93  33 3.37
  56  0.875  0.625  0.127-  11 2.82  23 2.82   3 2.82  31 2.82
  57  0.875  0.625  0.623-   4 2.82  32 2.82  12 2.82  24 2.82
  58  0.375  0.376  0.375-  26 2.82  13 2.82  19 2.83   8 2.83
  59  0.375  0.377  0.875-   7 2.82  20 2.82  14 2.82  25 2.82
  60  0.375  0.874  0.375-   6 2.82  17 2.82  15 2.83  28 2.83
  61  0.375  0.873  0.875-  16 2.82  27 2.82   5 2.82  18 2.82
  62  0.875  0.377  0.375-   4 2.82  23 2.82   9 2.82  30 2.82
  63  0.875  0.383  0.875-  24 2.82   3 2.82  10 2.93  29 2.93  33 3.37
  64  0.875  0.873  0.375-  11 2.82  32 2.82   2 2.82  21 2.82
  65  0.875  0.867  0.875-  12 2.82  31 2.82   1 2.93  22 2.93  33 3.37


IMPORTANT INFORMATION: All symmetrisations will be switched off!
NOSYMM: (Re-)initialisation of all symmetry stuff for point group C_1.


----------------------------------------------------------------------------------------

                                     Primitive cell                                     

  volume of cell :    2241.2856

  direct lattice vectors                    reciprocal lattice vectors
    13.086768000  0.000000000  0.000000000     0.076413061  0.000000000  0.000000000
     0.000000000 13.086768000  0.000000000     0.000000000  0.076413061  0.000000000
     0.000000000  0.000000000 13.086768000     0.000000000  0.000000000  0.076413061

  length of vectors
    13.086768000 13.086768000 13.086768000     0.076413061  0.076413061  0.076413061

  position of ions in fractional coordinates (direct lattice)
     0.004485000  0.995515000  0.004485000
     0.001247000  0.998753000  0.496959000
     0.001247000  0.503041000  0.001247000
     0.999625000  0.501218000  0.498782000
     0.496959000  0.998753000  0.001247000
     0.498781000  0.000375000  0.498781000
     0.498781000  0.501219000  0.999625000
     0.500528000  0.499472000  0.500528000
     0.001247000  0.251247000  0.253040000
     0.004486000  0.254485000  0.745515000
     0.999625000  0.748782000  0.251218000
     0.001247000  0.746959000  0.748753000
     0.498782000  0.249625000  0.251219000
     0.496960000  0.251247000  0.748753000
     0.500528000  0.750528000  0.249472000
     0.498781000  0.748781000  0.750375000
     0.251219000  0.000375000  0.251219000
     0.253040000  0.998753000  0.748753000
     0.249472000  0.499472000  0.249472000
     0.251219000  0.501219000  0.750375000
     0.748753000  0.998753000  0.253040000
     0.745514000  0.995515000  0.745515000
     0.750375000  0.501219000  0.251219000
     0.748753000  0.503040000  0.748753000
     0.253040000  0.251247000  0.001247000
     0.251219000  0.249625000  0.498781000
     0.251219000  0.748781000  0.999625000
     0.249472000  0.750528000  0.500528000
     0.745514000  0.254485000  0.004485000
     0.748753000  0.251247000  0.496960000
     0.748753000  0.746959000  0.001247000
     0.750375000  0.748782000  0.498782000
     0.875000000  0.125000000  0.875000000
     0.126656000  0.125000000  0.375000000
     0.132779000  0.125000000  0.875000000
     0.125892000  0.625000000  0.375000000
     0.126656000  0.625000000  0.875000000
     0.623344000  0.125000000  0.375000000
     0.617221000  0.125000000  0.875000000
     0.624108000  0.625000000  0.375000000
     0.623344000  0.625000000  0.875000000
     0.124848000  0.374848000  0.124848000
     0.127488000  0.377488000  0.622512000
     0.127488000  0.872512000  0.127488000
     0.124848000  0.875152000  0.625152000
     0.622512000  0.377488000  0.127488000
     0.625152000  0.374848000  0.625152000
     0.625152000  0.875152000  0.124848000
     0.622512000  0.872512000  0.622512000
     0.375000000  0.125000000  0.126656000
     0.375000000  0.125000000  0.623344000
     0.375000000  0.625000000  0.125892000
     0.375000000  0.625000000  0.624108000
     0.875000000  0.125000000  0.132779000
     0.875000000  0.125000000  0.617221000
     0.875000000  0.625000000  0.126656000
     0.875000000  0.625000000  0.623344000
     0.375000000  0.375892000  0.375000000
     0.375000000  0.376656000  0.875000000
     0.375000000  0.874108000  0.375000000
     0.375000000  0.873344000  0.875000000
     0.875000000  0.376656000  0.375000000
     0.875000000  0.382779000  0.875000000
     0.875000000  0.873344000  0.375000000
     0.875000000  0.867221000  0.875000000

  ion indices of the primitive-cell ions
   primitive index   ion index
                 1           1
                 2           2
                 3           3
                 4           4
                 5           5
                 6           6
                 7           7
                 8           8
                 9           9
                10          10
                11          11
                12          12
                13          13
                14          14
                15          15
                16          16
                17          17
                18          18
                19          19
                20          20
                21          21
                22          22
                23          23
                24          24
                25          25
                26          26
                27          27
                28          28
                29          29
                30          30
                31          31
                32          32
                33          33
                34          34
                35          35
                36          36
                37          37
                38          38
                39          39
                40          40
                41          41
                42          42
                43          43
                44          44
                45          45
                46          46
                47          47
                48          48
                49          49
                50          50
                51          51
                52          52
                53          53
                54          54
                55          55
                56          56
                57          57
                58          58
                59          59
                60          60
                61          61
                62          62
                63          63
                64          64
                65          65

----------------------------------------------------------------------------------------



 KPOINTS: Automatically generated mesh            

Read explicit list of k-points.

 Found      8 k-points:

 Following reciprocal coordinates:
            Coordinates               Weight
  0.000000  0.000000  0.000000      0.125000
  0.500000  0.000000  0.000000      0.125000
  0.000000  0.500000  0.000000      0.125000
  0.500000  0.500000  0.000000      0.125000
  0.000000  0.000000  0.500000      0.125000
  0.500000  0.000000  0.500000      0.125000
  0.000000  0.500000  0.500000      0.125000
  0.500000  0.500000  0.500000      0.125000

 Following cartesian coordinates:
            Coordinates               Weight
  0.000000  0.000000  0.000000      0.125000
  0.038207  0.000000  0.000000      0.125000
  0.000000  0.038207  0.000000      0.125000
  0.038207  0.038207  0.000000      0.125000
  0.000000  0.000000  0.038207      0.125000
  0.038207  0.000000  0.038207      0.125000
  0.000000  0.038207  0.038207      0.125000
  0.038207  0.038207  0.038207      0.125000

 
 Subroutine IBZKPT_HF returns following result:
 ==============================================
 
 Found      8 k-points in 1st BZ
 the following      8 k-points will be used (e.g. in the exchange kernel)
 Following reciprocal coordinates:   # in IRBZ
  0.000000  0.000000  0.000000    0.12500000   1 t-inv F
  0.500000  0.000000  0.000000    0.12500000   2 t-inv F
  0.000000  0.500000  0.000000    0.12500000   3 t-inv F
  0.500000  0.500000  0.000000    0.12500000   4 t-inv F
  0.000000  0.000000  0.500000    0.12500000   5 t-inv F
  0.500000  0.000000  0.500000    0.12500000   6 t-inv F
  0.000000  0.500000  0.500000    0.12500000   7 t-inv F
  0.500000  0.500000  0.500000    0.12500000   8 t-inv F


--------------------------------------------------------------------------------------------------------




 Dimension of arrays:
   k-points           NKPTS =      8   k-points in BZ     NKDIM =      8   number of bands    NBANDS=    864
   number of dos      NEDOS =   2000   number of ions     NIONS =     65
   non local maximal  LDIM  =      6   non local SUM 2l+1 LMDIM =     18
   total plane-waves  NPLWV = 884736
   max r-space proj   IRMAX =      1   max aug-charges    IRDMAX= 183854
   dimension x,y,z NGX =    96 NGY =   96 NGZ =   96
   dimension x,y,z NGXF=   192 NGYF=  192 NGZF=  192
   support grid    NGXF=   384 NGYF=  384 NGZF=  384
   ions per type =              33  32
   NGX,Y,Z   is equivalent  to a cutoff of  12.20, 12.20, 12.20 a.u.
   NGXF,Y,Z  is equivalent  to a cutoff of  24.39, 24.39, 24.39 a.u.

 SYSTEM =  unknown system                          
 POSCAR =  Cd33 Te32                               

 Startparameter for this run:
   NWRITE =      2    write-flag & timer
   PREC   = accura    normal or accurate (medium, high low for compatibility)
   ISTART =      0    job   : 0-new  1-cont  2-samecut
   ICHARG =      1    charge: 1-file 2-atom 10-const
   ISPIN  =      1    spin polarized calculation?
   LNONCOLLINEAR =      T non collinear calculations
   LSORBIT =      T    spin-orbit coupling
   INIWAV =      1    electr: 0-lowe 1-rand  2-diag
   LASPH  =      T    aspherical Exc in radial PAW
 Electronic Relaxation 1
   ENCUT  =  450.0 eV  33.07 Ry    5.75 a.u.  22.64 22.64 22.64*2*pi/ulx,y,z
   ENINI  =  450.0     initial cutoff
   ENAUG  =  456.1 eV  augmentation charge cutoff
   NELM   =      6;   NELMIN=  2; NELMDL= -5     # of ELM steps 
   EDIFF  = 0.1E-05   stopping-criterion for ELM
   LREAL  =      F    real-space projection
   NLSPLINE    = F    spline interpolate recip. space projectors
   LCOMPAT=      F    compatible to vasp.4.4
   GGA_COMPAT  = T    GGA compatible to vasp.4.4-vasp.4.6
   LMAXPAW     = -100 max onsite density
   LMAXMIX     =    2 max onsite mixed and CHGCAR
   VOSKOWN=      0    Vosko Wilk Nusair interpolation
   ROPT   =    0.00000   0.00000
 Ionic relaxation
   EDIFFG = -.1E-01   stopping-criterion for IOM
   NSW    =      0    number of steps for IOM
   NBLOCK =      1;   KBLOCK =      1    inner block; outer block 
   IBRION =     -1    ionic relax: 0-MD 1-quasi-New 2-CG
   NFREE  =      0    steps in history (QN), initial steepest desc. (CG)
   ISIF   =      2    stress and relaxation
   IWAVPR =     10    prediction:  0-non 1-charg 2-wave 3-comb
   ISYM   =      0    0-nonsym 1-usesym 2-fastsym
   LCORR  =      T    Harris-Foulkes like correction to forces

   POTIM  = 0.5000    time-step for ionic-motion
   TEIN   =    0.0    initial temperature
   TEBEG  =    0.0;   TEEND  =   0.0 temperature during run
   SMASS  =  -3.00    Nose mass-parameter (am)
   estimated Nose-frequenzy (Omega)   =  0.10E-29 period in steps = 0.13E+47 mass=  -0.391E-26a.u.
   SCALEE = 1.0000    scale energy and forces
   NPACO  =    256;   APACO  = 10.0  distance and # of slots for P.C.
   PSTRESS=    0.0 pullay stress

  Mass of Ions in am
   POMASS = 112.41127.60
  Ionic Valenz
   ZVAL   =  12.00  6.00
  Atomic Wigner-Seitz radii
   RWIGS  =  -1.00 -1.00
  virtual crystal weights 
   VCA    =   1.00  1.00
   NELECT =     588.0000    total number of electrons
   NUPDOWN=      -1.0000    fix difference up-down

 DOS related values:
   EMIN   =  10.00;   EMAX   =-10.00  energy-range for DOS
   EFERMI =   0.00;   METHOD = LEGACY      
   ISMEAR =     0;   SIGMA  =   0.05  broadening in eV -4-tet -1-fermi 0-gaus
   EFERMI_NEDOS =   21; number of points for ismear=-14 and -15

 Electronic relaxation 2 (details)
   IALGO  =     58    algorithm
   LDIAG  =      T    sub-space diagonalisation (order eigenvalues)
   LSUBROT=      F    optimize rotation matrix (better conditioning)
   LROBUST=      F    robust break criterion during scf (extrapolated energy error)
   ISEARCH=      0    line search for conjugate gradient (0, 1=use gradient)
   TURBO    =      0    0=normal 1=particle mesh
   IRESTART =      0    0=no restart 2=restart with 2 vectors
   NREBOOT  =      0    no. of reboots
   NMIN     =      0    reboot dimension
   EREF     =   0.00    reference energy to select bands
   IMIX   =      4    mixing-type and parameters
     AMIX     =   0.40;   BMIX     =  1.00
     AMIX_MAG =   1.60;   BMIX_MAG =  1.00
     AMIN     =   0.10
     WC   =   100.;   INIMIX=   1;  MIXPRE=   1;  MAXMIX= -45

 Intra band minimization:
   WEIMIN = 0.0000     energy-eigenvalue tresh-hold
   EBREAK =  0.29E-09  absolut break condition
   DEPER  =   0.30     relativ break condition  

   TIME   =   0.40     timestep for ELM

  volume/ion in A,a.u.               =      34.48       232.69
  Fermi-wavevector in a.u.,A,eV,Ry     =   1.048017  1.980464 14.943809  1.098339
  Thomas-Fermi vector in A             =   2.182921

 Write flags
   LWAVE        =      T    write WAVECAR
   LDOWNSAMPLE  =      F    k-point downsampling of WAVECAR
   LCHARG       =      T    write CHGCAR
   LVTOT        =      F    write LOCPOT, total local potential
   LVHAR        =      T    write LOCPOT, Hartree potential only
   WRT_POTENTIAL=  hartree ionic  ! write potential to hdf5 file
   LELF         =      F    write electronic localiz. function (ELF)
   LORBIT       =     11    0 simple, 1 ext, 2 COOP (PROOUT), +10 PAW based schemes


 Python interface
   PLUGINS active      =      F    recompile with -DPLUGINS to activate

 Dipole corrections
   LMONO      =      F    monopole corrections only (constant potential shift)
   LDIPOL     =      F    correct potential (dipole corrections)
   IDIPOL     =      0    1-x, 2-y, 3-z, 4-all directions 
   EPSILON    =  1.0000000 bulk dielectric constant
   LVACPOTAV  =      F  vacuum potentials using an averaging scheme for the charge density
   VACPOTFLAT =  0.1000000 required flatness to determine vacuum potential

Coulomb truncation method
  LTRUNCATE          =      F  Coulomb kernel truncation to be used


 Exchange correlation treatment:
   GGA     = PE    functional components
   XC_C    = 1    coefficients multiplying the functional components
   LIBXC   =     F    Libxc                    
   VOSKOWN =     0    Vosko Wilk Nusair interpolation
   EXXOEP  =     0    0=HF, 1=EXX-LHF (local Hartree Fock) 2=EXX OEP
   LHFCALC =     T    Hartree Fock is set to
   LSYMGRAD=     F    symmetrize gradient (conserves proper symmetry)
   PRECFOCK=fast      Normal, Fast or Accurate (Low or Medium for compatibility)
   LRHFCALC=     F    long range Hartree Fock
   LRSCOR  =     F    long range correlation only (use DFT for short range part)
   LTHOMAS =     F    Thomas Fermi screening in HF
   LMODELHF=     F    short range full HF, long range fraction AEXX
   FOCKCORR=     1    mode to apply convergence corrections
   LFOCKACE=     T    use Adeptively-Compressed-Exchange operator
   ENCUT4O =  -1.0   cutoff for four orbital integrals eV
   LMAXFOCK=     4    L truncation for augmentation on plane wave grid
   LMAXFOCKAE=  -1    L truncation for all-electron charge restoration on plane wave grid
   NMAXFOCKAE=   1    number of basis functions for all-electron charge restoration
   LFOCKAEDFT=     F  apply the AE augmentation even for DFT
   NKREDX  =     1    reduce k-point grid by
   NKREDY  =     1    reduce k-point grid by
   NKREDZ  =     1    reduce k-point grid by
   SHIFTRED=     F    shift reduced grid of Gamma
   HFKIDENT=     F    idential grid for each k-point
   ODDONLY =     F    use only odd q-grid points
   EVENONLY=     F    use only even q-grid points
   HFALPHA =   -1.0000 decay constant for conv. correction
   MCALPHA =    0.0000 extent of test-charge in conv. correction in multipole expansion
   AEXX    =    0.2500 exact exchange contribution
   HFSCREEN=    0.2000 screening length (either q_TF or 0.3 A-1)
   HFSCREENC=   0.2000 screening length for correlation (either q_TF or 0.3 A-1)
   HFRCUT  =    0.0000 spherical cutoff for potential kernel
   ALDAX   =    0.7500 LDA exchange part
   AGGAX   =    0.7500 GGA exchange part
   AMGGAX  =    0.7500 meta-GGA exchange part
   ALDAC   =    1.0000 LDA correlation
   AGGAC   =    1.0000 GGA correlation
   AMGGAC  =    1.0000 meta-GGA correlation
   ENCUTFOCK=  -1.0 apply spherical cutoff to Coloumb kernel
   NBANDSGWLOW=     1    first orbital included in HF term
   NBLOCK_FOCK=    64    blocking factor in FOCK_ACC

 Parameters of functionals:
   PE:
     No parameter

 Van der Waals corrections
   IVDW    =     0    specifies the selected vdW correction

 Linear response parameters
   LEPSILON=     F    determine dielectric tensor
   LRPA    =     F    only Hartree local field effects (RPA)
   LNABLA  =     F    use nabla operator in PAW spheres
   LVEL    =     F    velocity operator in full k-point grid
   CSHIFT  =0.1000    complex shift for real part using Kramers Kronig
   OMEGAMAX=  -1.0    maximum frequency
   DEG_THRESHOLD= 0.2000000E-02 threshold for treating states as degnerate
   RTIME   =   -0.100 relaxation time in fs
  (WPLASMAI=    0.000 imaginary part of plasma frequency in eV, 0.658/RTIME)
   DFIELD  = 0.0000000 0.0000000 0.0000000 field for delta impulse in time

  Optional k-point grid parameters
   LKPOINTS_OPT  =     F    use optional k-point grid
   KPOINTS_OPT_MODE=     1    mode for optional k-point grid

 Orbital magnetization related:
   ORBITALMAG=     F  switch on orbital magnetization
   LCHIMAG   =     F  perturbation theory with respect to B field
   DQ        =  0.001000  dq finite difference perturbation B field
   LLRAUG    =     F  two centre corrections for induced B field
   LBONE     =     F  B-component reconstruction in AE one-centre
   LVGVCALC  =     T  calculate vGv susceptibility
   LVGVAPPL  =     F  apply vGv susceptibility instead of pGv for G=0

 Random number generation:
   RANDOM_GENERATOR = DEFAULT
   PCG_SEED         = not used


--------------------------------------------------------------------------------------------------------


 Static calculation
 charge density and potential will be updated during run
 non collinear spin polarized calculation
 Conjugate gradient for all bands (Freysoldt, et al. PRB 79, 241103 (2009))
 preconditioned conjugated gradient                                        
 perform sub-space diagonalisation
    before iterative eigenvector-optimisation
 modified Broyden-mixing scheme, WC =      100.0
 initial mixing is a Kerker type mixing with AMIX =  0.4000 and BMIX =      1.0000
 Hartree-type preconditioning will be used
 using additional bands          570
 reciprocal scheme for non local part
 use partial core corrections
 no Harris-corrections to forces 
 use gradient corrections 
 use of overlap-Matrix (Vanderbilt PP)
 Gauss-broadening in eV      SIGMA  =   0.05


--------------------------------------------------------------------------------------------------------


  energy-cutoff  :      450.00
  volume of cell :     2241.29
      direct lattice vectors                 reciprocal lattice vectors
    13.086768000  0.000000000  0.000000000     0.076413061  0.000000000  0.000000000
     0.000000000 13.086768000  0.000000000     0.000000000  0.076413061  0.000000000
     0.000000000  0.000000000 13.086768000     0.000000000  0.000000000  0.076413061

  length of vectors
    13.086768000 13.086768000 13.086768000     0.076413061  0.076413061  0.076413061



 k-points in units of 2pi/SCALE and weight: Automatically generated mesh            
   0.00000000  0.00000000  0.00000000       0.125
   0.03820653  0.00000000  0.00000000       0.125
   0.00000000  0.03820653  0.00000000       0.125
   0.03820653  0.03820653  0.00000000       0.125
   0.00000000  0.00000000  0.03820653       0.125
   0.03820653  0.00000000  0.03820653       0.125
   0.00000000  0.03820653  0.03820653       0.125
   0.03820653  0.03820653  0.03820653       0.125

 k-points in reciprocal lattice and weights: Automatically generated mesh            
   0.00000000  0.00000000  0.00000000       0.125
   0.50000000  0.00000000  0.00000000       0.125
   0.00000000  0.50000000  0.00000000       0.125
   0.50000000  0.50000000  0.00000000       0.125
   0.00000000  0.00000000  0.50000000       0.125
   0.50000000  0.00000000  0.50000000       0.125
   0.00000000  0.50000000  0.50000000       0.125
   0.50000000  0.50000000  0.50000000       0.125

 position of ions in fractional coordinates (direct lattice) 
   0.00448500  0.99551500  0.00448500
   0.00124700  0.99875300  0.49695900
   0.00124700  0.50304100  0.00124700
   0.99962500  0.50121800  0.49878200
   0.49695900  0.99875300  0.00124700
   0.49878100  0.00037500  0.49878100
   0.49878100  0.50121900  0.99962500
   0.50052800  0.49947200  0.50052800
   0.00124700  0.25124700  0.25304000
   0.00448600  0.25448500  0.74551500
   0.99962500  0.74878200  0.25121800
   0.00124700  0.74695900  0.74875300
   0.49878200  0.24962500  0.25121900
   0.49696000  0.25124700  0.74875300
   0.50052800  0.75052800  0.24947200
   0.49878100  0.74878100  0.75037500
   0.25121900  0.00037500  0.25121900
   0.25304000  0.99875300  0.74875300
   0.24947200  0.49947200  0.24947200
   0.25121900  0.50121900  0.75037500
   0.74875300  0.99875300  0.25304000
   0.74551400  0.99551500  0.74551500
   0.75037500  0.50121900  0.25121900
   0.74875300  0.50304000  0.74875300
   0.25304000  0.25124700  0.00124700
   0.25121900  0.24962500  0.49878100
   0.25121900  0.74878100  0.99962500
   0.24947200  0.75052800  0.50052800
   0.74551400  0.25448500  0.00448500
   0.74875300  0.25124700  0.49696000
   0.74875300  0.74695900  0.00124700
   0.75037500  0.74878200  0.49878200
   0.87500000  0.12500000  0.87500000
   0.12665600  0.12500000  0.37500000
   0.13277900  0.12500000  0.87500000
   0.12589200  0.62500000  0.37500000
   0.12665600  0.62500000  0.87500000
   0.62334400  0.12500000  0.37500000
   0.61722100  0.12500000  0.87500000
   0.62410800  0.62500000  0.37500000
   0.62334400  0.62500000  0.87500000
   0.12484800  0.37484800  0.12484800
   0.12748800  0.37748800  0.62251200
   0.12748800  0.87251200  0.12748800
   0.12484800  0.87515200  0.62515200
   0.62251200  0.37748800  0.12748800
   0.62515200  0.37484800  0.62515200
   0.62515200  0.87515200  0.12484800
   0.62251200  0.87251200  0.62251200
   0.37500000  0.12500000  0.12665600
   0.37500000  0.12500000  0.62334400
   0.37500000  0.62500000  0.12589200
   0.37500000  0.62500000  0.62410800
   0.87500000  0.12500000  0.13277900
   0.87500000  0.12500000  0.61722100
   0.87500000  0.62500000  0.12665600
   0.87500000  0.62500000  0.62334400
   0.37500000  0.37589200  0.37500000
   0.37500000  0.37665600  0.87500000
   0.37500000  0.87410800  0.37500000
   0.37500000  0.87334400  0.87500000
   0.87500000  0.37665600  0.37500000
   0.87500000  0.38277900  0.87500000
   0.87500000  0.87334400  0.37500000
   0.87500000  0.86722100  0.87500000

 position of ions in cartesian coordinates  (Angst):
   0.05869415 13.02807385  0.05869415
   0.01631920 13.07044880  6.50358714
   0.01631920  6.58318086  0.01631920
  13.08186046  6.55932368  6.52744432
   6.50358714 13.07044880  0.01631920
   6.52743123  0.00490754  6.52743123
   6.52743123  6.55933677 13.08186046
   6.55029381  6.53647419  6.55029381
   0.01631920  3.28801120  3.31147577
   0.05870724  3.33038615  9.75638185
  13.08186046  9.79913632  3.28763168
   0.01631920  9.77527914  9.79875680
   6.52744432  3.26678446  3.28764477
   6.50360023  3.28801120  9.79875680
   6.55029381  9.82198581  3.26478219
   6.52743123  9.79912323  9.81998354
   3.28764477  0.00490754  3.28764477
   3.31147577 13.07044880  9.79875680
   3.26478219  6.53647419  3.26478219
   3.28764477  6.55933677  9.81998354
   9.79875680 13.07044880  3.31147577
   9.75636876 13.02807385  9.75638185
   9.81998354  6.55933677  3.28764477
   9.79875680  6.58316777  9.79875680
   3.31147577  3.28801120  0.01631920
   3.28764477  3.26678446  6.52743123
   3.28764477  9.79912323 13.08186046
   3.26478219  9.82198581  6.55029381
   9.75636876  3.33038615  0.05869415
   9.79875680  3.28801120  6.50360023
   9.79875680  9.77527914  0.01631920
   9.81998354  9.79913632  6.52744432
  11.45092200  1.63584600 11.45092200
   1.65751769  1.63584600  4.90753800
   1.73764797  1.63584600 11.45092200
   1.64751940  8.17923000  4.90753800
   1.65751769  8.17923000 11.45092200
   8.15755831  1.63584600  4.90753800
   8.07742803  1.63584600 11.45092200
   8.16755660  8.17923000  4.90753800
   8.15755831  8.17923000 11.45092200
   1.63385681  4.90554881  1.63385681
   1.66840588  4.94009788  8.14667012
   1.66840588 11.41836212  1.66840588
   1.63385681 11.45291119  8.18121919
   8.14667012  4.94009788  1.66840588
   8.18121919  4.90554881  8.18121919
   8.18121919 11.45291119  1.63385681
   8.14667012 11.41836212  8.14667012
   4.90753800  1.63584600  1.65751769
   4.90753800  1.63584600  8.15755831
   4.90753800  8.17923000  1.64751940
   4.90753800  8.17923000  8.16755660
  11.45092200  1.63584600  1.73764797
  11.45092200  1.63584600  8.07742803
  11.45092200  8.17923000  1.65751769
  11.45092200  8.17923000  8.15755831
   4.90753800  4.91921140  4.90753800
   4.90753800  4.92920969 11.45092200
   4.90753800 11.43924860  4.90753800
   4.90753800 11.42925031 11.45092200
  11.45092200  4.92920969  4.90753800
  11.45092200  5.00933997 11.45092200
  11.45092200 11.42925031  4.90753800
  11.45092200 11.34912003 11.45092200

 Euler angles ALPHA=     0.0000000  BETA=     0.0000000

 transformation matrix from SAXIS to cartesian coordinates
 ---------------------------------------------------------
     1.0000000 m_x    -0.0000000 m_y     0.0000000 m_z
     0.0000000 m_x     1.0000000 m_y     0.0000000 m_z
    -0.0000000 m_x     0.0000000 m_y     1.0000000 m_z

 transformation matrix from cartesian coordinates to SAXIS
 ---------------------------------------------------------
     1.0000000 m_x     0.0000000 m_y    -0.0000000 m_z
    -0.0000000 m_x     1.0000000 m_y     0.0000000 m_z
     0.0000000 m_x     0.0000000 m_y     1.0000000 m_z




--------------------------------------------------------------------------------------------------------


 k-point     1 :   0.0000 0.0000 0.0000  plane waves:   97002
 k-point     2 :   0.5000 0.0000 0.0000  plane waves:   97356
 k-point     3 :   0.0000 0.5000 0.0000  plane waves:   97356
 k-point     4 :   0.5000 0.5000 0.0000  plane waves:   96960
 k-point     5 :   0.0000 0.0000 0.5000  plane waves:   97356
 k-point     6 :   0.5000 0.0000 0.5000  plane waves:   96960
 k-point     7 :   0.0000 0.5000 0.5000  plane waves:   96960
 k-point     8 :   0.5000 0.5000 0.5000  plane waves:   96832

 maximum and minimum number of plane-waves per node :      6146     5998

 maximum number of plane-waves:     97356
 maximum index in each direction: 
   IXMAX=   22   IYMAX=   22   IZMAX=   22
   IXMIN=  -23   IYMIN=  -23   IZMIN=  -23


 parallel 3D FFT for wavefunctions:
    minimum data exchange during FFTs selected (reduces bandwidth)
 parallel 3D FFT for charge:
    minimum data exchange during FFTs selected (reduces bandwidth)


 FFT grid for exact exchange (Hartree Fock) 
  NGX = 48; NGY = 48; NGZ = 48


 Radii for the augmentation spheres in the non-local exchange
 for species   1 augmentation radius   1.444 (default was   1.070)
       energy cutoff for augmentation   1800.0
 for species   2 augmentation radius   1.606 (default was   1.190)
       energy cutoff for augmentation   1800.0

 real space projection operators:
  total allocation   :       9375.20 KBytes
  max/ min on nodes  :        615.43        566.80

 Maximum index for augmentation-charges in exchange           97
  SETUP_FOCK is finished

 total amount of memory used by VASP MPI-rank0    81440. kBytes
=======================================================================

   base                                    :      30000. kBytes
   nonl-proj                               :      10593. kBytes
   fftplans                                :       7537. kBytes
   grid                                    :      15925. kBytes
   one-center                              :        311. kBytes
   HF                                      :        129. kBytes
   nonlr-proj                              :       1684. kBytes
   wavefun                                 :      15261. kBytes

     INWAV:  cpu time      0.0000: real time      0.0000
 Broyden mixing: mesh for mixing (old mesh)
   NGX = 45   NGY = 45   NGZ = 45
  (NGX  =192   NGY  =192   NGZ  =192)
  gives a total of  91125 points

 initial charge density was supplied:
 charge density of overlapping atoms calculated
 number of electron     588.0000000 magnetization      65.0000000     65.0000000     65.0000000
 keeping initial charge density in first step


--------------------------------------------------------------------------------------------------------


 Maximum index for augmentation-charges         3093 (set IRDMAX)


--------------------------------------------------------------------------------------------------------


 First call to EWALD:  gamma=   0.135
 Maximum number of real-space cells   3x   3x   3
 Maximum number of reciprocal cells   3x   3x   3

    FEWALD:  cpu time      0.0649: real time      0.0658


--------------------------------------- Ionic step        1  -------------------------------------------




--------------------------------------- Iteration      1(   1)  ---------------------------------------


    POTLOK:  cpu time      0.4294: real time      0.4357
    SETDIJ:  cpu time      0.4789: real time      0.4845
    TRIAL :  cpu time      8.9934: real time      9.0660
    CORREC:  cpu time      0.0167: real time      0.0169
    --------------------------------------------
      LOOP:  cpu time      9.9938: real time     10.0792

 eigenvalue-minimisations  : 13824
 total energy-change (2. order) :-0.6584969E+05  (-0.2725429E+05)
 number of electron     588.0000000 magnetization      65.0000000     65.0000000     65.0000000
 augmentation part      588.0000000 magnetization      65.0000000     65.0000000     65.0000000

 Free energy of the ion-electron system (eV)
  ---------------------------------------------------
  alpha Z        PSCENC =      1642.45118531
  Ewald energy   TEWEN  =    -33940.17512409
  -Hartree energ DENC   =    -17077.89199325
  -exchange      EXHF   =         0.00000000
  -V(xc)+E(xc)   XCENC  =      -705.19542617
  PAW double counting   =     46123.44547363  -111597.00895027
  entropy T*S    EENTRO =        -0.03189097
  eigenvalues    EBANDS =       -44.71025285
  atomic energy  EATOM  =     49749.42546354
  ---------------------------------------------------
  free energy    TOTEN  =    -65849.69151511 eV

  energy without entropy =   -65849.65962414  energy(sigma->0) =   -65849.67556962
  exchange ACFDT corr.  =         0.00000000  see jH, gK, PRB 81, 115126


--------------------------------------------------------------------------------------------------------




--------------------------------------- Iteration      1(   2)  ---------------------------------------


    TRIAL :  cpu time     11.0008: real time     11.0804
    CORREC:  cpu time      0.0032: real time      0.0033
    --------------------------------------------
      LOOP:  cpu time     11.0577: real time     11.1726

 eigenvalue-minimisations  : 15408
 total energy-change (2. order) :-0.3419009E+04  (-0.3319339E+04)
 number of electron     588.0000000 magnetization      65.0000000     65.0000000     65.0000000
 augmentation part      588.0000000 magnetization      65.0000000     65.0000000     65.0000000

 Free energy of the ion-electron system (eV)
  ---------------------------------------------------
  alpha Z        PSCENC =      1642.45118531
  Ewald energy   TEWEN  =    -33940.17512409
  -Hartree energ DENC   =    -17077.89199325
  -exchange      EXHF   =         0.00000000
  -V(xc)+E(xc)   XCENC  =      -705.19542617
  PAW double counting   =     46123.44547363  -111597.00895027
  entropy T*S    EENTRO =        -0.00775445
  eigenvalues    EBANDS =     -3463.74385576
  atomic energy  EATOM  =     49749.42546354
  ---------------------------------------------------
  free energy    TOTEN  =    -69268.70098150 eV

  energy without entropy =   -69268.69322706  energy(sigma->0) =   -69268.69710428
  exchange ACFDT corr.  =         0.00000000  see jH, gK, PRB 81, 115126


--------------------------------------------------------------------------------------------------------




--------------------------------------- Iteration      1(   3)  ---------------------------------------


    TRIAL :  cpu time     13.9274: real time     14.0245
    CORREC:  cpu time      0.0032: real time      0.0032
    --------------------------------------------
      LOOP:  cpu time     13.9959: real time     14.1009

 eigenvalue-minimisations  : 16704
 total energy-change (2. order) :-0.1812268E+03  (-0.1800231E+03)
 number of electron     588.0000000 magnetization      65.0000000     65.0000000     65.0000000
 augmentation part      588.0000000 magnetization      65.0000000     65.0000000     65.0000000

 Free energy of the ion-electron system (eV)
  ---------------------------------------------------
  alpha Z        PSCENC =      1642.45118531
  Ewald energy   TEWEN  =    -33940.17512409
  -Hartree energ DENC   =    -17077.89199325
  -exchange      EXHF   =         0.00000000
  -V(xc)+E(xc)   XCENC  =      -705.19542617
  PAW double counting   =     46123.44547363  -111597.00895027
  entropy T*S    EENTRO =        -0.01510394
  eigenvalues    EBANDS =     -3644.96334155
  atomic energy  EATOM  =     49749.42546354
  ---------------------------------------------------
  free energy    TOTEN  =    -69449.92781678 eV

  energy without entropy =   -69449.91271284  energy(sigma->0) =   -69449.92026481
  exchange ACFDT corr.  =         0.00000000  see jH, gK, PRB 81, 115126


--------------------------------------------------------------------------------------------------------




--------------------------------------- Iteration      1(   4)  ---------------------------------------


    TRIAL :  cpu time     16.8930: real time     17.0101
    CORREC:  cpu time      0.0021: real time      0.0021
    --------------------------------------------
      LOOP:  cpu time     16.9677: real time     17.0874

 eigenvalue-minimisations  : 19152
 total energy-change (2. order) :-0.5048619E+01  (-0.5044987E+01)
 number of electron     588.0000000 magnetization      65.0000000     65.0000000     65.0000000
 augmentation part      588.0000000 magnetization      65.0000000     65.0000000     65.0000000

 Free energy of the ion-electron system (eV)
  ---------------------------------------------------
  alpha Z        PSCENC =      1642.45118531
  Ewald energy   TEWEN  =    -33940.17512409
  -Hartree energ DENC   =    -17077.89199325
  -exchange      EXHF   =         0.00000000
  -V(xc)+E(xc)   XCENC  =      -705.19542617
  PAW double counting   =     46123.44547363  -111597.00895027
  entropy T*S    EENTRO =        -0.01434099
  eigenvalues    EBANDS =     -3650.01272303
  atomic energy  EATOM  =     49749.42546354
  ---------------------------------------------------
  free energy    TOTEN  =    -69454.97643531 eV

  energy without entropy =   -69454.96209432  energy(sigma->0) =   -69454.96926482
  exchange ACFDT corr.  =         0.00000000  see jH, gK, PRB 81, 115126


--------------------------------------------------------------------------------------------------------




--------------------------------------- Iteration      1(   5)  ---------------------------------------


    POTLOK:  cpu time      0.3250: real time      0.3281
    SETDIJ:  cpu time      0.7107: real time      0.7172
    TRIAL :  cpu time    108.2416: real time    109.1909
    CORREC:  cpu time      0.0022: real time      0.0022



 total charge

# of ion       s       p       d       tot
------------------------------------------
    1        0.370   0.244   9.554  10.168
    2        0.385   0.261   9.559  10.205
    3        0.385   0.261   9.559  10.205
    4        0.383   0.261   9.559  10.203
    5        0.385   0.261   9.559  10.205
    6        0.383   0.261   9.559  10.203
    7        0.383   0.261   9.559  10.203
    8        0.382   0.258   9.559  10.199
    9        0.385   0.261   9.559  10.205
   10        0.370   0.244   9.554  10.168
   11        0.383   0.261   9.559  10.203
   12        0.385   0.261   9.559  10.205
   13        0.383   0.261   9.559  10.203
   14        0.385   0.261   9.559  10.205
   15        0.382   0.258   9.559  10.199
   16        0.383   0.261   9.559  10.203
   17        0.383   0.261   9.559  10.203
   18        0.385   0.261   9.559  10.205
   19        0.382   0.258   9.559  10.199
   20        0.383   0.261   9.559  10.203
   21        0.385   0.261   9.559  10.205
   22        0.370   0.244   9.554  10.168
   23        0.383   0.261   9.559  10.203
   24        0.385   0.261   9.559  10.205
   25        0.385   0.261   9.559  10.205
   26        0.383   0.261   9.559  10.203
   27        0.383   0.261   9.559  10.203
   28        0.382   0.258   9.559  10.199
   29        0.370   0.244   9.554  10.168
   30        0.385   0.261   9.559  10.205
   31        0.385   0.261   9.559  10.205
   32        0.383   0.261   9.559  10.203
   33        0.684   0.138   9.536  10.358
   34        1.313   2.382   0.019   3.715
   35        1.325   2.356   0.020   3.701
   36        1.314   2.382   0.019   3.714
   37        1.313   2.382   0.019   3.715
   38        1.313   2.382   0.019   3.715
   39        1.325   2.356   0.020   3.701
   40        1.314   2.382   0.019   3.714
   41        1.313   2.382   0.019   3.715
   42        1.314   2.380   0.018   3.712
   43        1.313   2.374   0.019   3.705
   44        1.313   2.374   0.019   3.705
   45        1.314   2.380   0.018   3.712
   46        1.313   2.374   0.019   3.705
   47        1.314   2.380   0.018   3.712
   48        1.314   2.380   0.018   3.712
   49        1.313   2.374   0.019   3.705
   50        1.313   2.382   0.019   3.715
   51        1.313   2.382   0.019   3.715
   52        1.314   2.382   0.019   3.714
   53        1.314   2.382   0.019   3.714
   54        1.325   2.356   0.020   3.701
   55        1.325   2.356   0.020   3.701
   56        1.313   2.382   0.019   3.715
   57        1.313   2.382   0.019   3.715
   58        1.314   2.382   0.019   3.714
   59        1.313   2.382   0.019   3.715
   60        1.314   2.382   0.019   3.714
   61        1.313   2.382   0.019   3.715
   62        1.313   2.382   0.019   3.715
   63        1.325   2.356   0.020   3.701
   64        1.313   2.382   0.019   3.715
   65        1.325   2.356   0.020   3.701
--------------------------------------------------
tot         55.005  84.435 316.023 455.464



 magnetization (x)

# of ion       s       p       d       tot
------------------------------------------
    1       -0.005  -0.003   0.005  -0.003
    2       -0.005  -0.003   0.005  -0.003
    3       -0.004  -0.003   0.005  -0.003
    4       -0.004  -0.003   0.004  -0.003
    5       -0.005  -0.003   0.005  -0.003
    6       -0.004  -0.003   0.004  -0.003
    7       -0.004  -0.003   0.004  -0.003
    8       -0.004  -0.003   0.004  -0.003
    9       -0.004  -0.003   0.005  -0.003
   10       -0.005  -0.003   0.005  -0.003
   11       -0.004  -0.003   0.004  -0.003
   12       -0.005  -0.003   0.005  -0.003
   13       -0.004  -0.003   0.004  -0.003
   14       -0.005  -0.003   0.005  -0.003
   15       -0.004  -0.003   0.004  -0.003
   16       -0.004  -0.003   0.004  -0.003
   17       -0.004  -0.003   0.004  -0.003
   18       -0.004  -0.003   0.005  -0.003
   19       -0.004  -0.003   0.004  -0.003
   20       -0.004  -0.003   0.004  -0.003
   21       -0.005  -0.003   0.005  -0.003
   22       -0.004  -0.003   0.005  -0.003
   23       -0.004  -0.003   0.004  -0.003
   24       -0.005  -0.003   0.005  -0.003
   25       -0.005  -0.003   0.005  -0.003
   26       -0.004  -0.003   0.004  -0.003
   27       -0.004  -0.003   0.004  -0.003
   28       -0.004  -0.003   0.004  -0.003
   29       -0.005  -0.003   0.005  -0.003
   30       -0.004  -0.003   0.005  -0.003
   31       -0.004  -0.003   0.005  -0.003
   32       -0.004  -0.003   0.004  -0.003
   33        0.032  -0.003   0.003   0.032
   34        0.009   0.030  -0.000   0.039
   35        0.009   0.035  -0.000   0.044
   36        0.009   0.030  -0.000   0.039
   37        0.009   0.030  -0.000   0.039
   38        0.009   0.030  -0.000   0.039
   39        0.009   0.035  -0.000   0.044
   40        0.009   0.030  -0.000   0.039
   41        0.009   0.030  -0.000   0.039
   42        0.009   0.030  -0.000   0.039
   43        0.010   0.030  -0.000   0.040
   44        0.010   0.030  -0.000   0.040
   45        0.009   0.030  -0.000   0.039
   46        0.010   0.030  -0.000   0.040
   47        0.009   0.030  -0.000   0.039
   48        0.009   0.030  -0.000   0.039
   49        0.010   0.030  -0.000   0.040
   50        0.009   0.030  -0.000   0.039
   51        0.009   0.030  -0.000   0.039
   52        0.009   0.030  -0.000   0.039
   53        0.009   0.030  -0.000   0.039
   54        0.009   0.035  -0.000   0.044
   55        0.009   0.035  -0.000   0.044
   56        0.009   0.030  -0.000   0.039
   57        0.009   0.030  -0.000   0.039
   58        0.009   0.030  -0.000   0.039
   59        0.009   0.030  -0.000   0.039
   60        0.009   0.030  -0.000   0.039
   61        0.009   0.030  -0.000   0.039
   62        0.009   0.030  -0.000   0.039
   63        0.009   0.035  -0.000   0.044
   64        0.009   0.030  -0.000   0.039
   65        0.009   0.035  -0.000   0.044
--------------------------------------------------
tot          0.185   0.886   0.139   1.210



 magnetization (y)

# of ion       s       p       d       tot
------------------------------------------
    1       -0.005  -0.003   0.005  -0.003
    2       -0.004  -0.003   0.005  -0.003
    3       -0.005  -0.003   0.005  -0.003
    4       -0.004  -0.003   0.004  -0.003
    5       -0.004  -0.003   0.005  -0.003
    6       -0.004  -0.003   0.004  -0.003
    7       -0.004  -0.003   0.004  -0.003
    8       -0.004  -0.003   0.004  -0.003
    9       -0.004  -0.003   0.005  -0.003
   10       -0.005  -0.003   0.005  -0.003
   11       -0.004  -0.003   0.004  -0.003
   12       -0.005  -0.003   0.005  -0.003
   13       -0.004  -0.003   0.004  -0.003
   14       -0.005  -0.003   0.005  -0.003
   15       -0.004  -0.003   0.004  -0.003
   16       -0.004  -0.003   0.004  -0.003
   17       -0.004  -0.003   0.004  -0.003
   18       -0.005  -0.003   0.005  -0.003
   19       -0.004  -0.003   0.004  -0.003
   20       -0.004  -0.003   0.004  -0.003
   21       -0.005  -0.003   0.005  -0.003
   22       -0.004  -0.003   0.005  -0.003
   23       -0.004  -0.003   0.004  -0.003
   24       -0.004  -0.003   0.005  -0.003
   25       -0.004  -0.003   0.005  -0.003
   26       -0.004  -0.003   0.004  -0.003
   27       -0.004  -0.003   0.004  -0.003
   28       -0.004  -0.003   0.004  -0.003
   29       -0.005  -0.003   0.005  -0.003
   30       -0.005  -0.003   0.005  -0.003
   31       -0.005  -0.003   0.005  -0.003
   32       -0.004  -0.003   0.004  -0.003
   33        0.032  -0.003   0.003   0.032
   34        0.009   0.030  -0.000   0.039
   35        0.009   0.035  -0.000   0.044
   36        0.009   0.030  -0.000   0.039
   37        0.009   0.030  -0.000   0.039
   38        0.009   0.030  -0.000   0.039
   39        0.009   0.035  -0.000   0.044
   40        0.009   0.030  -0.000   0.039
   41        0.009   0.030  -0.000   0.039
   42        0.009   0.030  -0.000   0.039
   43        0.010   0.030  -0.000   0.040
   44        0.010   0.030  -0.000   0.040
   45        0.009   0.030  -0.000   0.039
   46        0.010   0.030  -0.000   0.040
   47        0.009   0.030  -0.000   0.039
   48        0.009   0.030  -0.000   0.039
   49        0.010   0.030  -0.000   0.040
   50        0.009   0.030  -0.000   0.039
   51        0.009   0.030  -0.000   0.039
   52        0.009   0.030  -0.000   0.039
   53        0.009   0.030  -0.000   0.039
   54        0.009   0.035  -0.000   0.044
   55        0.009   0.035  -0.000   0.044
   56        0.009   0.030  -0.000   0.039
   57        0.009   0.030  -0.000   0.039
   58        0.009   0.030  -0.000   0.039
   59        0.009   0.030  -0.000   0.039
   60        0.009   0.030  -0.000   0.039
   61        0.009   0.030  -0.000   0.039
   62        0.009   0.030  -0.000   0.039
   63        0.009   0.035  -0.000   0.044
   64        0.009   0.030  -0.000   0.039
   65        0.009   0.035  -0.000   0.044
--------------------------------------------------
tot          0.185   0.886   0.139   1.210



 magnetization (z)

# of ion       s       p       d       tot
------------------------------------------
    1       -0.005  -0.003   0.005  -0.003
    2       -0.005  -0.003   0.005  -0.003
    3       -0.004  -0.003   0.005  -0.003
    4       -0.004  -0.003   0.004  -0.003
    5       -0.005  -0.003   0.005  -0.003
    6       -0.004  -0.003   0.004  -0.003
    7       -0.004  -0.003   0.004  -0.003
    8       -0.004  -0.003   0.004  -0.003
    9       -0.005  -0.003   0.005  -0.003
   10       -0.005  -0.003   0.005  -0.003
   11       -0.004  -0.003   0.004  -0.003
   12       -0.004  -0.003   0.005  -0.003
   13       -0.004  -0.003   0.004  -0.003
   14       -0.004  -0.003   0.005  -0.003
   15       -0.004  -0.003   0.004  -0.003
   16       -0.004  -0.003   0.004  -0.003
   17       -0.004  -0.003   0.004  -0.003
   18       -0.005  -0.003   0.005  -0.003
   19       -0.004  -0.003   0.004  -0.003
   20       -0.004  -0.003   0.004  -0.003
   21       -0.004  -0.003   0.005  -0.003
   22       -0.004  -0.003   0.005  -0.003
   23       -0.004  -0.003   0.004  -0.003
   24       -0.005  -0.003   0.005  -0.003
   25       -0.004  -0.003   0.005  -0.003
   26       -0.004  -0.003   0.004  -0.003
   27       -0.004  -0.003   0.004  -0.003
   28       -0.004  -0.003   0.004  -0.003
   29       -0.005  -0.003   0.005  -0.003
   30       -0.005  -0.003   0.005  -0.003
   31       -0.005  -0.003   0.005  -0.003
   32       -0.004  -0.003   0.004  -0.003
   33        0.032  -0.003   0.003   0.032
   34        0.009   0.030  -0.000   0.039
   35        0.009   0.035  -0.000   0.044
   36        0.009   0.030  -0.000   0.039
   37        0.009   0.030  -0.000   0.039
   38        0.009   0.030  -0.000   0.039
   39        0.009   0.035  -0.000   0.044
   40        0.009   0.030  -0.000   0.039
   41        0.009   0.030  -0.000   0.039
   42        0.009   0.030  -0.000   0.039
   43        0.010   0.030  -0.000   0.040
   44        0.010   0.030  -0.000   0.040
   45        0.009   0.030  -0.000   0.039
   46        0.010   0.030  -0.000   0.040
   47        0.009   0.030  -0.000   0.039
   48        0.009   0.030  -0.000   0.039
   49        0.010   0.030  -0.000   0.040
   50        0.009   0.030  -0.000   0.039
   51        0.009   0.030  -0.000   0.039
   52        0.009   0.030  -0.000   0.039
   53        0.009   0.030  -0.000   0.039
   54        0.009   0.035  -0.000   0.044
   55        0.009   0.035  -0.000   0.044
   56        0.009   0.030  -0.000   0.039
   57        0.009   0.030  -0.000   0.039
   58        0.009   0.030  -0.000   0.039
   59        0.009   0.030  -0.000   0.039
   60        0.009   0.030  -0.000   0.039
   61        0.009   0.030  -0.000   0.039
   62        0.009   0.030  -0.000   0.039
   63        0.009   0.035  -0.000   0.044
   64        0.009   0.030  -0.000   0.039
   65        0.009   0.035  -0.000   0.044
--------------------------------------------------
tot          0.185   0.886   0.139   1.210

    CHARGE:  cpu time      1.6106: real time      1.6244
    --------------------------------------------
      LOOP:  cpu time    110.9796: real time    111.9775

 eigenvalue-minimisations  : 13824
 total energy-change (2. order) : 0.6927799E+05  (-0.3601943E+02)
 number of electron     588.0000006 magnetization       0.1785528      0.1785401      0.1785273
 augmentation part      151.8154712 magnetization       0.4988603      0.4988569      0.4988353

 Free energy of the ion-electron system (eV)
  ---------------------------------------------------
  alpha Z        PSCENC =      1642.45118531
  Ewald energy   TEWEN  =    -33940.17512409
  -Hartree energ DENC   =    -17077.89199325
  -exchange      EXHF   =      1181.92358227
  -V(xc)+E(xc)   XCENC  =      -617.56595420
  PAW double counting   =     46020.13618676   -43994.38423556
  entropy T*S    EENTRO =        -0.00646408
  eigenvalues    EBANDS =     -3140.89853714
  atomic energy  EATOM  =     49749.42546354
  ---------------------------------------------------
  free energy    TOTEN  =      -176.98589044 eV

  energy without entropy =     -176.97942636  energy(sigma->0) =     -176.98265840
  exchange ACFDT corr.  =        -0.02552768  see jH, gK, PRB 81, 115126


--------------------------------------------------------------------------------------------------------




--------------------------------------- Iteration      1(   6)  ---------------------------------------


    POTLOK:  cpu time      0.3177: real time      0.3200
    SETDIJ:  cpu time      0.7154: real time      0.7215
    TRIAL :  cpu time    102.9896: real time    103.9089
    CORREC:  cpu time    102.8987: real time    103.8096
    EDDIAG:  cpu time     99.8025: real time    100.6573
    CHARGE:  cpu time      0.8418: real time      0.8484
    --------------------------------------------
      LOOP:  cpu time    307.6157: real time    310.3418

 eigenvalue-minimisations  :     0
 total energy-change (2. order) :-0.7058286E+01  (-0.1022791E+02)
 number of electron     588.0000006 magnetization       0.1031183      0.1031241      0.1031098
 augmentation part      154.8575670 magnetization       0.2174970      0.2174455      0.2173604

 Free energy of the ion-electron system (eV)
  ---------------------------------------------------
  alpha Z        PSCENC =      1642.45118531
  Ewald energy   TEWEN  =    -33940.17512409
  -Hartree energ DENC   =    -16888.96302762
  -exchange      EXHF   =      1143.58060539
  -V(xc)+E(xc)   XCENC  =      -624.93770207
  PAW double counting   =    114332.65448987  -112254.89526864
  entropy T*S    EENTRO =        -0.00646408
  eigenvalues    EBANDS =     -3348.71135284
  atomic energy  EATOM  =     49749.42546354
  ---------------------------------------------------
  free energy    TOTEN  =      -184.04417602 eV

  energy without entropy =     -184.03771194  energy(sigma->0) =     -184.04094398
  exchange ACFDT corr.  =        -0.01394011  see jH, gK, PRB 81, 115126


--------------------------------------------------------------------------------------------------------


  average scaling for gradient   0.9686


 average (electrostatic) potential at core
  the test charge radii are     1.0698  1.1897
  (the norm of the test charge is              1.0000)
       1 -32.9131       2 -32.7998       3 -32.7999       4 -32.8472       5 -32.7998
       6 -32.8470       7 -32.8476       8 -32.8361       9 -32.7993      10 -32.9129
      11 -32.8476      12 -32.7994      13 -32.8474      14 -32.8001      15 -32.8362
      16 -32.8477      17 -32.8475      18 -32.8001      19 -32.8364      20 -32.8475
      21 -32.7998      22 -32.9131      23 -32.8471      24 -32.8001      25 -32.7997
      26 -32.8475      27 -32.8478      28 -32.8361      29 -32.9128      30 -32.8000
      31 -32.7993      32 -32.8474      33 -32.1939      34 -86.8888      35 -86.8107
      36 -86.8950      37 -86.8893      38 -86.8894      39 -86.8111      40 -86.8952
      41 -86.8888      42 -86.8547      43 -86.9900      44 -86.9895      45 -86.8545
      46 -86.9902      47 -86.8544      48 -86.8544      49 -86.9899      50 -86.8899
      51 -86.8892      52 -86.8958      53 -86.8958      54 -86.8111      55 -86.8108
      56 -86.8888      57 -86.8893      58 -86.8964      59 -86.8900      60 -86.8962
      61 -86.8893      62 -86.8894      63 -86.8108      64 -86.8894      65 -86.8113



 E-fermi :   3.3385     XC(G=0):  -7.0343     alpha+bet : -7.2837

 WARNING: Could not determine fundamental gap because eigenvalues are not
     sorted.

 Fermi energy:         3.3385030288

 k-point     1 :       0.0000    0.0000    0.0000
  band No.  band energies     occupation 
      1     -10.1149      1.00000
      2     -10.0815      1.00000
      3      -9.9240      1.00000
      4      -9.9236      1.00000
      5      -9.9231      1.00000
      6      -9.8930      1.00000
      7      -9.8929      1.00000
      8      -9.8855      1.00000
      9      -9.8851      1.00000
     10      -9.8847      1.00000
     11      -9.8594      1.00000
     12      -9.8543      1.00000
     13      -9.8543      1.00000
     14      -9.8379      1.00000
     15      -9.8234      1.00000
     16      -9.8195      1.00000
     17      -9.8194      1.00000
     18      -9.8153      1.00000
     19      -9.8107      1.00000
     20      -9.8096      1.00000
     21      -9.8052      1.00000
     22      -9.8051      1.00000
     23      -9.8045      1.00000
     24      -9.8022      1.00000
     25      -9.7966      1.00000
     26      -9.7953      1.00000
     27      -9.7877      1.00000
     28      -9.7791      1.00000
     29      -9.7779      1.00000
     30      -9.7754      1.00000
     31      -9.7721      1.00000
     32      -9.7641      1.00000
     33      -9.7629      1.00000
     34      -9.7598      1.00000
     35      -9.7566      1.00000
     36      -9.7540      1.00000
     37      -9.7498      1.00000
     38      -9.7460      1.00000
     39      -9.7433      1.00000
     40      -9.7382      1.00000
     41      -9.7372      1.00000
     42      -9.7274      1.00000
     43      -9.7235      1.00000
     44      -9.7164      1.00000
     45      -9.7156      1.00000
     46      -9.7100      1.00000
     47      -9.6955      1.00000
     48      -9.6931      1.00000
     49      -9.6899      1.00000
     50      -9.6858      1.00000
     51      -9.6842      1.00000
     52      -9.6828      1.00000
     53      -9.6780      1.00000
     54      -9.6680      1.00000
     55      -9.6679      1.00000
     56      -9.6612      1.00000
     57      -9.6578      1.00000
     58      -9.6472      1.00000
     59      -9.6429      1.00000
     60      -9.6254      1.00000
     61      -9.6240      1.00000
     62      -9.6139      1.00000
     63      -9.6085      1.00000
     64      -9.6074      1.00000
     65      -8.3894      1.00000
     66      -8.3871      1.00000
     67      -8.3861      1.00000
     68      -8.3829      1.00000
     69      -8.3759      1.00000
     70      -8.3730      1.00000
     71      -8.3592      1.00000
     72      -8.3540      1.00000
     73      -8.3239      1.00000
     74      -8.3229      1.00000
     75      -8.3223      1.00000
     76      -8.3216      1.00000
     77      -8.3158      1.00000
     78      -8.3139      1.00000
     79      -8.3134      1.00000
     80      -8.3116      1.00000
     81      -8.3027      1.00000
     82      -8.3018      1.00000
     83      -8.3010      1.00000
     84      -8.3002      1.00000
     85      -8.2979      1.00000
     86      -8.2964      1.00000
     87      -8.2961      1.00000
     88      -8.2947      1.00000
     89      -8.2916      1.00000
     90      -8.2908      1.00000
     91      -8.2897      1.00000
     92      -8.2896      1.00000
     93      -8.2885      1.00000
     94      -8.2881      1.00000
     95      -8.2870      1.00000
     96      -8.2859      1.00000
     97      -8.2830      1.00000
     98      -8.2825      1.00000
     99      -8.2823      1.00000
    100      -8.2821      1.00000
    101      -8.2755      1.00000
    102      -8.2754      1.00000
    103      -8.2750      1.00000
    104      -8.2743      1.00000
    105      -8.2739      1.00000
    106      -8.2733      1.00000
    107      -8.2708      1.00000
    108      -8.2707      1.00000
    109      -8.2699      1.00000
    110      -8.2695      1.00000
    111      -8.2683      1.00000
    112      -8.2682      1.00000
    113      -8.2582      1.00000
    114      -8.2563      1.00000
    115      -8.2558      1.00000
    116      -8.2547      1.00000
    117      -8.2545      1.00000
    118      -8.2544      1.00000
    119      -8.2542      1.00000
    120      -8.2542      1.00000
    121      -8.2454      1.00000
    122      -8.2452      1.00000
    123      -8.2447      1.00000
    124      -8.2446      1.00000
    125      -8.2285      1.00000
    126      -8.2284      1.00000
    127      -8.2269      1.00000
    128      -8.2268      1.00000
    129      -8.2154      1.00000
    130      -8.2134      1.00000
    131      -8.1888      1.00000
    132      -8.1872      1.00000
    133      -8.1857      1.00000
    134      -8.1856      1.00000
    135      -8.1852      1.00000
    136      -8.1851      1.00000
    137      -8.1803      1.00000
    138      -8.1796      1.00000
    139      -8.1791      1.00000
    140      -8.1787      1.00000
    141      -8.1730      1.00000
    142      -8.1727      1.00000
    143      -8.1716      1.00000
    144      -8.1716      1.00000
    145      -8.1712      1.00000
    146      -8.1712      1.00000
    147      -8.1657      1.00000
    148      -8.1652      1.00000
    149      -8.1568      1.00000
    150      -8.1543      1.00000
    151      -8.1530      1.00000
    152      -8.1529      1.00000
    153      -8.1526      1.00000
    154      -8.1524      1.00000
    155      -8.1504      1.00000
    156      -8.1503      1.00000
    157      -8.1495      1.00000
    158      -8.1494      1.00000
    159      -8.1453      1.00000
    160      -8.1449      1.00000
    161      -8.0450      1.00000
    162      -8.0435      1.00000
    163      -8.0325      1.00000
    164      -8.0298      1.00000
    165      -8.0295      1.00000
    166      -8.0286      1.00000
    167      -8.0279      1.00000
    168      -8.0270      1.00000
    169      -8.0205      1.00000
    170      -8.0199      1.00000
    171      -8.0186      1.00000
    172      -8.0181      1.00000
    173      -7.9792      1.00000
    174      -7.9777      1.00000
    175      -7.9585      1.00000
    176      -7.9573      1.00000
    177      -7.9447      1.00000
    178      -7.9440      1.00000
    179      -7.9433      1.00000
    180      -7.9428      1.00000
    181      -7.9344      1.00000
    182      -7.9342      1.00000
    183      -7.9341      1.00000
    184      -7.9338      1.00000
    185      -7.9218      1.00000
    186      -7.9204      1.00000
    187      -7.8707      1.00000
    188      -7.8689      1.00000
    189      -7.8685      1.00000
    190      -7.8669      1.00000
    191      -7.8392      1.00000
    192      -7.8381      1.00000
    193      -7.8380      1.00000
    194      -7.8377      1.00000
    195      -7.8373      1.00000
    196      -7.8359      1.00000
    197      -7.7379      1.00000
    198      -7.7350      1.00000
    199      -7.6875      1.00000
    200      -7.6836      1.00000
    201      -7.6615      1.00000
    202      -7.6595      1.00000
    203      -7.6472      1.00000
    204      -7.6469      1.00000
    205      -7.6463      1.00000
    206      -7.6459      1.00000
    207      -7.6288      1.00000
    208      -7.6268      1.00000
    209      -7.6250      1.00000
    210      -7.6235      1.00000
    211      -7.6213      1.00000
    212      -7.6211      1.00000
    213      -7.6210      1.00000
    214      -7.6210      1.00000
    215      -7.6188      1.00000
    216      -7.6185      1.00000
    217      -7.6182      1.00000
    218      -7.6178      1.00000
    219      -7.6091      1.00000
    220      -7.6080      1.00000
    221      -7.6071      1.00000
    222      -7.6066      1.00000
    223      -7.6064      1.00000
    224      -7.6063      1.00000
    225      -7.5958      1.00000
    226      -7.5939      1.00000
    227      -7.5888      1.00000
    228      -7.5888      1.00000
    229      -7.5880      1.00000
    230      -7.5880      1.00000
    231      -7.5832      1.00000
    232      -7.5827      1.00000
    233      -7.5819      1.00000
    234      -7.5815      1.00000
    235      -7.5807      1.00000
    236      -7.5807      1.00000
    237      -7.5793      1.00000
    238      -7.5792      1.00000
    239      -7.5782      1.00000
    240      -7.5769      1.00000
    241      -7.5750      1.00000
    242      -7.5747      1.00000
    243      -7.5737      1.00000
    244      -7.5736      1.00000
    245      -7.5706      1.00000
    246      -7.5700      1.00000
    247      -7.5696      1.00000
    248      -7.5690      1.00000
    249      -7.5601      1.00000
    250      -7.5593      1.00000
    251      -7.5556      1.00000
    252      -7.5554      1.00000
    253      -7.5543      1.00000
    254      -7.5540      1.00000
    255      -7.5539      1.00000
    256      -7.5529      1.00000
    257      -7.5522      1.00000
    258      -7.5513      1.00000
    259      -7.5503      1.00000
    260      -7.5491      1.00000
    261      -7.5460      1.00000
    262      -7.5459      1.00000
    263      -7.5449      1.00000
    264      -7.5447      1.00000
    265      -7.5402      1.00000
    266      -7.5388      1.00000
    267      -7.5309      1.00000
    268      -7.5308      1.00000
    269      -7.5307      1.00000
    270      -7.5299      1.00000
    271      -7.5298      1.00000
    272      -7.5291      1.00000
    273      -7.5252      1.00000
    274      -7.5249      1.00000
    275      -7.5247      1.00000
    276      -7.5244      1.00000
    277      -7.5206      1.00000
    278      -7.5202      1.00000
    279      -7.5078      1.00000
    280      -7.5074      1.00000
    281      -7.5073      1.00000
    282      -7.5070      1.00000
    283      -7.5040      1.00000
    284      -7.5031      1.00000
    285      -7.5016      1.00000
    286      -7.5008      1.00000
    287      -7.5003      1.00000
    288      -7.5001      1.00000
    289      -7.4985      1.00000
    290      -7.4979      1.00000
    291      -7.4967      1.00000
    292      -7.4966      1.00000
    293      -7.4960      1.00000
    294      -7.4959      1.00000
    295      -7.4884      1.00000
    296      -7.4879      1.00000
    297      -7.4860      1.00000
    298      -7.4854      1.00000
    299      -7.4850      1.00000
    300      -7.4842      1.00000
    301      -7.4837      1.00000
    302      -7.4835      1.00000
    303      -7.4796      1.00000
    304      -7.4787      1.00000
    305      -7.4784      1.00000
    306      -7.4777      1.00000
    307      -7.4712      1.00000
    308      -7.4704      1.00000
    309      -7.4700      1.00000
    310      -7.4695      1.00000
    311      -7.4692      1.00000
    312      -7.4682      1.00000
    313      -7.4674      1.00000
    314      -7.4669      1.00000
    315      -7.4666      1.00000
    316      -7.4662      1.00000
    317      -7.4658      1.00000
    318      -7.4657      1.00000
    319      -7.4635      1.00000
    320      -7.4624      1.00000
    321      -7.4612      1.00000
    322      -7.4605      1.00000
    323      -7.4188      1.00000
    324      -7.4173      1.00000
    325      -7.4167      1.00000
    326      -7.4153      1.00000
    327      -7.4146      1.00000
    328      -7.4115      1.00000
    329      -7.4056      1.00000
    330      -7.4056      1.00000
    331      -7.4049      1.00000
    332      -7.4042      1.00000
    333      -7.4012      1.00000
    334      -7.4012      1.00000
    335      -7.3522      1.00000
    336      -7.3480      1.00000
    337      -7.3478      1.00000
    338      -7.3433      1.00000
    339      -7.2864      1.00000
    340      -7.2839      1.00000
    341      -7.2604      1.00000
    342      -7.2587      1.00000
    343      -7.2564      1.00000
    344      -7.2549      1.00000
    345      -7.2451      1.00000
    346      -7.2408      1.00000
    347      -7.2291      1.00000
    348      -7.2289      1.00000
    349      -7.2279      1.00000
    350      -7.2277      1.00000
    351      -7.1449      1.00000
    352      -7.1438      1.00000
    353      -7.1384      1.00000
    354      -7.1373      1.00000
    355      -7.1274      1.00000
    356      -7.1175      1.00000
    357      -7.1129      1.00000
    358      -7.1106      1.00000
    359      -7.1091      1.00000
    360      -7.1088      1.00000
    361      -7.1052      1.00000
    362      -7.1004      1.00000
    363      -7.0991      1.00000
    364      -7.0977      1.00000
    365      -7.0945      1.00000
    366      -7.0913      1.00000
    367      -7.0912      1.00000
    368      -7.0901      1.00000
    369      -7.0893      1.00000
    370      -7.0859      1.00000
    371      -6.9614      1.00000
    372      -6.9599      1.00000
    373      -6.9498      1.00000
    374      -6.9481      1.00000
    375      -6.9475      1.00000
    376      -6.9424      1.00000
    377      -6.9399      1.00000
    378      -6.9359      1.00000
    379      -6.9353      1.00000
    380      -6.9337      1.00000
    381      -6.9307      1.00000
    382      -6.9299      1.00000
    383      -6.8543      1.00000
    384      -6.8529      1.00000
    385      -6.8452      1.00000
    386      -6.8430      1.00000
    387      -6.8166      1.00000
    388      -6.8092      1.00000
    389      -6.7309      1.00000
    390      -6.7241      1.00000
    391      -6.6860      1.00000
    392      -6.6824      1.00000
    393      -6.6716      1.00000
    394      -6.6704      1.00000
    395      -3.2726      1.00000
    396      -3.2662      1.00000
    397      -2.8720      1.00000
    398      -2.8715      1.00000
    399      -2.8709      1.00000
    400      -2.8547      1.00000
    401      -2.8543      1.00000
    402      -2.8537      1.00000
    403      -2.7942      1.00000
    404      -2.7929      1.00000
    405      -2.7913      1.00000
    406      -2.7738      1.00000
    407      -2.7705      1.00000
    408      -2.7686      1.00000
    409      -2.7461      1.00000
    410      -2.7406      1.00000
    411      -2.7244      1.00000
    412      -2.7215      1.00000
    413      -2.7161      1.00000
    414      -2.7153      1.00000
    415      -2.4990      1.00000
    416      -2.4985      1.00000
    417      -2.4935      1.00000
    418      -2.4881      1.00000
    419      -2.4817      1.00000
    420      -2.4767      1.00000
    421      -2.4551      1.00000
    422      -2.4516      1.00000
    423      -2.2106      1.00000
    424      -2.2105      1.00000
    425      -2.2103      1.00000
    426      -2.2085      1.00000
    427      -2.2065      1.00000
    428      -2.2043      1.00000
    429      -2.1903      1.00000
    430      -2.1874      1.00000
    431      -2.1873      1.00000
    432      -2.1844      1.00000
    433      -2.1111      1.00000
    434      -2.1076      1.00000
    435      -2.0199      1.00000
    436      -2.0196      1.00000
    437      -2.0173      1.00000
    438      -2.0171      1.00000
    439      -2.0124      1.00000
    440      -2.0109      1.00000
    441      -2.0094      1.00000
    442      -2.0066      1.00000
    443      -2.0012      1.00000
    444      -1.9973      1.00000
    445      -1.2000      1.00000
    446      -1.1949      1.00000
    447      -1.0093      1.00000
    448      -1.0087      1.00000
    449      -1.0083      1.00000
    450      -1.0082      1.00000
    451      -1.0036      1.00000
    452      -1.0025      1.00000
    453      -0.9933      1.00000
    454      -0.9932      1.00000
    455      -0.9911      1.00000
    456      -0.9910      1.00000
    457      -0.9645      1.00000
    458      -0.9629      1.00000
    459      -0.9446      1.00000
    460      -0.9415      1.00000
    461      -0.9365      1.00000
    462      -0.9339      1.00000
    463      -0.7994      1.00000
    464      -0.7957      1.00000
    465      -0.6525      1.00000
    466      -0.6469      1.00000
    467      -0.6061      1.00000
    468      -0.6056      1.00000
    469      -0.6038      1.00000
    470      -0.6035      1.00000
    471      -0.5612      1.00000
    472      -0.5587      1.00000
    473      -0.5567      1.00000
    474      -0.5541      1.00000
    475      -0.5199      1.00000
    476      -0.5191      1.00000
    477      -0.5183      1.00000
    478      -0.5124      1.00000
    479      -0.4980      1.00000
    480      -0.4945      1.00000
    481      -0.4892      1.00000
    482      -0.4878      1.00000
    483      -0.4267      1.00000
    484      -0.4266      1.00000
    485      -0.4194      1.00000
    486      -0.4193      1.00000
    487      -0.3996      1.00000
    488      -0.3978      1.00000
    489      -0.3957      1.00000
    490      -0.3927      1.00000
    491      -0.3797      1.00000
    492      -0.3774      1.00000
    493      -0.3487      1.00000
    494      -0.3468      1.00000
    495      -0.3455      1.00000
    496      -0.3411      1.00000
    497      -0.3402      1.00000
    498      -0.3389      1.00000
    499      -0.3159      1.00000
    500      -0.3127      1.00000
    501      -0.2997      1.00000
    502      -0.2986      1.00000
    503      -0.2985      1.00000
    504      -0.2981      1.00000
    505      -0.2864      1.00000
    506      -0.2856      1.00000
    507      -0.2813      1.00000
    508      -0.2775      1.00000
    509      -0.2733      1.00000
    510      -0.2698      1.00000
    511       0.0002      1.00000
    512       0.0009      1.00000
    513       0.0087      1.00000
    514       0.0118      1.00000
    515       0.0481      1.00000
    516       0.0559      1.00000
    517       0.4535      1.00000
    518       0.4643      1.00000
    519       0.4919      1.00000
    520       0.4979      1.00000
    521       0.5016      1.00000
    522       0.5114      1.00000
    523       0.5139      1.00000
    524       0.5174      1.00000
    525       0.5283      1.00000
    526       0.5284      1.00000
    527       0.5390      1.00000
    528       0.5391      1.00000
    529       0.7309      1.00000
    530       0.7442      1.00000
    531       0.7481      1.00000
    532       0.7544      1.00000
    533       0.7621      1.00000
    534       0.7661      1.00000
    535       0.7693      1.00000
    536       0.7814      1.00000
    537       0.8526      1.00000
    538       0.8538      1.00000
    539       0.8638      1.00000
    540       0.8659      1.00000
    541       0.8662      1.00000
    542       0.8719      1.00000
    543       0.8797      1.00000
    544       0.8876      1.00000
    545       0.8933      1.00000
    546       0.8934      1.00000
    547       0.9140      1.00000
    548       0.9237      1.00000
    549       0.9734      1.00000
    550       0.9757      1.00000
    551       0.9794      1.00000
    552       0.9824      1.00000
    553       0.9901      1.00000
    554       0.9930      1.00000
    555       0.9943      1.00000
    556       1.0071      1.00000
    557       1.0081      1.00000
    558       1.0104      1.00000
    559       1.0134      1.00000
    560       1.0150      1.00000
    561       1.0165      1.00000
    562       1.0220      1.00000
    563       1.0243      1.00000
    564       1.0247      1.00000
    565       1.0332      1.00000
    566       1.0334      1.00000
    567       1.0349      1.00000
    568       1.0473      1.00000
    569       1.0506      1.00000
    570       1.0513      1.00000
    571       1.0738      1.00000
    572       1.0739      1.00000
    573       1.2464      1.00000
    574       1.2609      1.00000
    575       1.2656      1.00000
    576       1.2733      1.00000
    577       1.2760      1.00000
    578       1.2835      1.00000
    579       1.2937      1.00000
    580       1.3002      1.00000
    581       1.3083      1.00000
    582       1.3179      1.00000
    583       2.0785      1.00000
    584       2.0998      1.00000
    585       2.1201      1.00000
    586       2.1388      1.00000
    587       2.6683      1.00000
    588       2.6967      1.00000
    589       3.5524      0.55638
    590       3.5642      0.00000
    591       4.1713      0.00000
    592       4.1723      0.00000
    593       4.1732      0.00000
    594       4.2786      0.00000
    595       4.1436      0.00000
    596       4.1445      0.00000
    597       4.1456      0.00000
    598       4.2525      0.00000
    599       5.0063      0.00000
    600       4.9951      0.00000
    601       5.1233      0.00000
    602       5.1389      0.00000
    603       5.1422      0.00000
    604       5.2664      0.00000
    605       5.2690      0.00000
    606       5.2714      0.00000
    607       5.3482      0.00000
    608       4.9573      0.00000
    609       4.9581      0.00000
    610       5.3414      0.00000
    611       5.5172      0.00000
    612       5.5174      0.00000
    613       5.5363      0.00000
    614       5.5500      0.00000
    615       5.5458      0.00000
    616       5.1502      0.00000
    617       5.1417      0.00000
    618       5.1498      0.00000
    619       5.5702      0.00000
    620       5.5236      0.00000
    621       5.4829      0.00000
    622       5.5937      0.00000
    623       5.5708      0.00000
    624       5.5651      0.00000
    625       5.5028      0.00000
    626       5.4039      0.00000
    627       5.4684      0.00000
    628       5.5911      0.00000
    629       5.4986      0.00000
    630       5.6193      0.00000
    631       5.6388      0.00000
    632       5.7372      0.00000
    633       5.7387      0.00000
    634       5.7420      0.00000
    635       5.3587      0.00000
    636       5.7518      0.00000
    637       5.7585      0.00000
    638       5.5084      0.00000
    639       5.5083      0.00000
    640       5.5548      0.00000
    641       5.5792      0.00000
    642       5.5767      0.00000
    643       5.5939      0.00000
    644       5.6498      0.00000
    645       5.6575      0.00000
    646       5.6507      0.00000
    647       5.6581      0.00000
    648       5.6677      0.00000
    649       5.7102      0.00000
    650       5.7032      0.00000
    651       5.7037      0.00000
    652       5.7068      0.00000
    653       5.7142      0.00000
    654       5.7173      0.00000
    655       5.7376      0.00000
    656       5.7376      0.00000
    657       6.4326      0.00000
    658       6.6506      0.00000
    659       6.6768      0.00000
    660       6.6649      0.00000
    661       6.7090      0.00000
    662       6.8505      0.00000
    663       6.7819      0.00000
    664       6.5873      0.00000
    665       6.9408      0.00000
    666       7.0628      0.00000
    667       7.0245      0.00000
    668       7.0802      0.00000
    669       7.1413      0.00000
    670       7.1279      0.00000
    671       7.1521      0.00000
    672       7.1557      0.00000
    673       7.0577      0.00000
    674       7.0678      0.00000
    675       7.0471      0.00000
    676       7.0215      0.00000
    677       6.9927      0.00000
    678       7.0010      0.00000
    679       7.2749      0.00000
    680       7.0627      0.00000
    681       7.1013      0.00000
    682       7.3566      0.00000
    683       7.1502      0.00000
    684       7.1603      0.00000
    685       7.1607      0.00000
    686       7.1597      0.00000
    687       7.1893      0.00000
    688       7.2360      0.00000
    689       7.1584      0.00000
    690       7.2143      0.00000
    691       7.2351      0.00000
    692       7.6437      0.00000
    693       7.5625      0.00000
    694       7.6468      0.00000
    695       7.6119      0.00000
    696       7.5780      0.00000
    697       7.5499      0.00000
    698       7.6912      0.00000
    699       7.7262      0.00000
    700       7.6740      0.00000
    701       7.7661      0.00000
    702       7.2876      0.00000
    703       7.7588      0.00000
    704       7.6932      0.00000
    705       7.7897      0.00000
    706       7.7373      0.00000
    707       7.7089      0.00000
    708       7.7751      0.00000
    709       7.6385      0.00000
    710       7.7898      0.00000
    711       7.9315      0.00000
    712       7.9438      0.00000
    713       7.9346      0.00000
    714       7.9556      0.00000
    715       7.9760      0.00000
    716       7.7259      0.00000
    717       8.0096      0.00000
    718       7.9982      0.00000
    719       7.8565      0.00000
    720       7.7893      0.00000
    721       8.0015      0.00000
    722       8.0368      0.00000
    723       7.9467      0.00000
    724       7.9780      0.00000
    725       7.9916      0.00000
    726       7.8047      0.00000
    727       7.8478      0.00000
    728       7.8972      0.00000
    729       7.9239      0.00000
    730       7.8822      0.00000
    731       7.8663      0.00000
    732       7.9709      0.00000
    733       8.0392      0.00000
    734       8.0058      0.00000
    735       8.0054      0.00000
    736       7.8069      0.00000
    737       7.8285      0.00000
    738       8.0471      0.00000
    739       8.0492      0.00000
    740       8.0263      0.00000
    741       7.8562      0.00000
    742       7.8283      0.00000
    743       8.0467      0.00000
    744       7.8115      0.00000
    745       8.0079      0.00000
    746       8.0028      0.00000
    747       8.0379      0.00000
    748       8.0276      0.00000
    749       8.1109      0.00000
    750       8.2647      0.00000
    751       8.3142      0.00000
    752       8.2730      0.00000
    753       8.1226      0.00000
    754       8.1584      0.00000
    755       8.1685      0.00000
    756       8.1869      0.00000
    757       8.1992      0.00000
    758       8.2231      0.00000
    759       8.2370      0.00000
    760       8.4309      0.00000
    761       8.4269      0.00000
    762       8.4372      0.00000
    763       8.4372      0.00000
    764       8.4403      0.00000
    765       8.4603      0.00000
    766       8.4519      0.00000
    767       8.4694      0.00000
    768       8.2293      0.00000
    769       8.2590      0.00000
    770       8.1298      0.00000
    771       8.1870      0.00000
    772       8.4655      0.00000
    773       8.2784      0.00000
    774       8.1606      0.00000
    775       8.7784      0.00000
    776       8.7641      0.00000
    777       8.7603      0.00000
    778       8.6300      0.00000
    779       8.4257      0.00000
    780       8.4257      0.00000
    781       8.5731      0.00000
    782       8.7683      0.00000
    783       8.7604      0.00000
    784       8.4170      0.00000
    785       8.4204      0.00000
    786       8.4249      0.00000
    787       8.4340      0.00000
    788       8.4327      0.00000
    789       8.4440      0.00000
    790       8.4457      0.00000
    791       8.4466      0.00000
    792       8.4825      0.00000
    793       8.9945      0.00000
    794       8.9955      0.00000
    795       9.0171      0.00000
    796       9.0411      0.00000
    797       9.0714      0.00000
    798       9.0777      0.00000
    799       9.0638      0.00000
    800       9.0847      0.00000
    801       9.0351      0.00000
    802       8.7807      0.00000
    803       9.1223      0.00000
    804       8.8613      0.00000
    805       8.8044      0.00000
    806       9.1376      0.00000
    807       9.1208      0.00000
    808       9.1858      0.00000
    809       8.8321      0.00000
    810       8.8448      0.00000
    811       8.8459      0.00000
    812       9.2254      0.00000
    813       9.2524      0.00000
    814       9.2795      0.00000
    815       9.2568      0.00000
    816       9.2622      0.00000
    817       9.0309      0.00000
    818       9.0448      0.00000
    819       9.4116      0.00000
    820       9.0811      0.00000
    821       9.0909      0.00000
    822       9.0721      0.00000
    823       9.0794      0.00000
    824       9.1280      0.00000
    825       9.1379      0.00000
    826       9.1471      0.00000
    827       9.1550      0.00000
    828       9.1671      0.00000
    829       9.2228      0.00000
    830       9.2060      0.00000
    831       9.2860      0.00000
    832       9.3041      0.00000
    833       9.3079      0.00000
    834       9.3281      0.00000
    835       9.3232      0.00000
    836       9.7192      0.00000
    837       9.7302      0.00000
    838       9.7224      0.00000
    839       9.4649      0.00000
    840       9.6941      0.00000
    841       9.6964      0.00000
    842       9.6982      0.00000
    843      10.0547      0.00000
    844      10.3543      0.00000
    845      10.3609      0.00000
    846      10.3682      0.00000
    847      10.1055      0.00000
    848      10.5921      0.00000
    849      10.5934      0.00000
    850      10.5957      0.00000
    851      10.5966      0.00000
    852      10.6027      0.00000
    853      10.6039      0.00000
    854      10.6064      0.00000
    855      10.6276      0.00000
    856      10.6283      0.00000
    857      10.3650      0.00000
    858      10.3753      0.00000
    859      10.3791      0.00000
    860      10.6257      0.00000
    861      10.6924      0.00000
    862      11.0279      0.00000
    863      11.3179      0.00000
    864      11.3777      0.00000

 k-point     2 :       0.5000    0.0000    0.0000
  band No.  band energies     occupation 
      1     -10.0517      1.00000
      2     -10.0406      1.00000
      3     -10.0165      1.00000
      4     -10.0031      1.00000
      5      -9.9227      1.00000
      6      -9.9145      1.00000
      7      -9.8824      1.00000
      8      -9.8745      1.00000
      9      -9.8703      1.00000
     10      -9.8619      1.00000
     11      -9.8525      1.00000
     12      -9.8503      1.00000
     13      -9.8467      1.00000
     14      -9.8425      1.00000
     15      -9.8348      1.00000
     16      -9.8318      1.00000
     17      -9.8199      1.00000
     18      -9.8184      1.00000
     19      -9.8157      1.00000
     20      -9.8107      1.00000
     21      -9.8068      1.00000
     22      -9.8040      1.00000
     23      -9.8017      1.00000
     24      -9.7998      1.00000
     25      -9.7942      1.00000
     26      -9.7915      1.00000
     27      -9.7898      1.00000
     28      -9.7866      1.00000
     29      -9.7762      1.00000
     30      -9.7699      1.00000
     31      -9.7631      1.00000
     32      -9.7616      1.00000
     33      -9.7604      1.00000
     34      -9.7575      1.00000
     35      -9.7554      1.00000
     36      -9.7490      1.00000
     37      -9.7467      1.00000
     38      -9.7396      1.00000
     39      -9.7380      1.00000
     40      -9.7315      1.00000
     41      -9.7286      1.00000
     42      -9.7238      1.00000
     43      -9.7195      1.00000
     44      -9.7147      1.00000
     45      -9.7127      1.00000
     46      -9.7065      1.00000
     47      -9.6993      1.00000
     48      -9.6978      1.00000
     49      -9.6956      1.00000
     50      -9.6912      1.00000
     51      -9.6836      1.00000
     52      -9.6801      1.00000
     53      -9.6728      1.00000
     54      -9.6695      1.00000
     55      -9.6669      1.00000
     56      -9.6611      1.00000
     57      -9.6570      1.00000
     58      -9.6493      1.00000
     59      -9.6424      1.00000
     60      -9.6315      1.00000
     61      -9.6232      1.00000
     62      -9.6163      1.00000
     63      -9.6146      1.00000
     64      -9.6047      1.00000
     65      -8.3908      1.00000
     66      -8.3876      1.00000
     67      -8.3823      1.00000
     68      -8.3779      1.00000
     69      -8.3745      1.00000
     70      -8.3717      1.00000
     71      -8.3634      1.00000
     72      -8.3582      1.00000
     73      -8.3237      1.00000
     74      -8.3230      1.00000
     75      -8.3222      1.00000
     76      -8.3216      1.00000
     77      -8.3147      1.00000
     78      -8.3129      1.00000
     79      -8.3107      1.00000
     80      -8.3088      1.00000
     81      -8.3016      1.00000
     82      -8.3011      1.00000
     83      -8.3007      1.00000
     84      -8.3004      1.00000
     85      -8.2990      1.00000
     86      -8.2981      1.00000
     87      -8.2978      1.00000
     88      -8.2966      1.00000
     89      -8.2922      1.00000
     90      -8.2915      1.00000
     91      -8.2912      1.00000
     92      -8.2901      1.00000
     93      -8.2881      1.00000
     94      -8.2870      1.00000
     95      -8.2859      1.00000
     96      -8.2851      1.00000
     97      -8.2840      1.00000
     98      -8.2835      1.00000
     99      -8.2824      1.00000
    100      -8.2817      1.00000
    101      -8.2807      1.00000
    102      -8.2801      1.00000
    103      -8.2755      1.00000
    104      -8.2752      1.00000
    105      -8.2707      1.00000
    106      -8.2687      1.00000
    107      -8.2671      1.00000
    108      -8.2661      1.00000
    109      -8.2660      1.00000
    110      -8.2651      1.00000
    111      -8.2647      1.00000
    112      -8.2641      1.00000
    113      -8.2598      1.00000
    114      -8.2583      1.00000
    115      -8.2576      1.00000
    116      -8.2565      1.00000
    117      -8.2558      1.00000
    118      -8.2550      1.00000
    119      -8.2532      1.00000
    120      -8.2516      1.00000
    121      -8.2478      1.00000
    122      -8.2470      1.00000
    123      -8.2468      1.00000
    124      -8.2461      1.00000
    125      -8.2341      1.00000
    126      -8.2338      1.00000
    127      -8.2332      1.00000
    128      -8.2325      1.00000
    129      -8.2266      1.00000
    130      -8.2253      1.00000
    131      -8.2247      1.00000
    132      -8.2228      1.00000
    133      -8.1930      1.00000
    134      -8.1925      1.00000
    135      -8.1912      1.00000
    136      -8.1905      1.00000
    137      -8.1888      1.00000
    138      -8.1879      1.00000
    139      -8.1839      1.00000
    140      -8.1833      1.00000
    141      -8.1748      1.00000
    142      -8.1746      1.00000
    143      -8.1741      1.00000
    144      -8.1738      1.00000
    145      -8.1725      1.00000
    146      -8.1721      1.00000
    147      -8.1664      1.00000
    148      -8.1657      1.00000
    149      -8.1320      1.00000
    150      -8.1314      1.00000
    151      -8.1312      1.00000
    152      -8.1310      1.00000
    153      -8.1238      1.00000
    154      -8.1231      1.00000
    155      -8.1206      1.00000
    156      -8.1196      1.00000
    157      -8.1192      1.00000
    158      -8.1182      1.00000
    159      -8.1063      1.00000
    160      -8.1060      1.00000
    161      -8.0707      1.00000
    162      -8.0690      1.00000
    163      -8.0667      1.00000
    164      -8.0658      1.00000
    165      -8.0516      1.00000
    166      -8.0507      1.00000
    167      -8.0428      1.00000
    168      -8.0411      1.00000
    169      -8.0346      1.00000
    170      -8.0326      1.00000
    171      -8.0318      1.00000
    172      -8.0302      1.00000
    173      -7.9675      1.00000
    174      -7.9665      1.00000
    175      -7.9645      1.00000
    176      -7.9631      1.00000
    177      -7.9587      1.00000
    178      -7.9570      1.00000
    179      -7.9555      1.00000
    180      -7.9541      1.00000
    181      -7.9201      1.00000
    182      -7.9174      1.00000
    183      -7.9068      1.00000
    184      -7.9055      1.00000
    185      -7.8832      1.00000
    186      -7.8827      1.00000
    187      -7.8804      1.00000
    188      -7.8797      1.00000
    189      -7.8611      1.00000
    190      -7.8605      1.00000
    191      -7.8601      1.00000
    192      -7.8601      1.00000
    193      -7.8457      1.00000
    194      -7.8435      1.00000
    195      -7.8343      1.00000
    196      -7.8320      1.00000
    197      -7.7209      1.00000
    198      -7.7181      1.00000
    199      -7.6978      1.00000
    200      -7.6947      1.00000
    201      -7.6606      1.00000
    202      -7.6588      1.00000
    203      -7.6487      1.00000
    204      -7.6474      1.00000
    205      -7.6472      1.00000
    206      -7.6466      1.00000
    207      -7.6411      1.00000
    208      -7.6409      1.00000
    209      -7.6259      1.00000
    210      -7.6251      1.00000
    211      -7.6250      1.00000
    212      -7.6244      1.00000
    213      -7.6229      1.00000
    214      -7.6217      1.00000
    215      -7.6181      1.00000
    216      -7.6166      1.00000
    217      -7.6133      1.00000
    218      -7.6124      1.00000
    219      -7.6097      1.00000
    220      -7.6089      1.00000
    221      -7.6083      1.00000
    222      -7.6079      1.00000
    223      -7.6071      1.00000
    224      -7.6066      1.00000
    225      -7.6018      1.00000
    226      -7.6012      1.00000
    227      -7.5975      1.00000
    228      -7.5968      1.00000
    229      -7.5961      1.00000
    230      -7.5954      1.00000
    231      -7.5914      1.00000
    232      -7.5900      1.00000
    233      -7.5876      1.00000
    234      -7.5867      1.00000
    235      -7.5813      1.00000
    236      -7.5811      1.00000
    237      -7.5802      1.00000
    238      -7.5792      1.00000
    239      -7.5738      1.00000
    240      -7.5728      1.00000
    241      -7.5719      1.00000
    242      -7.5714      1.00000
    243      -7.5710      1.00000
    244      -7.5708      1.00000
    245      -7.5706      1.00000
    246      -7.5699      1.00000
    247      -7.5676      1.00000
    248      -7.5660      1.00000
    249      -7.5615      1.00000
    250      -7.5607      1.00000
    251      -7.5599      1.00000
    252      -7.5586      1.00000
    253      -7.5581      1.00000
    254      -7.5580      1.00000
    255      -7.5573      1.00000
    256      -7.5563      1.00000
    257      -7.5468      1.00000
    258      -7.5460      1.00000
    259      -7.5450      1.00000
    260      -7.5446      1.00000
    261      -7.5420      1.00000
    262      -7.5413      1.00000
    263      -7.5410      1.00000
    264      -7.5399      1.00000
    265      -7.5289      1.00000
    266      -7.5285      1.00000
    267      -7.5268      1.00000
    268      -7.5264      1.00000
    269      -7.5252      1.00000
    270      -7.5242      1.00000
    271      -7.5234      1.00000
    272      -7.5224      1.00000
    273      -7.5209      1.00000
    274      -7.5195      1.00000
    275      -7.5190      1.00000
    276      -7.5185      1.00000
    277      -7.5183      1.00000
    278      -7.5170      1.00000
    279      -7.5162      1.00000
    280      -7.5155      1.00000
    281      -7.5113      1.00000
    282      -7.5109      1.00000
    283      -7.5093      1.00000
    284      -7.5077      1.00000
    285      -7.5064      1.00000
    286      -7.5061      1.00000
    287      -7.5053      1.00000
    288      -7.5044      1.00000
    289      -7.5032      1.00000
    290      -7.5026      1.00000
    291      -7.4999      1.00000
    292      -7.4993      1.00000
    293      -7.4964      1.00000
    294      -7.4956      1.00000
    295      -7.4931      1.00000
    296      -7.4923      1.00000
    297      -7.4869      1.00000
    298      -7.4865      1.00000
    299      -7.4845      1.00000
    300      -7.4835      1.00000
    301      -7.4833      1.00000
    302      -7.4821      1.00000
    303      -7.4814      1.00000
    304      -7.4811      1.00000
    305      -7.4758      1.00000
    306      -7.4749      1.00000
    307      -7.4743      1.00000
    308      -7.4734      1.00000
    309      -7.4724      1.00000
    310      -7.4714      1.00000
    311      -7.4713      1.00000
    312      -7.4708      1.00000
    313      -7.4687      1.00000
    314      -7.4676      1.00000
    315      -7.4671      1.00000
    316      -7.4666      1.00000
    317      -7.4654      1.00000
    318      -7.4654      1.00000
    319      -7.4644      1.00000
    320      -7.4637      1.00000
    321      -7.4605      1.00000
    322      -7.4601      1.00000
    323      -7.4592      1.00000
    324      -7.4590      1.00000
    325      -7.4169      1.00000
    326      -7.4155      1.00000
    327      -7.4014      1.00000
    328      -7.3994      1.00000
    329      -7.3794      1.00000
    330      -7.3780      1.00000
    331      -7.3775      1.00000
    332      -7.3764      1.00000
    333      -7.3690      1.00000
    334      -7.3674      1.00000
    335      -7.3397      1.00000
    336      -7.3369      1.00000
    337      -7.3346      1.00000
    338      -7.3327      1.00000
    339      -7.3157      1.00000
    340      -7.3127      1.00000
    341      -7.2985      1.00000
    342      -7.2954      1.00000
    343      -7.2859      1.00000
    344      -7.2829      1.00000
    345      -7.2094      1.00000
    346      -7.2068      1.00000
    347      -7.2037      1.00000
    348      -7.2020      1.00000
    349      -7.1888      1.00000
    350      -7.1873      1.00000
    351      -7.1836      1.00000
    352      -7.1823      1.00000
    353      -7.1641      1.00000
    354      -7.1570      1.00000
    355      -7.1250      1.00000
    356      -7.1155      1.00000
    357      -7.1146      1.00000
    358      -7.1104      1.00000
    359      -7.0978      1.00000
    360      -7.0944      1.00000
    361      -7.0933      1.00000
    362      -7.0890      1.00000
    363      -7.0874      1.00000
    364      -7.0814      1.00000
    365      -7.0700      1.00000
    366      -7.0666      1.00000
    367      -7.0419      1.00000
    368      -7.0371      1.00000
    369      -7.0351      1.00000
    370      -7.0332      1.00000
    371      -7.0310      1.00000
    372      -7.0271      1.00000
    373      -6.9699      1.00000
    374      -6.9654      1.00000
    375      -6.9602      1.00000
    376      -6.9576      1.00000
    377      -6.9433      1.00000
    378      -6.9397      1.00000
    379      -6.9378      1.00000
    380      -6.9285      1.00000
    381      -6.8816      1.00000
    382      -6.8776      1.00000
    383      -6.8749      1.00000
    384      -6.8714      1.00000
    385      -6.8690      1.00000
    386      -6.8620      1.00000
    387      -6.8515      1.00000
    388      -6.8421      1.00000
    389      -6.7476      1.00000
    390      -6.7386      1.00000
    391      -6.7059      1.00000
    392      -6.6950      1.00000
    393      -6.6907      1.00000
    394      -6.6789      1.00000
    395      -3.1725      1.00000
    396      -3.1565      1.00000
    397      -2.7893      1.00000
    398      -2.7790      1.00000
    399      -2.7767      1.00000
    400      -2.7668      1.00000
    401      -2.6472      1.00000
    402      -2.6429      1.00000
    403      -2.6410      1.00000
    404      -2.6379      1.00000
    405      -2.6335      1.00000
    406      -2.6288      1.00000
    407      -2.6267      1.00000
    408      -2.6217      1.00000
    409      -2.6210      1.00000
    410      -2.6159      1.00000
    411      -2.6112      1.00000
    412      -2.6098      1.00000
    413      -2.6069      1.00000
    414      -2.6017      1.00000
    415      -2.6013      1.00000
    416      -2.5932      1.00000
    417      -2.5898      1.00000
    418      -2.5852      1.00000
    419      -2.5638      1.00000
    420      -2.5562      1.00000
    421      -2.5194      1.00000
    422      -2.5160      1.00000
    423      -2.5098      1.00000
    424      -2.5066      1.00000
    425      -2.4970      1.00000
    426      -2.4886      1.00000
    427      -2.4045      1.00000
    428      -2.3999      1.00000
    429      -2.3975      1.00000
    430      -2.3929      1.00000
    431      -2.3913      1.00000
    432      -2.3863      1.00000
    433      -2.3814      1.00000
    434      -2.3758      1.00000
    435      -2.2753      1.00000
    436      -2.2625      1.00000
    437      -2.2413      1.00000
    438      -2.2285      1.00000
    439      -1.6885      1.00000
    440      -1.6870      1.00000
    441      -1.5161      1.00000
    442      -1.5149      1.00000
    443      -1.5080      1.00000
    444      -1.5070      1.00000
    445      -1.4797      1.00000
    446      -1.4787      1.00000
    447      -1.4500      1.00000
    448      -1.4478      1.00000
    449      -1.3942      1.00000
    450      -1.3928      1.00000
    451      -1.3779      1.00000
    452      -1.3760      1.00000
    453      -1.3693      1.00000
    454      -1.3684      1.00000
    455      -1.1273      1.00000
    456      -1.1200      1.00000
    457      -1.0086      1.00000
    458      -1.0039      1.00000
    459      -0.9929      1.00000
    460      -0.9890      1.00000
    461      -0.9698      1.00000
    462      -0.9660      1.00000
    463      -0.7885      1.00000
    464      -0.7879      1.00000
    465      -0.7110      1.00000
    466      -0.7075      1.00000
    467      -0.6906      1.00000
    468      -0.6865      1.00000
    469      -0.6601      1.00000
    470      -0.6584      1.00000
    471      -0.6414      1.00000
    472      -0.6354      1.00000
    473      -0.6304      1.00000
    474      -0.6267      1.00000
    475      -0.4096      1.00000
    476      -0.4054      1.00000
    477      -0.3979      1.00000
    478      -0.3930      1.00000
    479      -0.2581      1.00000
    480      -0.2510      1.00000
    481      -0.2496      1.00000
    482      -0.2466      1.00000
    483      -0.1936      1.00000
    484      -0.1872      1.00000
    485      -0.1818      1.00000
    486      -0.1750      1.00000
    487      -0.1037      1.00000
    488      -0.0926      1.00000
    489      -0.0905      1.00000
    490      -0.0791      1.00000
    491       0.0685      1.00000
    492       0.0766      1.00000
    493       0.0814      1.00000
    494       0.0950      1.00000
    495       0.0992      1.00000
    496       0.1059      1.00000
    497       0.1129      1.00000
    498       0.1173      1.00000
    499       0.1512      1.00000
    500       0.1549      1.00000
    501       0.1583      1.00000
    502       0.1639      1.00000
    503       0.1717      1.00000
    504       0.1778      1.00000
    505       0.1788      1.00000
    506       0.1862      1.00000
    507       0.1871      1.00000
    508       0.1949      1.00000
    509       0.2015      1.00000
    510       0.2072      1.00000
    511       0.2212      1.00000
    512       0.2261      1.00000
    513       0.2347      1.00000
    514       0.2385      1.00000
    515       0.2451      1.00000
    516       0.2477      1.00000
    517       0.2484      1.00000
    518       0.2546      1.00000
    519       0.2962      1.00000
    520       0.2978      1.00000
    521       0.3073      1.00000
    522       0.3105      1.00000
    523       0.3109      1.00000
    524       0.3137      1.00000
    525       0.3149      1.00000
    526       0.3176      1.00000
    527       0.3199      1.00000
    528       0.3201      1.00000
    529       0.3296      1.00000
    530       0.3341      1.00000
    531       0.3408      1.00000
    532       0.3431      1.00000
    533       0.3496      1.00000
    534       0.3549      1.00000
    535       0.3609      1.00000
    536       0.3635      1.00000
    537       0.3675      1.00000
    538       0.3690      1.00000
    539       0.3709      1.00000
    540       0.3789      1.00000
    541       0.3802      1.00000
    542       0.3859      1.00000
    543       0.4491      1.00000
    544       0.4623      1.00000
    545       0.4648      1.00000
    546       0.4765      1.00000
    547       0.9341      1.00000
    548       0.9476      1.00000
    549       0.9542      1.00000
    550       0.9669      1.00000
    551       0.9762      1.00000
    552       0.9824      1.00000
    553       0.9904      1.00000
    554       0.9964      1.00000
    555       1.0260      1.00000
    556       1.0294      1.00000
    557       1.0323      1.00000
    558       1.0345      1.00000
    559       1.0368      1.00000
    560       1.0420      1.00000
    561       1.0490      1.00000
    562       1.0576      1.00000
    563       1.0618      1.00000
    564       1.0656      1.00000
    565       1.0692      1.00000
    566       1.0735      1.00000
    567       1.0758      1.00000
    568       1.0810      1.00000
    569       1.0868      1.00000
    570       1.0911      1.00000
    571       1.0935      1.00000
    572       1.0982      1.00000
    573       1.1075      1.00000
    574       1.1125      1.00000
    575       1.1138      1.00000
    576       1.1268      1.00000
    577       1.1327      1.00000
    578       1.1582      1.00000
    579       1.2749      1.00000
    580       1.2756      1.00000
    581       1.2970      1.00000
    582       1.2971      1.00000
    583       1.6595      1.00000
    584       1.6844      1.00000
    585       1.6874      1.00000
    586       1.7108      1.00000
    587       3.0779      1.00000
    588       3.1517      0.91572
    589       4.4152      0.00000
    590       4.5444      0.00000
    591       4.6978      0.00000
    592       4.6981      0.00000
    593       4.4334      0.00000
    594       4.8306      0.00000
    595       4.5501      0.00000
    596       4.9306      0.00000
    597       4.9146      0.00000
    598       4.9470      0.00000
    599       4.9846      0.00000
    600       4.9890      0.00000
    601       4.7656      0.00000
    602       4.8012      0.00000
    603       5.1082      0.00000
    604       4.8484      0.00000
    605       5.1543      0.00000
    606       4.9470      0.00000
    607       4.9761      0.00000
    608       5.2355      0.00000
    609       5.0731      0.00000
    610       5.1411      0.00000
    611       5.1888      0.00000
    612       5.2977      0.00000
    613       5.4692      0.00000
    614       5.5189      0.00000
    615       5.5458      0.00000
    616       5.0772      0.00000
    617       5.5274      0.00000
    618       5.6209      0.00000
    619       5.1878      0.00000
    620       5.6230      0.00000
    621       5.6431      0.00000
    622       5.6804      0.00000
    623       5.7099      0.00000
    624       5.6696      0.00000
    625       5.7493      0.00000
    626       5.7223      0.00000
    627       5.7379      0.00000
    628       5.4804      0.00000
    629       5.7926      0.00000
    630       5.4685      0.00000
    631       5.8723      0.00000
    632       5.5649      0.00000
    633       5.5315      0.00000
    634       5.6410      0.00000
    635       5.9009      0.00000
    636       5.6387      0.00000
    637       5.9727      0.00000
    638       5.9891      0.00000
    639       5.7408      0.00000
    640       5.9288      0.00000
    641       5.7544      0.00000
    642       5.6916      0.00000
    643       5.7949      0.00000
    644       5.8240      0.00000
    645       6.0004      0.00000
    646       5.7374      0.00000
    647       5.7999      0.00000
    648       6.0632      0.00000
    649       5.8553      0.00000
    650       6.1662      0.00000
    651       6.0337      0.00000
    652       5.9661      0.00000
    653       6.1904      0.00000
    654       5.9268      0.00000
    655       5.9398      0.00000
    656       5.9930      0.00000
    657       6.0522      0.00000
    658       6.3536      0.00000
    659       6.3008      0.00000
    660       6.1706      0.00000
    661       6.4014      0.00000
    662       6.1008      0.00000
    663       6.4332      0.00000
    664       6.4502      0.00000
    665       6.4561      0.00000
    666       6.4477      0.00000
    667       6.2010      0.00000
    668       6.3781      0.00000
    669       6.2913      0.00000
    670       6.2187      0.00000
    671       6.4933      0.00000
    672       6.2462      0.00000
    673       6.2794      0.00000
    674       6.3810      0.00000
    675       6.3895      0.00000
    676       6.3901      0.00000
    677       6.4253      0.00000
    678       6.4439      0.00000
    679       6.4583      0.00000
    680       6.4628      0.00000
    681       6.4561      0.00000
    682       6.4619      0.00000
    683       7.0182      0.00000
    684       7.0269      0.00000
    685       7.0562      0.00000
    686       7.1472      0.00000
    687       7.1380      0.00000
    688       7.3731      0.00000
    689       7.3676      0.00000
    690       7.3895      0.00000
    691       7.3665      0.00000
    692       7.3555      0.00000
    693       7.3515      0.00000
    694       7.3212      0.00000
    695       7.3916      0.00000
    696       7.3360      0.00000
    697       7.4743      0.00000
    698       7.5083      0.00000
    699       7.4891      0.00000
    700       7.4852      0.00000
    701       7.4918      0.00000
    702       7.2102      0.00000
    703       7.5913      0.00000
    704       7.5992      0.00000
    705       7.6330      0.00000
    706       7.5110      0.00000
    707       7.4796      0.00000
    708       7.7158      0.00000
    709       7.5336      0.00000
    710       7.5621      0.00000
    711       7.5070      0.00000
    712       7.4807      0.00000
    713       7.6893      0.00000
    714       7.5593      0.00000
    715       7.6418      0.00000
    716       7.6657      0.00000
    717       7.5274      0.00000
    718       7.5079      0.00000
    719       7.5080      0.00000
    720       7.5165      0.00000
    721       7.9356      0.00000
    722       7.8976      0.00000
    723       7.9258      0.00000
    724       7.9273      0.00000
    725       7.8970      0.00000
    726       7.7366      0.00000
    727       7.7869      0.00000
    728       7.8895      0.00000
    729       7.9321      0.00000
    730       7.9804      0.00000
    731       8.0005      0.00000
    732       7.9894      0.00000
    733       7.9745      0.00000
    734       7.9855      0.00000
    735       8.0342      0.00000
    736       8.0334      0.00000
    737       8.0402      0.00000
    738       8.0430      0.00000
    739       8.0064      0.00000
    740       8.0380      0.00000
    741       8.0323      0.00000
    742       8.0314      0.00000
    743       8.0533      0.00000
    744       8.0471      0.00000
    745       7.7111      0.00000
    746       7.7311      0.00000
    747       7.7720      0.00000
    748       7.8024      0.00000
    749       7.9410      0.00000
    750       7.9315      0.00000
    751       7.9389      0.00000
    752       7.9386      0.00000
    753       7.9579      0.00000
    754       7.9615      0.00000
    755       7.9866      0.00000
    756       7.9970      0.00000
    757       7.9915      0.00000
    758       7.9987      0.00000
    759       7.9968      0.00000
    760       8.0011      0.00000
    761       8.0287      0.00000
    762       8.0359      0.00000
    763       8.0245      0.00000
    764       8.0293      0.00000
    765       7.9923      0.00000
    766       8.0248      0.00000
    767       8.0112      0.00000
    768       8.0114      0.00000
    769       8.0324      0.00000
    770       8.0319      0.00000
    771       8.7573      0.00000
    772       8.7951      0.00000
    773       8.8326      0.00000
    774       8.8659      0.00000
    775       8.8894      0.00000
    776       8.9114      0.00000
    777       8.9370      0.00000
    778       8.9522      0.00000
    779       9.1689      0.00000
    780       8.8255      0.00000
    781       9.2285      0.00000
    782       8.8878      0.00000
    783       9.3197      0.00000
    784       9.3124      0.00000
    785       8.8548      0.00000
    786       9.4020      0.00000
    787       8.8734      0.00000
    788       9.4155      0.00000
    789       8.9303      0.00000
    790       9.4576      0.00000
    791       9.4575      0.00000
    792       8.9257      0.00000
    793       8.9458      0.00000
    794       8.9533      0.00000
    795       9.5151      0.00000
    796       9.1794      0.00000
    797       9.2909      0.00000
    798       9.3693      0.00000
    799       9.3696      0.00000
    800       9.4066      0.00000
    801       9.4519      0.00000
    802       9.4741      0.00000
    803       9.4756      0.00000
    804       9.8117      0.00000
    805       9.8331      0.00000
    806       9.5344      0.00000
    807       9.9679      0.00000
    808      10.0056      0.00000
    809      10.0197      0.00000
    810      10.0218      0.00000
    811      10.0349      0.00000
    812      10.0483      0.00000
    813      10.0678      0.00000
    814      10.0984      0.00000
    815      10.0800      0.00000
    816      10.1147      0.00000
    817      10.1209      0.00000
    818      10.1290      0.00000
    819      10.1441      0.00000
    820      10.1372      0.00000
    821       9.9628      0.00000
    822      10.0365      0.00000
    823      10.1617      0.00000
    824      10.2134      0.00000
    825      10.1580      0.00000
    826      10.2840      0.00000
    827      10.2816      0.00000
    828      10.3141      0.00000
    829      10.2953      0.00000
    830      10.3363      0.00000
    831      10.3700      0.00000
    832      10.3310      0.00000
    833      10.3199      0.00000
    834      10.0213      0.00000
    835      10.0549      0.00000
    836      10.0658      0.00000
    837      10.0660      0.00000
    838      10.0690      0.00000
    839      10.1046      0.00000
    840      10.1195      0.00000
    841      10.1396      0.00000
    842      10.2883      0.00000
    843      10.4298      0.00000
    844      10.2991      0.00000
    845      10.2797      0.00000
    846      10.3460      0.00000
    847      10.3647      0.00000
    848      10.3264      0.00000
    849      10.3480      0.00000
    850      10.4650      0.00000
    851      10.4220      0.00000
    852      10.4692      0.00000
    853      10.4914      0.00000
    854      10.4730      0.00000
    855      10.3893      0.00000
    856      10.4767      0.00000
    857      10.6088      0.00000
    858      10.5512      0.00000
    859      10.4267      0.00000
    860      10.5403      0.00000
    861      10.4871      0.00000
    862      10.7226      0.00000
    863      10.8057      0.00000
    864      10.6433      0.00000

 k-point     3 :       0.0000    0.5000    0.0000
  band No.  band energies     occupation 
      1     -10.0516      1.00000
      2     -10.0407      1.00000
      3     -10.0166      1.00000
      4     -10.0033      1.00000
      5      -9.9227      1.00000
      6      -9.9145      1.00000
      7      -9.8823      1.00000
      8      -9.8744      1.00000
      9      -9.8702      1.00000
     10      -9.8620      1.00000
     11      -9.8526      1.00000
     12      -9.8504      1.00000
     13      -9.8466      1.00000
     14      -9.8425      1.00000
     15      -9.8347      1.00000
     16      -9.8317      1.00000
     17      -9.8200      1.00000
     18      -9.8185      1.00000
     19      -9.8157      1.00000
     20      -9.8107      1.00000
     21      -9.8068      1.00000
     22      -9.8040      1.00000
     23      -9.8016      1.00000
     24      -9.7997      1.00000
     25      -9.7942      1.00000
     26      -9.7916      1.00000
     27      -9.7897      1.00000
     28      -9.7866      1.00000
     29      -9.7763      1.00000
     30      -9.7699      1.00000
     31      -9.7631      1.00000
     32      -9.7615      1.00000
     33      -9.7603      1.00000
     34      -9.7575      1.00000
     35      -9.7556      1.00000
     36      -9.7491      1.00000
     37      -9.7468      1.00000
     38      -9.7395      1.00000
     39      -9.7380      1.00000
     40      -9.7314      1.00000
     41      -9.7284      1.00000
     42      -9.7238      1.00000
     43      -9.7195      1.00000
     44      -9.7146      1.00000
     45      -9.7128      1.00000
     46      -9.7065      1.00000
     47      -9.6992      1.00000
     48      -9.6977      1.00000
     49      -9.6956      1.00000
     50      -9.6912      1.00000
     51      -9.6835      1.00000
     52      -9.6801      1.00000
     53      -9.6728      1.00000
     54      -9.6695      1.00000
     55      -9.6668      1.00000
     56      -9.6611      1.00000
     57      -9.6570      1.00000
     58      -9.6493      1.00000
     59      -9.6423      1.00000
     60      -9.6315      1.00000
     61      -9.6231      1.00000
     62      -9.6162      1.00000
     63      -9.6146      1.00000
     64      -9.6046      1.00000
     65      -8.3908      1.00000
     66      -8.3876      1.00000
     67      -8.3823      1.00000
     68      -8.3779      1.00000
     69      -8.3745      1.00000
     70      -8.3717      1.00000
     71      -8.3634      1.00000
     72      -8.3582      1.00000
     73      -8.3237      1.00000
     74      -8.3230      1.00000
     75      -8.3223      1.00000
     76      -8.3216      1.00000
     77      -8.3147      1.00000
     78      -8.3129      1.00000
     79      -8.3107      1.00000
     80      -8.3088      1.00000
     81      -8.3016      1.00000
     82      -8.3011      1.00000
     83      -8.3006      1.00000
     84      -8.3004      1.00000
     85      -8.2990      1.00000
     86      -8.2981      1.00000
     87      -8.2978      1.00000
     88      -8.2966      1.00000
     89      -8.2922      1.00000
     90      -8.2915      1.00000
     91      -8.2912      1.00000
     92      -8.2901      1.00000
     93      -8.2881      1.00000
     94      -8.2870      1.00000
     95      -8.2859      1.00000
     96      -8.2851      1.00000
     97      -8.2840      1.00000
     98      -8.2835      1.00000
     99      -8.2825      1.00000
    100      -8.2817      1.00000
    101      -8.2807      1.00000
    102      -8.2801      1.00000
    103      -8.2755      1.00000
    104      -8.2753      1.00000
    105      -8.2707      1.00000
    106      -8.2687      1.00000
    107      -8.2672      1.00000
    108      -8.2662      1.00000
    109      -8.2660      1.00000
    110      -8.2651      1.00000
    111      -8.2646      1.00000
    112      -8.2641      1.00000
    113      -8.2598      1.00000
    114      -8.2583      1.00000
    115      -8.2576      1.00000
    116      -8.2565      1.00000
    117      -8.2558      1.00000
    118      -8.2550      1.00000
    119      -8.2532      1.00000
    120      -8.2516      1.00000
    121      -8.2479      1.00000
    122      -8.2470      1.00000
    123      -8.2467      1.00000
    124      -8.2460      1.00000
    125      -8.2341      1.00000
    126      -8.2337      1.00000
    127      -8.2332      1.00000
    128      -8.2326      1.00000
    129      -8.2265      1.00000
    130      -8.2252      1.00000
    131      -8.2247      1.00000
    132      -8.2228      1.00000
    133      -8.1930      1.00000
    134      -8.1925      1.00000
    135      -8.1911      1.00000
    136      -8.1905      1.00000
    137      -8.1888      1.00000
    138      -8.1879      1.00000
    139      -8.1839      1.00000
    140      -8.1833      1.00000
    141      -8.1749      1.00000
    142      -8.1747      1.00000
    143      -8.1741      1.00000
    144      -8.1737      1.00000
    145      -8.1725      1.00000
    146      -8.1721      1.00000
    147      -8.1664      1.00000
    148      -8.1657      1.00000
    149      -8.1320      1.00000
    150      -8.1313      1.00000
    151      -8.1312      1.00000
    152      -8.1310      1.00000
    153      -8.1239      1.00000
    154      -8.1231      1.00000
    155      -8.1206      1.00000
    156      -8.1196      1.00000
    157      -8.1192      1.00000
    158      -8.1182      1.00000
    159      -8.1063      1.00000
    160      -8.1060      1.00000
    161      -8.0707      1.00000
    162      -8.0690      1.00000
    163      -8.0667      1.00000
    164      -8.0658      1.00000
    165      -8.0516      1.00000
    166      -8.0508      1.00000
    167      -8.0428      1.00000
    168      -8.0411      1.00000
    169      -8.0346      1.00000
    170      -8.0326      1.00000
    171      -8.0318      1.00000
    172      -8.0301      1.00000
    173      -7.9675      1.00000
    174      -7.9665      1.00000
    175      -7.9645      1.00000
    176      -7.9631      1.00000
    177      -7.9587      1.00000
    178      -7.9570      1.00000
    179      -7.9555      1.00000
    180      -7.9541      1.00000
    181      -7.9201      1.00000
    182      -7.9174      1.00000
    183      -7.9068      1.00000
    184      -7.9055      1.00000
    185      -7.8832      1.00000
    186      -7.8827      1.00000
    187      -7.8804      1.00000
    188      -7.8798      1.00000
    189      -7.8611      1.00000
    190      -7.8605      1.00000
    191      -7.8601      1.00000
    192      -7.8600      1.00000
    193      -7.8458      1.00000
    194      -7.8435      1.00000
    195      -7.8343      1.00000
    196      -7.8320      1.00000
    197      -7.7209      1.00000
    198      -7.7181      1.00000
    199      -7.6978      1.00000
    200      -7.6947      1.00000
    201      -7.6606      1.00000
    202      -7.6587      1.00000
    203      -7.6487      1.00000
    204      -7.6474      1.00000
    205      -7.6472      1.00000
    206      -7.6466      1.00000
    207      -7.6412      1.00000
    208      -7.6410      1.00000
    209      -7.6259      1.00000
    210      -7.6251      1.00000
    211      -7.6250      1.00000
    212      -7.6244      1.00000
    213      -7.6229      1.00000
    214      -7.6217      1.00000
    215      -7.6181      1.00000
    216      -7.6166      1.00000
    217      -7.6132      1.00000
    218      -7.6124      1.00000
    219      -7.6097      1.00000
    220      -7.6089      1.00000
    221      -7.6083      1.00000
    222      -7.6079      1.00000
    223      -7.6071      1.00000
    224      -7.6066      1.00000
    225      -7.6018      1.00000
    226      -7.6012      1.00000
    227      -7.5975      1.00000
    228      -7.5969      1.00000
    229      -7.5961      1.00000
    230      -7.5954      1.00000
    231      -7.5915      1.00000
    232      -7.5900      1.00000
    233      -7.5876      1.00000
    234      -7.5866      1.00000
    235      -7.5813      1.00000
    236      -7.5810      1.00000
    237      -7.5801      1.00000
    238      -7.5792      1.00000
    239      -7.5738      1.00000
    240      -7.5728      1.00000
    241      -7.5719      1.00000
    242      -7.5714      1.00000
    243      -7.5710      1.00000
    244      -7.5708      1.00000
    245      -7.5706      1.00000
    246      -7.5699      1.00000
    247      -7.5676      1.00000
    248      -7.5660      1.00000
    249      -7.5615      1.00000
    250      -7.5607      1.00000
    251      -7.5599      1.00000
    252      -7.5586      1.00000
    253      -7.5581      1.00000
    254      -7.5580      1.00000
    255      -7.5572      1.00000
    256      -7.5563      1.00000
    257      -7.5468      1.00000
    258      -7.5460      1.00000
    259      -7.5450      1.00000
    260      -7.5447      1.00000
    261      -7.5420      1.00000
    262      -7.5413      1.00000
    263      -7.5410      1.00000
    264      -7.5399      1.00000
    265      -7.5289      1.00000
    266      -7.5284      1.00000
    267      -7.5268      1.00000
    268      -7.5265      1.00000
    269      -7.5252      1.00000
    270      -7.5243      1.00000
    271      -7.5234      1.00000
    272      -7.5224      1.00000
    273      -7.5209      1.00000
    274      -7.5195      1.00000
    275      -7.5190      1.00000
    276      -7.5185      1.00000
    277      -7.5184      1.00000
    278      -7.5170      1.00000
    279      -7.5162      1.00000
    280      -7.5155      1.00000
    281      -7.5113      1.00000
    282      -7.5109      1.00000
    283      -7.5093      1.00000
    284      -7.5078      1.00000
    285      -7.5064      1.00000
    286      -7.5061      1.00000
    287      -7.5053      1.00000
    288      -7.5044      1.00000
    289      -7.5031      1.00000
    290      -7.5026      1.00000
    291      -7.4999      1.00000
    292      -7.4993      1.00000
    293      -7.4964      1.00000
    294      -7.4956      1.00000
    295      -7.4931      1.00000
    296      -7.4923      1.00000
    297      -7.4869      1.00000
    298      -7.4865      1.00000
    299      -7.4845      1.00000
    300      -7.4835      1.00000
    301      -7.4834      1.00000
    302      -7.4821      1.00000
    303      -7.4814      1.00000
    304      -7.4810      1.00000
    305      -7.4757      1.00000
    306      -7.4748      1.00000
    307      -7.4743      1.00000
    308      -7.4734      1.00000
    309      -7.4725      1.00000
    310      -7.4715      1.00000
    311      -7.4714      1.00000
    312      -7.4709      1.00000
    313      -7.4687      1.00000
    314      -7.4676      1.00000
    315      -7.4670      1.00000
    316      -7.4666      1.00000
    317      -7.4654      1.00000
    318      -7.4653      1.00000
    319      -7.4644      1.00000
    320      -7.4636      1.00000
    321      -7.4606      1.00000
    322      -7.4601      1.00000
    323      -7.4593      1.00000
    324      -7.4590      1.00000
    325      -7.4170      1.00000
    326      -7.4156      1.00000
    327      -7.4014      1.00000
    328      -7.3994      1.00000
    329      -7.3794      1.00000
    330      -7.3780      1.00000
    331      -7.3775      1.00000
    332      -7.3765      1.00000
    333      -7.3691      1.00000
    334      -7.3674      1.00000
    335      -7.3397      1.00000
    336      -7.3369      1.00000
    337      -7.3347      1.00000
    338      -7.3328      1.00000
    339      -7.3157      1.00000
    340      -7.3127      1.00000
    341      -7.2985      1.00000
    342      -7.2955      1.00000
    343      -7.2859      1.00000
    344      -7.2830      1.00000
    345      -7.2094      1.00000
    346      -7.2068      1.00000
    347      -7.2038      1.00000
    348      -7.2021      1.00000
    349      -7.1888      1.00000
    350      -7.1873      1.00000
    351      -7.1837      1.00000
    352      -7.1824      1.00000
    353      -7.1641      1.00000
    354      -7.1571      1.00000
    355      -7.1250      1.00000
    356      -7.1156      1.00000
    357      -7.1148      1.00000
    358      -7.1105      1.00000
    359      -7.0978      1.00000
    360      -7.0945      1.00000
    361      -7.0933      1.00000
    362      -7.0891      1.00000
    363      -7.0874      1.00000
    364      -7.0816      1.00000
    365      -7.0701      1.00000
    366      -7.0667      1.00000
    367      -7.0420      1.00000
    368      -7.0372      1.00000
    369      -7.0352      1.00000
    370      -7.0333      1.00000
    371      -7.0311      1.00000
    372      -7.0272      1.00000
    373      -6.9700      1.00000
    374      -6.9655      1.00000
    375      -6.9604      1.00000
    376      -6.9577      1.00000
    377      -6.9434      1.00000
    378      -6.9398      1.00000
    379      -6.9379      1.00000
    380      -6.9286      1.00000
    381      -6.8816      1.00000
    382      -6.8776      1.00000
    383      -6.8750      1.00000
    384      -6.8716      1.00000
    385      -6.8691      1.00000
    386      -6.8621      1.00000
    387      -6.8515      1.00000
    388      -6.8422      1.00000
    389      -6.7477      1.00000
    390      -6.7387      1.00000
    391      -6.7059      1.00000
    392      -6.6950      1.00000
    393      -6.6908      1.00000
    394      -6.6790      1.00000
    395      -3.1728      1.00000
    396      -3.1566      1.00000
    397      -2.7893      1.00000
    398      -2.7790      1.00000
    399      -2.7768      1.00000
    400      -2.7668      1.00000
    401      -2.6472      1.00000
    402      -2.6429      1.00000
    403      -2.6410      1.00000
    404      -2.6380      1.00000
    405      -2.6335      1.00000
    406      -2.6287      1.00000
    407      -2.6268      1.00000
    408      -2.6218      1.00000
    409      -2.6210      1.00000
    410      -2.6160      1.00000
    411      -2.6113      1.00000
    412      -2.6098      1.00000
    413      -2.6070      1.00000
    414      -2.6017      1.00000
    415      -2.6013      1.00000
    416      -2.5933      1.00000
    417      -2.5899      1.00000
    418      -2.5853      1.00000
    419      -2.5638      1.00000
    420      -2.5563      1.00000
    421      -2.5195      1.00000
    422      -2.5160      1.00000
    423      -2.5099      1.00000
    424      -2.5068      1.00000
    425      -2.4971      1.00000
    426      -2.4887      1.00000
    427      -2.4046      1.00000
    428      -2.3999      1.00000
    429      -2.3976      1.00000
    430      -2.3929      1.00000
    431      -2.3914      1.00000
    432      -2.3864      1.00000
    433      -2.3814      1.00000
    434      -2.3759      1.00000
    435      -2.2756      1.00000
    436      -2.2628      1.00000
    437      -2.2414      1.00000
    438      -2.2287      1.00000
    439      -1.6888      1.00000
    440      -1.6870      1.00000
    441      -1.5161      1.00000
    442      -1.5152      1.00000
    443      -1.5081      1.00000
    444      -1.5072      1.00000
    445      -1.4799      1.00000
    446      -1.4790      1.00000
    447      -1.4501      1.00000
    448      -1.4479      1.00000
    449      -1.3944      1.00000
    450      -1.3930      1.00000
    451      -1.3779      1.00000
    452      -1.3762      1.00000
    453      -1.3695      1.00000
    454      -1.3687      1.00000
    455      -1.1273      1.00000
    456      -1.1200      1.00000
    457      -1.0086      1.00000
    458      -1.0040      1.00000
    459      -0.9930      1.00000
    460      -0.9890      1.00000
    461      -0.9697      1.00000
    462      -0.9659      1.00000
    463      -0.7885      1.00000
    464      -0.7880      1.00000
    465      -0.7111      1.00000
    466      -0.7075      1.00000
    467      -0.6906      1.00000
    468      -0.6865      1.00000
    469      -0.6601      1.00000
    470      -0.6584      1.00000
    471      -0.6415      1.00000
    472      -0.6354      1.00000
    473      -0.6305      1.00000
    474      -0.6267      1.00000
    475      -0.4096      1.00000
    476      -0.4054      1.00000
    477      -0.3979      1.00000
    478      -0.3931      1.00000
    479      -0.2581      1.00000
    480      -0.2511      1.00000
    481      -0.2496      1.00000
    482      -0.2466      1.00000
    483      -0.1934      1.00000
    484      -0.1870      1.00000
    485      -0.1818      1.00000
    486      -0.1751      1.00000
    487      -0.1034      1.00000
    488      -0.0927      1.00000
    489      -0.0905      1.00000
    490      -0.0793      1.00000
    491       0.0684      1.00000
    492       0.0765      1.00000
    493       0.0815      1.00000
    494       0.0950      1.00000
    495       0.0991      1.00000
    496       0.1058      1.00000
    497       0.1129      1.00000
    498       0.1173      1.00000
    499       0.1511      1.00000
    500       0.1549      1.00000
    501       0.1583      1.00000
    502       0.1638      1.00000
    503       0.1716      1.00000
    504       0.1777      1.00000
    505       0.1788      1.00000
    506       0.1862      1.00000
    507       0.1871      1.00000
    508       0.1949      1.00000
    509       0.2015      1.00000
    510       0.2073      1.00000
    511       0.2212      1.00000
    512       0.2261      1.00000
    513       0.2347      1.00000
    514       0.2385      1.00000
    515       0.2451      1.00000
    516       0.2478      1.00000
    517       0.2485      1.00000
    518       0.2545      1.00000
    519       0.2962      1.00000
    520       0.2978      1.00000
    521       0.3073      1.00000
    522       0.3104      1.00000
    523       0.3108      1.00000
    524       0.3137      1.00000
    525       0.3148      1.00000
    526       0.3176      1.00000
    527       0.3198      1.00000
    528       0.3201      1.00000
    529       0.3296      1.00000
    530       0.3341      1.00000
    531       0.3408      1.00000
    532       0.3431      1.00000
    533       0.3497      1.00000
    534       0.3549      1.00000
    535       0.3609      1.00000
    536       0.3636      1.00000
    537       0.3675      1.00000
    538       0.3690      1.00000
    539       0.3709      1.00000
    540       0.3788      1.00000
    541       0.3802      1.00000
    542       0.3858      1.00000
    543       0.4491      1.00000
    544       0.4623      1.00000
    545       0.4647      1.00000
    546       0.4764      1.00000
    547       0.9340      1.00000
    548       0.9476      1.00000
    549       0.9542      1.00000
    550       0.9669      1.00000
    551       0.9762      1.00000
    552       0.9824      1.00000
    553       0.9904      1.00000
    554       0.9964      1.00000
    555       1.0259      1.00000
    556       1.0294      1.00000
    557       1.0323      1.00000
    558       1.0345      1.00000
    559       1.0368      1.00000
    560       1.0420      1.00000
    561       1.0490      1.00000
    562       1.0576      1.00000
    563       1.0618      1.00000
    564       1.0655      1.00000
    565       1.0693      1.00000
    566       1.0735      1.00000
    567       1.0760      1.00000
    568       1.0810      1.00000
    569       1.0868      1.00000
    570       1.0911      1.00000
    571       1.0935      1.00000
    572       1.0981      1.00000
    573       1.1075      1.00000
    574       1.1126      1.00000
    575       1.1138      1.00000
    576       1.1268      1.00000
    577       1.1327      1.00000
    578       1.1582      1.00000
    579       1.2747      1.00000
    580       1.2757      1.00000
    581       1.2970      1.00000
    582       1.2971      1.00000
    583       1.6595      1.00000
    584       1.6845      1.00000
    585       1.6873      1.00000
    586       1.7108      1.00000
    587       3.0779      1.00000
    588       3.1517      0.91690
    589       4.4151      0.00000
    590       4.5442      0.00000
    591       4.6976      0.00000
    592       4.6980      0.00000
    593       4.4332      0.00000
    594       4.8305      0.00000
    595       4.5498      0.00000
    596       4.9304      0.00000
    597       4.9145      0.00000
    598       4.9469      0.00000
    599       4.9846      0.00000
    600       4.9888      0.00000
    601       4.7655      0.00000
    602       4.8011      0.00000
    603       5.1081      0.00000
    604       4.8481      0.00000
    605       5.1544      0.00000
    606       4.9467      0.00000
    607       4.9759      0.00000
    608       5.2352      0.00000
    609       5.0726      0.00000
    610       5.1415      0.00000
    611       5.1885      0.00000
    612       5.2979      0.00000
    613       5.4698      0.00000
    614       5.5181      0.00000
    615       5.5457      0.00000
    616       5.0773      0.00000
    617       5.5275      0.00000
    618       5.6216      0.00000
    619       5.1872      0.00000
    620       5.6227      0.00000
    621       5.6430      0.00000
    622       5.6802      0.00000
    623       5.7099      0.00000
    624       5.6696      0.00000
    625       5.7492      0.00000
    626       5.7223      0.00000
    627       5.7378      0.00000
    628       5.4798      0.00000
    629       5.7931      0.00000
    630       5.4683      0.00000
    631       5.8723      0.00000
    632       5.5654      0.00000
    633       5.5309      0.00000
    634       5.6403      0.00000
    635       5.9016      0.00000
    636       5.6385      0.00000
    637       5.9728      0.00000
    638       5.9878      0.00000
    639       5.7413      0.00000
    640       5.9249      0.00000
    641       5.7573      0.00000
    642       5.6911      0.00000
    643       5.7960      0.00000
    644       5.8209      0.00000
    645       6.0019      0.00000
    646       5.7427      0.00000
    647       5.7956      0.00000
    648       6.0639      0.00000
    649       5.8546      0.00000
    650       6.1661      0.00000
    651       6.0270      0.00000
    652       5.9726      0.00000
    653       6.1961      0.00000
    654       5.9209      0.00000
    655       5.9398      0.00000
    656       5.9930      0.00000
    657       6.0521      0.00000
    658       6.3528      0.00000
    659       6.3010      0.00000
    660       6.1711      0.00000
    661       6.4013      0.00000
    662       6.1008      0.00000
    663       6.4332      0.00000
    664       6.4502      0.00000
    665       6.4561      0.00000
    666       6.4473      0.00000
    667       6.2013      0.00000
    668       6.3778      0.00000
    669       6.2913      0.00000
    670       6.2187      0.00000
    671       6.4933      0.00000
    672       6.2461      0.00000
    673       6.2795      0.00000
    674       6.3809      0.00000
    675       6.3894      0.00000
    676       6.3899      0.00000
    677       6.4253      0.00000
    678       6.4439      0.00000
    679       6.4584      0.00000
    680       6.4627      0.00000
    681       6.4561      0.00000
    682       6.4621      0.00000
    683       7.0182      0.00000
    684       7.0269      0.00000
    685       7.0562      0.00000
    686       7.1471      0.00000
    687       7.1378      0.00000
    688       7.3734      0.00000
    689       7.3673      0.00000
    690       7.3898      0.00000
    691       7.3662      0.00000
    692       7.3551      0.00000
    693       7.3520      0.00000
    694       7.3211      0.00000
    695       7.3917      0.00000
    696       7.3358      0.00000
    697       7.4745      0.00000
    698       7.5083      0.00000
    699       7.4895      0.00000
    700       7.4849      0.00000
    701       7.4918      0.00000
    702       7.2100      0.00000
    703       7.5912      0.00000
    704       7.5992      0.00000
    705       7.6331      0.00000
    706       7.5109      0.00000
    707       7.4796      0.00000
    708       7.7158      0.00000
    709       7.5337      0.00000
    710       7.5618      0.00000
    711       7.5072      0.00000
    712       7.4803      0.00000
    713       7.6899      0.00000
    714       7.5592      0.00000
    715       7.6405      0.00000
    716       7.6668      0.00000
    717       7.5273      0.00000
    718       7.5080      0.00000
    719       7.5082      0.00000
    720       7.5164      0.00000
    721       7.9356      0.00000
    722       7.8976      0.00000
    723       7.9258      0.00000
    724       7.9274      0.00000
    725       7.8963      0.00000
    726       7.7376      0.00000
    727       7.7865      0.00000
    728       7.8901      0.00000
    729       7.9318      0.00000
    730       7.9807      0.00000
    731       8.0003      0.00000
    732       7.9892      0.00000
    733       7.9744      0.00000
    734       7.9855      0.00000
    735       8.0342      0.00000
    736       8.0334      0.00000
    737       8.0401      0.00000
    738       8.0430      0.00000
    739       8.0063      0.00000
    740       8.0379      0.00000
    741       8.0324      0.00000
    742       8.0314      0.00000
    743       8.0534      0.00000
    744       8.0472      0.00000
    745       7.7111      0.00000
    746       7.7310      0.00000
    747       7.7720      0.00000
    748       7.8024      0.00000
    749       7.9407      0.00000
    750       7.9315      0.00000
    751       7.9392      0.00000
    752       7.9387      0.00000
    753       7.9579      0.00000
    754       7.9615      0.00000
    755       7.9865      0.00000
    756       7.9969      0.00000
    757       7.9915      0.00000
    758       7.9993      0.00000
    759       7.9966      0.00000
    760       8.0013      0.00000
    761       8.0289      0.00000
    762       8.0356      0.00000
    763       8.0244      0.00000
    764       8.0292      0.00000
    765       7.9922      0.00000
    766       8.0248      0.00000
    767       8.0113      0.00000
    768       8.0114      0.00000
    769       8.0325      0.00000
    770       8.0319      0.00000
    771       8.7572      0.00000
    772       8.7951      0.00000
    773       8.8326      0.00000
    774       8.8659      0.00000
    775       8.8894      0.00000
    776       8.9114      0.00000
    777       8.9371      0.00000
    778       8.9522      0.00000
    779       9.1690      0.00000
    780       8.8307      0.00000
    781       9.2233      0.00000
    782       8.8934      0.00000
    783       9.3146      0.00000
    784       9.3121      0.00000
    785       8.8548      0.00000
    786       9.4029      0.00000
    787       8.8730      0.00000
    788       9.4165      0.00000
    789       8.9325      0.00000
    790       9.4574      0.00000
    791       9.4550      0.00000
    792       8.9257      0.00000
    793       8.9457      0.00000
    794       8.9530      0.00000
    795       9.5150      0.00000
    796       9.1795      0.00000
    797       9.2916      0.00000
    798       9.3689      0.00000
    799       9.3699      0.00000
    800       9.4063      0.00000
    801       9.4518      0.00000
    802       9.4746      0.00000
    803       9.4753      0.00000
    804       9.8116      0.00000
    805       9.8331      0.00000
    806       9.5326      0.00000
    807       9.9674      0.00000
    808      10.0053      0.00000
    809      10.0200      0.00000
    810      10.0225      0.00000
    811      10.0344      0.00000
    812      10.0482      0.00000
    813      10.0669      0.00000
    814      10.0984      0.00000
    815      10.0816      0.00000
    816      10.1156      0.00000
    817      10.1221      0.00000
    818      10.1266      0.00000
    819      10.1508      0.00000
    820      10.1356      0.00000
    821       9.9560      0.00000
    822      10.0105      0.00000
    823      10.1874      0.00000
    824      10.2096      0.00000
    825      10.1586      0.00000
    826      10.2825      0.00000
    827      10.2820      0.00000
    828      10.3160      0.00000
    829      10.3026      0.00000
    830      10.3239      0.00000
    831      10.3711      0.00000
    832      10.3263      0.00000
    833      10.3121      0.00000
    834      10.0318      0.00000
    835      10.0537      0.00000
    836      10.0506      0.00000
    837      10.0617      0.00000
    838      10.0749      0.00000
    839      10.0983      0.00000
    840      10.1232      0.00000
    841      10.1461      0.00000
    842      10.3473      0.00000
    843      10.2127      0.00000
    844      10.4158      0.00000
    845      10.2565      0.00000
    846      10.3406      0.00000
    847      10.3236      0.00000
    848      10.3723      0.00000
    849      10.4152      0.00000
    850      10.3715      0.00000
    851      10.4943      0.00000
    852      10.5072      0.00000
    853      10.5261      0.00000
    854      10.3951      0.00000
    855      10.4182      0.00000
    856      10.4017      0.00000
    857      10.4740      0.00000
    858      10.5759      0.00000
    859      10.5094      0.00000
    860      10.5181      0.00000
    861      10.4551      0.00000
    862      10.7071      0.00000
    863      10.5874      0.00000
    864      10.8258      0.00000

 k-point     4 :       0.5000    0.5000    0.0000
  band No.  band energies     occupation 
      1     -10.0014      1.00000
      2      -9.9958      1.00000
      3      -9.9946      1.00000
      4      -9.9774      1.00000
      5      -9.9648      1.00000
      6      -9.9584      1.00000
      7      -9.9576      1.00000
      8      -9.9380      1.00000
      9      -9.8703      1.00000
     10      -9.8685      1.00000
     11      -9.8605      1.00000
     12      -9.8550      1.00000
     13      -9.8488      1.00000
     14      -9.8363      1.00000
     15      -9.8333      1.00000
     16      -9.8304      1.00000
     17      -9.8284      1.00000
     18      -9.8201      1.00000
     19      -9.8156      1.00000
     20      -9.8085      1.00000
     21      -9.8052      1.00000
     22      -9.8003      1.00000
     23      -9.7984      1.00000
     24      -9.7915      1.00000
     25      -9.7906      1.00000
     26      -9.7777      1.00000
     27      -9.7732      1.00000
     28      -9.7719      1.00000
     29      -9.7694      1.00000
     30      -9.7688      1.00000
     31      -9.7642      1.00000
     32      -9.7585      1.00000
     33      -9.7562      1.00000
     34      -9.7530      1.00000
     35      -9.7471      1.00000
     36      -9.7454      1.00000
     37      -9.7425      1.00000
     38      -9.7308      1.00000
     39      -9.7295      1.00000
     40      -9.7279      1.00000
     41      -9.7215      1.00000
     42      -9.7190      1.00000
     43      -9.7175      1.00000
     44      -9.7136      1.00000
     45      -9.7094      1.00000
     46      -9.7068      1.00000
     47      -9.7040      1.00000
     48      -9.6983      1.00000
     49      -9.6940      1.00000
     50      -9.6905      1.00000
     51      -9.6867      1.00000
     52      -9.6840      1.00000
     53      -9.6776      1.00000
     54      -9.6752      1.00000
     55      -9.6688      1.00000
     56      -9.6607      1.00000
     57      -9.6561      1.00000
     58      -9.6498      1.00000
     59      -9.6487      1.00000
     60      -9.6384      1.00000
     61      -9.6254      1.00000
     62      -9.6189      1.00000
     63      -9.6103      1.00000
     64      -9.6064      1.00000
     65      -8.3900      1.00000
     66      -8.3884      1.00000
     67      -8.3854      1.00000
     68      -8.3824      1.00000
     69      -8.3729      1.00000
     70      -8.3698      1.00000
     71      -8.3617      1.00000
     72      -8.3564      1.00000
     73      -8.3274      1.00000
     74      -8.3266      1.00000
     75      -8.3261      1.00000
     76      -8.3254      1.00000
     77      -8.3173      1.00000
     78      -8.3166      1.00000
     79      -8.3098      1.00000
     80      -8.3087      1.00000
     81      -8.3052      1.00000
     82      -8.3047      1.00000
     83      -8.3022      1.00000
     84      -8.3009      1.00000
     85      -8.2957      1.00000
     86      -8.2947      1.00000
     87      -8.2917      1.00000
     88      -8.2913      1.00000
     89      -8.2907      1.00000
     90      -8.2901      1.00000
     91      -8.2888      1.00000
     92      -8.2880      1.00000
     93      -8.2877      1.00000
     94      -8.2870      1.00000
     95      -8.2866      1.00000
     96      -8.2861      1.00000
     97      -8.2826      1.00000
     98      -8.2819      1.00000
     99      -8.2805      1.00000
    100      -8.2798      1.00000
    101      -8.2779      1.00000
    102      -8.2769      1.00000
    103      -8.2762      1.00000
    104      -8.2756      1.00000
    105      -8.2710      1.00000
    106      -8.2701      1.00000
    107      -8.2696      1.00000
    108      -8.2688      1.00000
    109      -8.2679      1.00000
    110      -8.2674      1.00000
    111      -8.2654      1.00000
    112      -8.2650      1.00000
    113      -8.2589      1.00000
    114      -8.2577      1.00000
    115      -8.2567      1.00000
    116      -8.2560      1.00000
    117      -8.2557      1.00000
    118      -8.2546      1.00000
    119      -8.2457      1.00000
    120      -8.2453      1.00000
    121      -8.2445      1.00000
    122      -8.2441      1.00000
    123      -8.2407      1.00000
    124      -8.2405      1.00000
    125      -8.2355      1.00000
    126      -8.2348      1.00000
    127      -8.2312      1.00000
    128      -8.2307      1.00000
    129      -8.2253      1.00000
    130      -8.2234      1.00000
    131      -8.2220      1.00000
    132      -8.2203      1.00000
    133      -8.1993      1.00000
    134      -8.1974      1.00000
    135      -8.1958      1.00000
    136      -8.1940      1.00000
    137      -8.1634      1.00000
    138      -8.1630      1.00000
    139      -8.1599      1.00000
    140      -8.1595      1.00000
    141      -8.1586      1.00000
    142      -8.1580      1.00000
    143      -8.1559      1.00000
    144      -8.1556      1.00000
    145      -8.1486      1.00000
    146      -8.1483      1.00000
    147      -8.1476      1.00000
    148      -8.1472      1.00000
    149      -8.1465      1.00000
    150      -8.1463      1.00000
    151      -8.1457      1.00000
    152      -8.1452      1.00000
    153      -8.1420      1.00000
    154      -8.1419      1.00000
    155      -8.1414      1.00000
    156      -8.1412      1.00000
    157      -8.1394      1.00000
    158      -8.1392      1.00000
    159      -8.1303      1.00000
    160      -8.1303      1.00000
    161      -8.1294      1.00000
    162      -8.1294      1.00000
    163      -8.1276      1.00000
    164      -8.1273      1.00000
    165      -8.0351      1.00000
    166      -8.0335      1.00000
    167      -8.0290      1.00000
    168      -8.0287      1.00000
    169      -8.0276      1.00000
    170      -8.0273      1.00000
    171      -8.0271      1.00000
    172      -8.0255      1.00000
    173      -7.9719      1.00000
    174      -7.9709      1.00000
    175      -7.9420      1.00000
    176      -7.9407      1.00000
    177      -7.9303      1.00000
    178      -7.9301      1.00000
    179      -7.9208      1.00000
    180      -7.9203      1.00000
    181      -7.9075      1.00000
    182      -7.9064      1.00000
    183      -7.9012      1.00000
    184      -7.8999      1.00000
    185      -7.8926      1.00000
    186      -7.8916      1.00000
    187      -7.8877      1.00000
    188      -7.8873      1.00000
    189      -7.8819      1.00000
    190      -7.8808      1.00000
    191      -7.8617      1.00000
    192      -7.8612      1.00000
    193      -7.8424      1.00000
    194      -7.8407      1.00000
    195      -7.8397      1.00000
    196      -7.8378      1.00000
    197      -7.7138      1.00000
    198      -7.7111      1.00000
    199      -7.6944      1.00000
    200      -7.6916      1.00000
    201      -7.6529      1.00000
    202      -7.6514      1.00000
    203      -7.6479      1.00000
    204      -7.6473      1.00000
    205      -7.6425      1.00000
    206      -7.6411      1.00000
    207      -7.6405      1.00000
    208      -7.6397      1.00000
    209      -7.6346      1.00000
    210      -7.6342      1.00000
    211      -7.6265      1.00000
    212      -7.6258      1.00000
    213      -7.6198      1.00000
    214      -7.6191      1.00000
    215      -7.6186      1.00000
    216      -7.6176      1.00000
    217      -7.6123      1.00000
    218      -7.6115      1.00000
    219      -7.6103      1.00000
    220      -7.6100      1.00000
    221      -7.6096      1.00000
    222      -7.6091      1.00000
    223      -7.6087      1.00000
    224      -7.6084      1.00000
    225      -7.6015      1.00000
    226      -7.6013      1.00000
    227      -7.6005      1.00000
    228      -7.5998      1.00000
    229      -7.5970      1.00000
    230      -7.5962      1.00000
    231      -7.5916      1.00000
    232      -7.5908      1.00000
    233      -7.5863      1.00000
    234      -7.5853      1.00000
    235      -7.5850      1.00000
    236      -7.5839      1.00000
    237      -7.5793      1.00000
    238      -7.5781      1.00000
    239      -7.5753      1.00000
    240      -7.5743      1.00000
    241      -7.5737      1.00000
    242      -7.5728      1.00000
    243      -7.5705      1.00000
    244      -7.5694      1.00000
    245      -7.5687      1.00000
    246      -7.5678      1.00000
    247      -7.5664      1.00000
    248      -7.5660      1.00000
    249      -7.5644      1.00000
    250      -7.5639      1.00000
    251      -7.5611      1.00000
    252      -7.5607      1.00000
    253      -7.5600      1.00000
    254      -7.5589      1.00000
    255      -7.5556      1.00000
    256      -7.5549      1.00000
    257      -7.5520      1.00000
    258      -7.5514      1.00000
    259      -7.5490      1.00000
    260      -7.5489      1.00000
    261      -7.5396      1.00000
    262      -7.5393      1.00000
    263      -7.5354      1.00000
    264      -7.5351      1.00000
    265      -7.5329      1.00000
    266      -7.5319      1.00000
    267      -7.5291      1.00000
    268      -7.5282      1.00000
    269      -7.5269      1.00000
    270      -7.5259      1.00000
    271      -7.5241      1.00000
    272      -7.5226      1.00000
    273      -7.5206      1.00000
    274      -7.5198      1.00000
    275      -7.5193      1.00000
    276      -7.5187      1.00000
    277      -7.5172      1.00000
    278      -7.5162      1.00000
    279      -7.5116      1.00000
    280      -7.5100      1.00000
    281      -7.5075      1.00000
    282      -7.5065      1.00000
    283      -7.5059      1.00000
    284      -7.5045      1.00000
    285      -7.5026      1.00000
    286      -7.5020      1.00000
    287      -7.5009      1.00000
    288      -7.5003      1.00000
    289      -7.4994      1.00000
    290      -7.4987      1.00000
    291      -7.4956      1.00000
    292      -7.4951      1.00000
    293      -7.4946      1.00000
    294      -7.4944      1.00000
    295      -7.4935      1.00000
    296      -7.4932      1.00000
    297      -7.4912      1.00000
    298      -7.4902      1.00000
    299      -7.4887      1.00000
    300      -7.4880      1.00000
    301      -7.4866      1.00000
    302      -7.4862      1.00000
    303      -7.4835      1.00000
    304      -7.4826      1.00000
    305      -7.4801      1.00000
    306      -7.4787      1.00000
    307      -7.4759      1.00000
    308      -7.4758      1.00000
    309      -7.4740      1.00000
    310      -7.4733      1.00000
    311      -7.4722      1.00000
    312      -7.4712      1.00000
    313      -7.4695      1.00000
    314      -7.4690      1.00000
    315      -7.4686      1.00000
    316      -7.4685      1.00000
    317      -7.4674      1.00000
    318      -7.4667      1.00000
    319      -7.4647      1.00000
    320      -7.4642      1.00000
    321      -7.4630      1.00000
    322      -7.4620      1.00000
    323      -7.4616      1.00000
    324      -7.4608      1.00000
    325      -7.4570      1.00000
    326      -7.4557      1.00000
    327      -7.4549      1.00000
    328      -7.4530      1.00000
    329      -7.3853      1.00000
    330      -7.3817      1.00000
    331      -7.3561      1.00000
    332      -7.3548      1.00000
    333      -7.3384      1.00000
    334      -7.3341      1.00000
    335      -7.3219      1.00000
    336      -7.3193      1.00000
    337      -7.3148      1.00000
    338      -7.3101      1.00000
    339      -7.2972      1.00000
    340      -7.2914      1.00000
    341      -7.2751      1.00000
    342      -7.2720      1.00000
    343      -7.2630      1.00000
    344      -7.2590      1.00000
    345      -7.2580      1.00000
    346      -7.2554      1.00000
    347      -7.2423      1.00000
    348      -7.2384      1.00000
    349      -7.1551      1.00000
    350      -7.1544      1.00000
    351      -7.1523      1.00000
    352      -7.1450      1.00000
    353      -7.1196      1.00000
    354      -7.1165      1.00000
    355      -7.1149      1.00000
    356      -7.1126      1.00000
    357      -7.1069      1.00000
    358      -7.1045      1.00000
    359      -7.0789      1.00000
    360      -7.0779      1.00000
    361      -7.0737      1.00000
    362      -7.0714      1.00000
    363      -7.0687      1.00000
    364      -7.0666      1.00000
    365      -7.0606      1.00000
    366      -7.0603      1.00000
    367      -7.0542      1.00000
    368      -7.0512      1.00000
    369      -7.0128      1.00000
    370      -7.0124      1.00000
    371      -7.0063      1.00000
    372      -7.0052      1.00000
    373      -6.9857      1.00000
    374      -6.9809      1.00000
    375      -6.9778      1.00000
    376      -6.9716      1.00000
    377      -6.9691      1.00000
    378      -6.9655      1.00000
    379      -6.9489      1.00000
    380      -6.9435      1.00000
    381      -6.9364      1.00000
    382      -6.9341      1.00000
    383      -6.9301      1.00000
    384      -6.9267      1.00000
    385      -6.8716      1.00000
    386      -6.8657      1.00000
    387      -6.8406      1.00000
    388      -6.8337      1.00000
    389      -6.7506      1.00000
    390      -6.7414      1.00000
    391      -6.7118      1.00000
    392      -6.7015      1.00000
    393      -6.6949      1.00000
    394      -6.6840      1.00000
    395      -3.1737      1.00000
    396      -3.1595      1.00000
    397      -2.7632      1.00000
    398      -2.7585      1.00000
    399      -2.7552      1.00000
    400      -2.7514      1.00000
    401      -2.7493      1.00000
    402      -2.7442      1.00000
    403      -2.7409      1.00000
    404      -2.7334      1.00000
    405      -2.7277      1.00000
    406      -2.7259      1.00000
    407      -2.6729      1.00000
    408      -2.6622      1.00000
    409      -2.6054      1.00000
    410      -2.5992      1.00000
    411      -2.5936      1.00000
    412      -2.5921      1.00000
    413      -2.5858      1.00000
    414      -2.5845      1.00000
    415      -2.5463      1.00000
    416      -2.5397      1.00000
    417      -2.5333      1.00000
    418      -2.5252      1.00000
    419      -2.4415      1.00000
    420      -2.4332      1.00000
    421      -2.4278      1.00000
    422      -2.4232      1.00000
    423      -2.4140      1.00000
    424      -2.4111      1.00000
    425      -2.3915      1.00000
    426      -2.3890      1.00000
    427      -2.3111      1.00000
    428      -2.3053      1.00000
    429      -2.2935      1.00000
    430      -2.2876      1.00000
    431      -2.2783      1.00000
    432      -2.2729      1.00000
    433      -2.2470      1.00000
    434      -2.2398      1.00000
    435      -2.1330      1.00000
    436      -2.1264      1.00000
    437      -2.0067      1.00000
    438      -2.0031      1.00000
    439      -2.0019      1.00000
    440      -2.0006      1.00000
    441      -1.9933      1.00000
    442      -1.9891      1.00000
    443      -1.9785      1.00000
    444      -1.9749      1.00000
    445      -1.9275      1.00000
    446      -1.9250      1.00000
    447      -1.9248      1.00000
    448      -1.9201      1.00000
    449      -1.9183      1.00000
    450      -1.9177      1.00000
    451      -1.1448      1.00000
    452      -1.1353      1.00000
    453      -1.0423      1.00000
    454      -1.0391      1.00000
    455      -0.8490      1.00000
    456      -0.8459      1.00000
    457      -0.7702      1.00000
    458      -0.7665      1.00000
    459      -0.5888      1.00000
    460      -0.5794      1.00000
    461      -0.5227      1.00000
    462      -0.5186      1.00000
    463      -0.5134      1.00000
    464      -0.5111      1.00000
    465      -0.4884      1.00000
    466      -0.4866      1.00000
    467      -0.4819      1.00000
    468      -0.4791      1.00000
    469      -0.4769      1.00000
    470      -0.4750      1.00000
    471      -0.4645      1.00000
    472      -0.4612      1.00000
    473      -0.4548      1.00000
    474      -0.4514      1.00000
    475      -0.4265      1.00000
    476      -0.4232      1.00000
    477      -0.3714      1.00000
    478      -0.3685      1.00000
    479      -0.3155      1.00000
    480      -0.3128      1.00000
    481      -0.2952      1.00000
    482      -0.2939      1.00000
    483      -0.2841      1.00000
    484      -0.2819      1.00000
    485      -0.2663      1.00000
    486      -0.2623      1.00000
    487      -0.2596      1.00000
    488      -0.2584      1.00000
    489      -0.2426      1.00000
    490      -0.2381      1.00000
    491      -0.2133      1.00000
    492      -0.2119      1.00000
    493      -0.1773      1.00000
    494      -0.1735      1.00000
    495      -0.1732      1.00000
    496      -0.1683      1.00000
    497      -0.1558      1.00000
    498      -0.1533      1.00000
    499       0.0473      1.00000
    500       0.0571      1.00000
    501       0.0590      1.00000
    502       0.0606      1.00000
    503       0.0687      1.00000
    504       0.0711      1.00000
    505       0.0912      1.00000
    506       0.0924      1.00000
    507       0.1869      1.00000
    508       0.1941      1.00000
    509       0.1988      1.00000
    510       0.2061      1.00000
    511       0.2137      1.00000
    512       0.2185      1.00000
    513       0.2193      1.00000
    514       0.2353      1.00000
    515       0.2393      1.00000
    516       0.2448      1.00000
    517       0.2461      1.00000
    518       0.2500      1.00000
    519       0.2657      1.00000
    520       0.2721      1.00000
    521       0.2791      1.00000
    522       0.2845      1.00000
    523       0.4594      1.00000
    524       0.4651      1.00000
    525       0.4687      1.00000
    526       0.4725      1.00000
    527       0.4752      1.00000
    528       0.4773      1.00000
    529       0.4816      1.00000
    530       0.4853      1.00000
    531       0.4888      1.00000
    532       0.4971      1.00000
    533       0.4981      1.00000
    534       0.5047      1.00000
    535       0.5068      1.00000
    536       0.5096      1.00000
    537       0.5183      1.00000
    538       0.5209      1.00000
    539       0.5680      1.00000
    540       0.5727      1.00000
    541       0.5785      1.00000
    542       0.5803      1.00000
    543       0.5849      1.00000
    544       0.5904      1.00000
    545       0.6025      1.00000
    546       0.6194      1.00000
    547       0.6259      1.00000
    548       0.6284      1.00000
    549       0.6328      1.00000
    550       0.6352      1.00000
    551       0.6423      1.00000
    552       0.6444      1.00000
    553       0.6569      1.00000
    554       0.6637      1.00000
    555       0.8549      1.00000
    556       0.8711      1.00000
    557       0.8810      1.00000
    558       0.8913      1.00000
    559       0.9683      1.00000
    560       0.9798      1.00000
    561       0.9921      1.00000
    562       0.9969      1.00000
    563       1.0031      1.00000
    564       1.0080      1.00000
    565       1.0161      1.00000
    566       1.0203      1.00000
    567       1.0321      1.00000
    568       1.0350      1.00000
    569       1.0383      1.00000
    570       1.0419      1.00000
    571       1.0446      1.00000
    572       1.0469      1.00000
    573       1.0516      1.00000
    574       1.0522      1.00000
    575       1.0575      1.00000
    576       1.0654      1.00000
    577       1.0689      1.00000
    578       1.0733      1.00000
    579       1.6892      1.00000
    580       1.6907      1.00000
    581       1.6946      1.00000
    582       1.7313      1.00000
    583       1.7362      1.00000
    584       1.7407      1.00000
    585       1.7437      1.00000
    586       1.7849      1.00000
    587       3.0677      1.00000
    588       3.1438      0.89820
    589       4.6047      0.00000
    590       4.6081      0.00000
    591       4.7645      0.00000
    592       4.8087      0.00000
    593       4.7759      0.00000
    594       4.9166      0.00000
    595       4.9184      0.00000
    596       4.6288      0.00000
    597       4.6467      0.00000
    598       4.9900      0.00000
    599       5.0362      0.00000
    600       5.0294      0.00000
    601       5.0677      0.00000
    602       4.7866      0.00000
    603       5.1241      0.00000
    604       4.7959      0.00000
    605       4.8634      0.00000
    606       4.9238      0.00000
    607       4.9396      0.00000
    608       5.2843      0.00000
    609       5.2788      0.00000
    610       5.3293      0.00000
    611       5.0199      0.00000
    612       5.0518      0.00000
    613       5.1355      0.00000
    614       5.1304      0.00000
    615       5.3351      0.00000
    616       5.3927      0.00000
    617       5.3258      0.00000
    618       5.4877      0.00000
    619       5.6258      0.00000
    620       5.6998      0.00000
    621       5.6830      0.00000
    622       5.2854      0.00000
    623       5.2866      0.00000
    624       5.6157      0.00000
    625       5.5980      0.00000
    626       5.6014      0.00000
    627       5.7599      0.00000
    628       5.7575      0.00000
    629       5.7873      0.00000
    630       5.7930      0.00000
    631       5.8085      0.00000
    632       5.8105      0.00000
    633       5.8099      0.00000
    634       5.6289      0.00000
    635       5.5438      0.00000
    636       5.8275      0.00000
    637       5.7971      0.00000
    638       5.9038      0.00000
    639       5.7158      0.00000
    640       5.9389      0.00000
    641       5.8324      0.00000
    642       5.8666      0.00000
    643       6.0014      0.00000
    644       6.0351      0.00000
    645       6.0169      0.00000
    646       5.9493      0.00000
    647       5.7406      0.00000
    648       5.7509      0.00000
    649       5.7831      0.00000
    650       5.7912      0.00000
    651       5.8059      0.00000
    652       5.8297      0.00000
    653       5.8401      0.00000
    654       5.8449      0.00000
    655       5.8608      0.00000
    656       5.8605      0.00000
    657       5.8624      0.00000
    658       5.8930      0.00000
    659       5.8834      0.00000
    660       5.9759      0.00000
    661       5.9955      0.00000
    662       6.0307      0.00000
    663       6.0282      0.00000
    664       6.0626      0.00000
    665       6.0590      0.00000
    666       6.0905      0.00000
    667       6.5833      0.00000
    668       6.6729      0.00000
    669       6.8124      0.00000
    670       6.8350      0.00000
    671       6.9501      0.00000
    672       6.7814      0.00000
    673       6.9178      0.00000
    674       6.8813      0.00000
    675       6.9637      0.00000
    676       6.9432      0.00000
    677       7.0170      0.00000
    678       7.0428      0.00000
    679       7.0451      0.00000
    680       7.0706      0.00000
    681       6.7994      0.00000
    682       7.0081      0.00000
    683       7.0986      0.00000
    684       7.1103      0.00000
    685       7.1024      0.00000
    686       7.1140      0.00000
    687       7.0303      0.00000
    688       7.1405      0.00000
    689       6.9865      0.00000
    690       6.9629      0.00000
    691       7.1060      0.00000
    692       7.1558      0.00000
    693       7.1631      0.00000
    694       7.1428      0.00000
    695       6.9301      0.00000
    696       6.9469      0.00000
    697       6.9918      0.00000
    698       7.0058      0.00000
    699       7.0261      0.00000
    700       7.0604      0.00000
    701       7.0657      0.00000
    702       7.0736      0.00000
    703       7.0444      0.00000
    704       7.0894      0.00000
    705       7.1216      0.00000
    706       7.0911      0.00000
    707       7.1331      0.00000
    708       7.1135      0.00000
    709       7.4087      0.00000
    710       7.3624      0.00000
    711       7.1964      0.00000
    712       7.1751      0.00000
    713       7.1551      0.00000
    714       7.2064      0.00000
    715       7.2059      0.00000
    716       7.2914      0.00000
    717       7.3073      0.00000
    718       7.4765      0.00000
    719       7.7217      0.00000
    720       7.7596      0.00000
    721       7.7124      0.00000
    722       7.5021      0.00000
    723       7.9698      0.00000
    724       7.6098      0.00000
    725       7.5985      0.00000
    726       7.7829      0.00000
    727       7.9676      0.00000
    728       8.0619      0.00000
    729       8.0628      0.00000
    730       8.2384      0.00000
    731       7.8974      0.00000
    732       7.9289      0.00000
    733       8.3229      0.00000
    734       8.0239      0.00000
    735       8.3387      0.00000
    736       8.1826      0.00000
    737       8.2904      0.00000
    738       8.3281      0.00000
    739       8.3460      0.00000
    740       8.4135      0.00000
    741       8.4244      0.00000
    742       8.3938      0.00000
    743       8.1878      0.00000
    744       8.3922      0.00000
    745       8.3762      0.00000
    746       8.4289      0.00000
    747       8.3701      0.00000
    748       8.4684      0.00000
    749       8.4638      0.00000
    750       8.4825      0.00000
    751       8.4647      0.00000
    752       8.2479      0.00000
    753       8.2387      0.00000
    754       8.4339      0.00000
    755       8.5665      0.00000
    756       8.5972      0.00000
    757       8.5771      0.00000
    758       8.5844      0.00000
    759       8.6147      0.00000
    760       8.5896      0.00000
    761       8.6126      0.00000
    762       8.6399      0.00000
    763       8.5614      0.00000
    764       8.4766      0.00000
    765       8.6855      0.00000
    766       8.7134      0.00000
    767       8.3575      0.00000
    768       8.4232      0.00000
    769       8.4042      0.00000
    770       8.3894      0.00000
    771       8.4689      0.00000
    772       8.3646      0.00000
    773       8.4805      0.00000
    774       8.4078      0.00000
    775       8.4313      0.00000
    776       8.4628      0.00000
    777       8.4676      0.00000
    778       8.4555      0.00000
    779       8.4749      0.00000
    780       8.4839      0.00000
    781       8.5085      0.00000
    782       8.5641      0.00000
    783       8.5809      0.00000
    784       8.5997      0.00000
    785       8.6143      0.00000
    786       8.6212      0.00000
    787       8.6246      0.00000
    788       8.6370      0.00000
    789       8.6351      0.00000
    790       8.6514      0.00000
    791       8.6581      0.00000
    792       8.6735      0.00000
    793       8.7146      0.00000
    794       8.7166      0.00000
    795       9.5351      0.00000
    796       9.5438      0.00000
    797       9.6475      0.00000
    798       9.6980      0.00000
    799       9.7513      0.00000
    800       9.7618      0.00000
    801       9.7768      0.00000
    802       9.8212      0.00000
    803       9.8296      0.00000
    804       9.9133      0.00000
    805       9.9267      0.00000
    806       9.9270      0.00000
    807       9.7114      0.00000
    808       9.6932      0.00000
    809       9.8280      0.00000
    810       9.9523      0.00000
    811       9.6828      0.00000
    812       9.7617      0.00000
    813      10.0090      0.00000
    814       9.8244      0.00000
    815       9.8102      0.00000
    816       9.8391      0.00000
    817      10.0588      0.00000
    818       9.8486      0.00000
    819       9.9897      0.00000
    820      10.0495      0.00000
    821      10.1351      0.00000
    822      10.1373      0.00000
    823      10.1530      0.00000
    824      10.1233      0.00000
    825      10.1230      0.00000
    826      10.1982      0.00000
    827      10.2000      0.00000
    828      10.2608      0.00000
    829      10.3447      0.00000
    830      10.4352      0.00000
    831      10.2328      0.00000
    832      10.4567      0.00000
    833      10.4825      0.00000
    834      10.2209      0.00000
    835      10.6302      0.00000
    836      10.5450      0.00000
    837      10.5032      0.00000
    838      10.3498      0.00000
    839      10.5482      0.00000
    840      10.6156      0.00000
    841      10.6500      0.00000
    842      10.6599      0.00000
    843      10.6758      0.00000
    844      10.6701      0.00000
    845      10.7100      0.00000
    846      10.6786      0.00000
    847      10.6686      0.00000
    848      10.7207      0.00000
    849      10.7393      0.00000
    850      10.7243      0.00000
    851      10.6810      0.00000
    852      10.7465      0.00000
    853      10.8487      0.00000
    854      10.8555      0.00000
    855      10.8786      0.00000
    856      10.9119      0.00000
    857      10.9137      0.00000
    858      10.9870      0.00000
    859      10.9930      0.00000
    860      11.0413      0.00000
    861      11.0533      0.00000
    862      11.0441      0.00000
    863      11.0830      0.00000
    864      11.1265      0.00000

 k-point     5 :       0.0000    0.0000    0.5000
  band No.  band energies     occupation 
      1     -10.0516      1.00000
      2     -10.0407      1.00000
      3     -10.0165      1.00000
      4     -10.0032      1.00000
      5      -9.9227      1.00000
      6      -9.9145      1.00000
      7      -9.8823      1.00000
      8      -9.8744      1.00000
      9      -9.8702      1.00000
     10      -9.8619      1.00000
     11      -9.8526      1.00000
     12      -9.8503      1.00000
     13      -9.8467      1.00000
     14      -9.8425      1.00000
     15      -9.8348      1.00000
     16      -9.8317      1.00000
     17      -9.8200      1.00000
     18      -9.8184      1.00000
     19      -9.8157      1.00000
     20      -9.8107      1.00000
     21      -9.8068      1.00000
     22      -9.8040      1.00000
     23      -9.8016      1.00000
     24      -9.7997      1.00000
     25      -9.7942      1.00000
     26      -9.7915      1.00000
     27      -9.7898      1.00000
     28      -9.7866      1.00000
     29      -9.7762      1.00000
     30      -9.7699      1.00000
     31      -9.7631      1.00000
     32      -9.7614      1.00000
     33      -9.7603      1.00000
     34      -9.7575      1.00000
     35      -9.7555      1.00000
     36      -9.7490      1.00000
     37      -9.7467      1.00000
     38      -9.7396      1.00000
     39      -9.7380      1.00000
     40      -9.7315      1.00000
     41      -9.7285      1.00000
     42      -9.7238      1.00000
     43      -9.7195      1.00000
     44      -9.7146      1.00000
     45      -9.7128      1.00000
     46      -9.7065      1.00000
     47      -9.6992      1.00000
     48      -9.6977      1.00000
     49      -9.6956      1.00000
     50      -9.6912      1.00000
     51      -9.6835      1.00000
     52      -9.6801      1.00000
     53      -9.6728      1.00000
     54      -9.6695      1.00000
     55      -9.6668      1.00000
     56      -9.6611      1.00000
     57      -9.6570      1.00000
     58      -9.6493      1.00000
     59      -9.6424      1.00000
     60      -9.6315      1.00000
     61      -9.6231      1.00000
     62      -9.6162      1.00000
     63      -9.6146      1.00000
     64      -9.6046      1.00000
     65      -8.3908      1.00000
     66      -8.3876      1.00000
     67      -8.3823      1.00000
     68      -8.3779      1.00000
     69      -8.3745      1.00000
     70      -8.3717      1.00000
     71      -8.3633      1.00000
     72      -8.3582      1.00000
     73      -8.3237      1.00000
     74      -8.3230      1.00000
     75      -8.3222      1.00000
     76      -8.3216      1.00000
     77      -8.3147      1.00000
     78      -8.3129      1.00000
     79      -8.3107      1.00000
     80      -8.3088      1.00000
     81      -8.3016      1.00000
     82      -8.3011      1.00000
     83      -8.3007      1.00000
     84      -8.3005      1.00000
     85      -8.2990      1.00000
     86      -8.2981      1.00000
     87      -8.2978      1.00000
     88      -8.2965      1.00000
     89      -8.2923      1.00000
     90      -8.2915      1.00000
     91      -8.2912      1.00000
     92      -8.2901      1.00000
     93      -8.2880      1.00000
     94      -8.2869      1.00000
     95      -8.2859      1.00000
     96      -8.2851      1.00000
     97      -8.2840      1.00000
     98      -8.2836      1.00000
     99      -8.2825      1.00000
    100      -8.2817      1.00000
    101      -8.2807      1.00000
    102      -8.2802      1.00000
    103      -8.2755      1.00000
    104      -8.2752      1.00000
    105      -8.2707      1.00000
    106      -8.2687      1.00000
    107      -8.2671      1.00000
    108      -8.2662      1.00000
    109      -8.2660      1.00000
    110      -8.2651      1.00000
    111      -8.2646      1.00000
    112      -8.2641      1.00000
    113      -8.2598      1.00000
    114      -8.2583      1.00000
    115      -8.2576      1.00000
    116      -8.2565      1.00000
    117      -8.2558      1.00000
    118      -8.2550      1.00000
    119      -8.2532      1.00000
    120      -8.2517      1.00000
    121      -8.2479      1.00000
    122      -8.2470      1.00000
    123      -8.2468      1.00000
    124      -8.2460      1.00000
    125      -8.2341      1.00000
    126      -8.2338      1.00000
    127      -8.2332      1.00000
    128      -8.2326      1.00000
    129      -8.2265      1.00000
    130      -8.2253      1.00000
    131      -8.2247      1.00000
    132      -8.2228      1.00000
    133      -8.1930      1.00000
    134      -8.1925      1.00000
    135      -8.1912      1.00000
    136      -8.1905      1.00000
    137      -8.1888      1.00000
    138      -8.1879      1.00000
    139      -8.1839      1.00000
    140      -8.1833      1.00000
    141      -8.1749      1.00000
    142      -8.1747      1.00000
    143      -8.1741      1.00000
    144      -8.1737      1.00000
    145      -8.1725      1.00000
    146      -8.1721      1.00000
    147      -8.1664      1.00000
    148      -8.1657      1.00000
    149      -8.1320      1.00000
    150      -8.1314      1.00000
    151      -8.1312      1.00000
    152      -8.1310      1.00000
    153      -8.1238      1.00000
    154      -8.1231      1.00000
    155      -8.1206      1.00000
    156      -8.1196      1.00000
    157      -8.1192      1.00000
    158      -8.1181      1.00000
    159      -8.1063      1.00000
    160      -8.1060      1.00000
    161      -8.0706      1.00000
    162      -8.0690      1.00000
    163      -8.0667      1.00000
    164      -8.0658      1.00000
    165      -8.0516      1.00000
    166      -8.0508      1.00000
    167      -8.0428      1.00000
    168      -8.0411      1.00000
    169      -8.0346      1.00000
    170      -8.0326      1.00000
    171      -8.0318      1.00000
    172      -8.0301      1.00000
    173      -7.9675      1.00000
    174      -7.9666      1.00000
    175      -7.9645      1.00000
    176      -7.9631      1.00000
    177      -7.9587      1.00000
    178      -7.9570      1.00000
    179      -7.9555      1.00000
    180      -7.9541      1.00000
    181      -7.9201      1.00000
    182      -7.9174      1.00000
    183      -7.9068      1.00000
    184      -7.9055      1.00000
    185      -7.8832      1.00000
    186      -7.8827      1.00000
    187      -7.8804      1.00000
    188      -7.8798      1.00000
    189      -7.8611      1.00000
    190      -7.8605      1.00000
    191      -7.8601      1.00000
    192      -7.8600      1.00000
    193      -7.8457      1.00000
    194      -7.8435      1.00000
    195      -7.8343      1.00000
    196      -7.8320      1.00000
    197      -7.7209      1.00000
    198      -7.7181      1.00000
    199      -7.6978      1.00000
    200      -7.6946      1.00000
    201      -7.6606      1.00000
    202      -7.6587      1.00000
    203      -7.6487      1.00000
    204      -7.6474      1.00000
    205      -7.6472      1.00000
    206      -7.6466      1.00000
    207      -7.6412      1.00000
    208      -7.6410      1.00000
    209      -7.6259      1.00000
    210      -7.6251      1.00000
    211      -7.6250      1.00000
    212      -7.6244      1.00000
    213      -7.6229      1.00000
    214      -7.6217      1.00000
    215      -7.6180      1.00000
    216      -7.6166      1.00000
    217      -7.6132      1.00000
    218      -7.6123      1.00000
    219      -7.6097      1.00000
    220      -7.6089      1.00000
    221      -7.6083      1.00000
    222      -7.6078      1.00000
    223      -7.6071      1.00000
    224      -7.6066      1.00000
    225      -7.6018      1.00000
    226      -7.6012      1.00000
    227      -7.5976      1.00000
    228      -7.5969      1.00000
    229      -7.5961      1.00000
    230      -7.5954      1.00000
    231      -7.5915      1.00000
    232      -7.5900      1.00000
    233      -7.5876      1.00000
    234      -7.5866      1.00000
    235      -7.5813      1.00000
    236      -7.5810      1.00000
    237      -7.5801      1.00000
    238      -7.5791      1.00000
    239      -7.5738      1.00000
    240      -7.5728      1.00000
    241      -7.5719      1.00000
    242      -7.5714      1.00000
    243      -7.5710      1.00000
    244      -7.5709      1.00000
    245      -7.5707      1.00000
    246      -7.5698      1.00000
    247      -7.5676      1.00000
    248      -7.5660      1.00000
    249      -7.5616      1.00000
    250      -7.5607      1.00000
    251      -7.5599      1.00000
    252      -7.5586      1.00000
    253      -7.5581      1.00000
    254      -7.5579      1.00000
    255      -7.5573      1.00000
    256      -7.5563      1.00000
    257      -7.5468      1.00000
    258      -7.5460      1.00000
    259      -7.5449      1.00000
    260      -7.5446      1.00000
    261      -7.5420      1.00000
    262      -7.5413      1.00000
    263      -7.5410      1.00000
    264      -7.5398      1.00000
    265      -7.5289      1.00000
    266      -7.5284      1.00000
    267      -7.5268      1.00000
    268      -7.5265      1.00000
    269      -7.5253      1.00000
    270      -7.5243      1.00000
    271      -7.5234      1.00000
    272      -7.5224      1.00000
    273      -7.5209      1.00000
    274      -7.5196      1.00000
    275      -7.5190      1.00000
    276      -7.5185      1.00000
    277      -7.5184      1.00000
    278      -7.5171      1.00000
    279      -7.5162      1.00000
    280      -7.5154      1.00000
    281      -7.5113      1.00000
    282      -7.5109      1.00000
    283      -7.5093      1.00000
    284      -7.5078      1.00000
    285      -7.5063      1.00000
    286      -7.5061      1.00000
    287      -7.5053      1.00000
    288      -7.5043      1.00000
    289      -7.5032      1.00000
    290      -7.5026      1.00000
    291      -7.4999      1.00000
    292      -7.4993      1.00000
    293      -7.4963      1.00000
    294      -7.4955      1.00000
    295      -7.4932      1.00000
    296      -7.4923      1.00000
    297      -7.4868      1.00000
    298      -7.4865      1.00000
    299      -7.4845      1.00000
    300      -7.4835      1.00000
    301      -7.4834      1.00000
    302      -7.4821      1.00000
    303      -7.4814      1.00000
    304      -7.4811      1.00000
    305      -7.4757      1.00000
    306      -7.4748      1.00000
    307      -7.4743      1.00000
    308      -7.4734      1.00000
    309      -7.4725      1.00000
    310      -7.4714      1.00000
    311      -7.4714      1.00000
    312      -7.4709      1.00000
    313      -7.4687      1.00000
    314      -7.4676      1.00000
    315      -7.4670      1.00000
    316      -7.4666      1.00000
    317      -7.4654      1.00000
    318      -7.4654      1.00000
    319      -7.4644      1.00000
    320      -7.4636      1.00000
    321      -7.4606      1.00000
    322      -7.4601      1.00000
    323      -7.4593      1.00000
    324      -7.4590      1.00000
    325      -7.4170      1.00000
    326      -7.4156      1.00000
    327      -7.4015      1.00000
    328      -7.3994      1.00000
    329      -7.3794      1.00000
    330      -7.3780      1.00000
    331      -7.3776      1.00000
    332      -7.3764      1.00000
    333      -7.3691      1.00000
    334      -7.3674      1.00000
    335      -7.3397      1.00000
    336      -7.3369      1.00000
    337      -7.3347      1.00000
    338      -7.3328      1.00000
    339      -7.3157      1.00000
    340      -7.3127      1.00000
    341      -7.2985      1.00000
    342      -7.2955      1.00000
    343      -7.2859      1.00000
    344      -7.2830      1.00000
    345      -7.2094      1.00000
    346      -7.2068      1.00000
    347      -7.2038      1.00000
    348      -7.2021      1.00000
    349      -7.1888      1.00000
    350      -7.1873      1.00000
    351      -7.1837      1.00000
    352      -7.1824      1.00000
    353      -7.1641      1.00000
    354      -7.1571      1.00000
    355      -7.1250      1.00000
    356      -7.1156      1.00000
    357      -7.1147      1.00000
    358      -7.1106      1.00000
    359      -7.0978      1.00000
    360      -7.0945      1.00000
    361      -7.0933      1.00000
    362      -7.0891      1.00000
    363      -7.0874      1.00000
    364      -7.0815      1.00000
    365      -7.0701      1.00000
    366      -7.0667      1.00000
    367      -7.0420      1.00000
    368      -7.0372      1.00000
    369      -7.0352      1.00000
    370      -7.0333      1.00000
    371      -7.0311      1.00000
    372      -7.0272      1.00000
    373      -6.9700      1.00000
    374      -6.9655      1.00000
    375      -6.9604      1.00000
    376      -6.9577      1.00000
    377      -6.9435      1.00000
    378      -6.9398      1.00000
    379      -6.9378      1.00000
    380      -6.9286      1.00000
    381      -6.8816      1.00000
    382      -6.8776      1.00000
    383      -6.8750      1.00000
    384      -6.8716      1.00000
    385      -6.8691      1.00000
    386      -6.8621      1.00000
    387      -6.8514      1.00000
    388      -6.8421      1.00000
    389      -6.7477      1.00000
    390      -6.7387      1.00000
    391      -6.7059      1.00000
    392      -6.6950      1.00000
    393      -6.6908      1.00000
    394      -6.6790      1.00000
    395      -3.1728      1.00000
    396      -3.1567      1.00000
    397      -2.7893      1.00000
    398      -2.7790      1.00000
    399      -2.7767      1.00000
    400      -2.7668      1.00000
    401      -2.6471      1.00000
    402      -2.6429      1.00000
    403      -2.6411      1.00000
    404      -2.6379      1.00000
    405      -2.6335      1.00000
    406      -2.6287      1.00000
    407      -2.6268      1.00000
    408      -2.6218      1.00000
    409      -2.6210      1.00000
    410      -2.6160      1.00000
    411      -2.6113      1.00000
    412      -2.6098      1.00000
    413      -2.6069      1.00000
    414      -2.6017      1.00000
    415      -2.6013      1.00000
    416      -2.5933      1.00000
    417      -2.5899      1.00000
    418      -2.5853      1.00000
    419      -2.5638      1.00000
    420      -2.5563      1.00000
    421      -2.5195      1.00000
    422      -2.5160      1.00000
    423      -2.5098      1.00000
    424      -2.5068      1.00000
    425      -2.4971      1.00000
    426      -2.4887      1.00000
    427      -2.4046      1.00000
    428      -2.3999      1.00000
    429      -2.3976      1.00000
    430      -2.3929      1.00000
    431      -2.3914      1.00000
    432      -2.3864      1.00000
    433      -2.3814      1.00000
    434      -2.3758      1.00000
    435      -2.2755      1.00000
    436      -2.2628      1.00000
    437      -2.2413      1.00000
    438      -2.2287      1.00000
    439      -1.6889      1.00000
    440      -1.6871      1.00000
    441      -1.5161      1.00000
    442      -1.5152      1.00000
    443      -1.5081      1.00000
    444      -1.5072      1.00000
    445      -1.4798      1.00000
    446      -1.4789      1.00000
    447      -1.4501      1.00000
    448      -1.4479      1.00000
    449      -1.3943      1.00000
    450      -1.3930      1.00000
    451      -1.3781      1.00000
    452      -1.3762      1.00000
    453      -1.3695      1.00000
    454      -1.3686      1.00000
    455      -1.1273      1.00000
    456      -1.1200      1.00000
    457      -1.0086      1.00000
    458      -1.0039      1.00000
    459      -0.9930      1.00000
    460      -0.9890      1.00000
    461      -0.9697      1.00000
    462      -0.9659      1.00000
    463      -0.7885      1.00000
    464      -0.7880      1.00000
    465      -0.7110      1.00000
    466      -0.7075      1.00000
    467      -0.6906      1.00000
    468      -0.6864      1.00000
    469      -0.6601      1.00000
    470      -0.6584      1.00000
    471      -0.6415      1.00000
    472      -0.6354      1.00000
    473      -0.6304      1.00000
    474      -0.6266      1.00000
    475      -0.4096      1.00000
    476      -0.4054      1.00000
    477      -0.3979      1.00000
    478      -0.3930      1.00000
    479      -0.2581      1.00000
    480      -0.2510      1.00000
    481      -0.2497      1.00000
    482      -0.2465      1.00000
    483      -0.1934      1.00000
    484      -0.1870      1.00000
    485      -0.1817      1.00000
    486      -0.1751      1.00000
    487      -0.1034      1.00000
    488      -0.0927      1.00000
    489      -0.0905      1.00000
    490      -0.0792      1.00000
    491       0.0684      1.00000
    492       0.0766      1.00000
    493       0.0814      1.00000
    494       0.0950      1.00000
    495       0.0991      1.00000
    496       0.1059      1.00000
    497       0.1129      1.00000
    498       0.1173      1.00000
    499       0.1511      1.00000
    500       0.1548      1.00000
    501       0.1583      1.00000
    502       0.1639      1.00000
    503       0.1716      1.00000
    504       0.1777      1.00000
    505       0.1788      1.00000
    506       0.1862      1.00000
    507       0.1871      1.00000
    508       0.1949      1.00000
    509       0.2014      1.00000
    510       0.2072      1.00000
    511       0.2213      1.00000
    512       0.2261      1.00000
    513       0.2347      1.00000
    514       0.2385      1.00000
    515       0.2451      1.00000
    516       0.2478      1.00000
    517       0.2485      1.00000
    518       0.2546      1.00000
    519       0.2962      1.00000
    520       0.2979      1.00000
    521       0.3073      1.00000
    522       0.3104      1.00000
    523       0.3108      1.00000
    524       0.3137      1.00000
    525       0.3149      1.00000
    526       0.3176      1.00000
    527       0.3199      1.00000
    528       0.3202      1.00000
    529       0.3296      1.00000
    530       0.3341      1.00000
    531       0.3408      1.00000
    532       0.3431      1.00000
    533       0.3496      1.00000
    534       0.3549      1.00000
    535       0.3609      1.00000
    536       0.3636      1.00000
    537       0.3675      1.00000
    538       0.3690      1.00000
    539       0.3709      1.00000
    540       0.3788      1.00000
    541       0.3802      1.00000
    542       0.3859      1.00000
    543       0.4492      1.00000
    544       0.4623      1.00000
    545       0.4647      1.00000
    546       0.4765      1.00000
    547       0.9341      1.00000
    548       0.9475      1.00000
    549       0.9542      1.00000
    550       0.9669      1.00000
    551       0.9762      1.00000
    552       0.9824      1.00000
    553       0.9904      1.00000
    554       0.9964      1.00000
    555       1.0260      1.00000
    556       1.0294      1.00000
    557       1.0323      1.00000
    558       1.0345      1.00000
    559       1.0368      1.00000
    560       1.0420      1.00000
    561       1.0490      1.00000
    562       1.0576      1.00000
    563       1.0618      1.00000
    564       1.0656      1.00000
    565       1.0693      1.00000
    566       1.0735      1.00000
    567       1.0759      1.00000
    568       1.0810      1.00000
    569       1.0868      1.00000
    570       1.0911      1.00000
    571       1.0935      1.00000
    572       1.0982      1.00000
    573       1.1075      1.00000
    574       1.1125      1.00000
    575       1.1138      1.00000
    576       1.1268      1.00000
    577       1.1327      1.00000
    578       1.1582      1.00000
    579       1.2748      1.00000
    580       1.2757      1.00000
    581       1.2970      1.00000
    582       1.2971      1.00000
    583       1.6595      1.00000
    584       1.6845      1.00000
    585       1.6873      1.00000
    586       1.7108      1.00000
    587       3.0779      1.00000
    588       3.1517      0.91603
    589       4.4152      0.00000
    590       4.5443      0.00000
    591       4.6978      0.00000
    592       4.6981      0.00000
    593       4.4334      0.00000
    594       4.8306      0.00000
    595       4.5500      0.00000
    596       4.9305      0.00000
    597       4.9147      0.00000
    598       4.9472      0.00000
    599       4.9847      0.00000
    600       4.9891      0.00000
    601       4.7655      0.00000
    602       4.8011      0.00000
    603       5.1081      0.00000
    604       4.8484      0.00000
    605       5.1543      0.00000
    606       4.9470      0.00000
    607       4.9763      0.00000
    608       5.2360      0.00000
    609       5.0727      0.00000
    610       5.1412      0.00000
    611       5.1876      0.00000
    612       5.2985      0.00000
    613       5.4693      0.00000
    614       5.5188      0.00000
    615       5.5458      0.00000
    616       5.0772      0.00000
    617       5.5275      0.00000
    618       5.6213      0.00000
    619       5.1873      0.00000
    620       5.6233      0.00000
    621       5.6430      0.00000
    622       5.6804      0.00000
    623       5.7099      0.00000
    624       5.6697      0.00000
    625       5.7493      0.00000
    626       5.7224      0.00000
    627       5.7379      0.00000
    628       5.4802      0.00000
    629       5.7929      0.00000
    630       5.4683      0.00000
    631       5.8721      0.00000
    632       5.5666      0.00000
    633       5.5304      0.00000
    634       5.6405      0.00000
    635       5.8998      0.00000
    636       5.6402      0.00000
    637       5.9727      0.00000
    638       5.9897      0.00000
    639       5.7399      0.00000
    640       5.9292      0.00000
    641       5.7545      0.00000
    642       5.6910      0.00000
    643       5.7951      0.00000
    644       5.8143      0.00000
    645       6.0090      0.00000
    646       5.7417      0.00000
    647       5.7965      0.00000
    648       6.0633      0.00000
    649       5.8552      0.00000
    650       6.1661      0.00000
    651       6.0278      0.00000
    652       5.9719      0.00000
    653       6.1877      0.00000
    654       5.9295      0.00000
    655       5.9398      0.00000
    656       5.9930      0.00000
    657       6.0521      0.00000
    658       6.3531      0.00000
    659       6.3015      0.00000
    660       6.1704      0.00000
    661       6.4014      0.00000
    662       6.1008      0.00000
    663       6.4332      0.00000
    664       6.4502      0.00000
    665       6.4561      0.00000
    666       6.4481      0.00000
    667       6.2005      0.00000
    668       6.3780      0.00000
    669       6.2914      0.00000
    670       6.2188      0.00000
    671       6.4933      0.00000
    672       6.2462      0.00000
    673       6.2795      0.00000
    674       6.3810      0.00000
    675       6.3894      0.00000
    676       6.3901      0.00000
    677       6.4253      0.00000
    678       6.4440      0.00000
    679       6.4584      0.00000
    680       6.4629      0.00000
    681       6.4561      0.00000
    682       6.4620      0.00000
    683       7.0182      0.00000
    684       7.0269      0.00000
    685       7.0562      0.00000
    686       7.1472      0.00000
    687       7.1378      0.00000
    688       7.3733      0.00000
    689       7.3675      0.00000
    690       7.3898      0.00000
    691       7.3664      0.00000
    692       7.3553      0.00000
    693       7.3518      0.00000
    694       7.3210      0.00000
    695       7.3910      0.00000
    696       7.3367      0.00000
    697       7.4739      0.00000
    698       7.5083      0.00000
    699       7.4893      0.00000
    700       7.4852      0.00000
    701       7.4918      0.00000
    702       7.2101      0.00000
    703       7.5912      0.00000
    704       7.5992      0.00000
    705       7.6336      0.00000
    706       7.5103      0.00000
    707       7.4797      0.00000
    708       7.7157      0.00000
    709       7.5337      0.00000
    710       7.5620      0.00000
    711       7.5067      0.00000
    712       7.4812      0.00000
    713       7.6893      0.00000
    714       7.5592      0.00000
    715       7.6415      0.00000
    716       7.6655      0.00000
    717       7.5275      0.00000
    718       7.5079      0.00000
    719       7.5079      0.00000
    720       7.5168      0.00000
    721       7.9356      0.00000
    722       7.8976      0.00000
    723       7.9258      0.00000
    724       7.9273      0.00000
    725       7.8964      0.00000
    726       7.7375      0.00000
    727       7.7867      0.00000
    728       7.8897      0.00000
    729       7.9320      0.00000
    730       7.9808      0.00000
    731       8.0001      0.00000
    732       7.9893      0.00000
    733       7.9746      0.00000
    734       7.9853      0.00000
    735       8.0342      0.00000
    736       8.0334      0.00000
    737       8.0401      0.00000
    738       8.0430      0.00000
    739       8.0063      0.00000
    740       8.0379      0.00000
    741       8.0324      0.00000
    742       8.0314      0.00000
    743       8.0534      0.00000
    744       8.0472      0.00000
    745       7.7110      0.00000
    746       7.7311      0.00000
    747       7.7720      0.00000
    748       7.8024      0.00000
    749       7.9406      0.00000
    750       7.9317      0.00000
    751       7.9394      0.00000
    752       7.9385      0.00000
    753       7.9579      0.00000
    754       7.9613      0.00000
    755       7.9865      0.00000
    756       7.9969      0.00000
    757       7.9920      0.00000
    758       7.9988      0.00000
    759       7.9965      0.00000
    760       8.0014      0.00000
    761       8.0287      0.00000
    762       8.0358      0.00000
    763       8.0244      0.00000
    764       8.0293      0.00000
    765       7.9922      0.00000
    766       8.0248      0.00000
    767       8.0113      0.00000
    768       8.0114      0.00000
    769       8.0325      0.00000
    770       8.0319      0.00000
    771       8.7572      0.00000
    772       8.7951      0.00000
    773       8.8326      0.00000
    774       8.8659      0.00000
    775       8.8895      0.00000
    776       8.9114      0.00000
    777       8.9371      0.00000
    778       8.9522      0.00000
    779       9.1690      0.00000
    780       8.8264      0.00000
    781       9.2276      0.00000
    782       8.8948      0.00000
    783       9.3128      0.00000
    784       9.3122      0.00000
    785       8.8550      0.00000
    786       9.4026      0.00000
    787       8.8731      0.00000
    788       9.4156      0.00000
    789       8.9318      0.00000
    790       9.4569      0.00000
    791       9.4567      0.00000
    792       8.9262      0.00000
    793       8.9454      0.00000
    794       8.9531      0.00000
    795       9.5152      0.00000
    796       9.1800      0.00000
    797       9.2909      0.00000
    798       9.3684      0.00000
    799       9.3697      0.00000
    800       9.4064      0.00000
    801       9.4511      0.00000
    802       9.4740      0.00000
    803       9.4749      0.00000
    804       9.8119      0.00000
    805       9.8334      0.00000
    806       9.5369      0.00000
    807       9.9670      0.00000
    808      10.0054      0.00000
    809      10.0196      0.00000
    810      10.0220      0.00000
    811      10.0355      0.00000
    812      10.0474      0.00000
    813      10.0661      0.00000
    814      10.0978      0.00000
    815      10.0810      0.00000
    816      10.1169      0.00000
    817      10.1232      0.00000
    818      10.1270      0.00000
    819      10.1468      0.00000
    820      10.1283      0.00000
    821       9.9657      0.00000
    822      10.0174      0.00000
    823      10.1731      0.00000
    824      10.2134      0.00000
    825      10.1601      0.00000
    826      10.2885      0.00000
    827      10.2816      0.00000
    828      10.3191      0.00000
    829      10.3011      0.00000
    830      10.3255      0.00000
    831      10.3670      0.00000
    832      10.3302      0.00000
    833      10.3106      0.00000
    834      10.0371      0.00000
    835      10.0572      0.00000
    836      10.0634      0.00000
    837      10.0595      0.00000
    838      10.0734      0.00000
    839      10.1180      0.00000
    840      10.1342      0.00000
    841      10.1697      0.00000
    842      10.1994      0.00000
    843      10.3654      0.00000
    844      10.3180      0.00000
    845      10.3328      0.00000
    846      10.3379      0.00000
    847      10.3152      0.00000
    848      10.4050      0.00000
    849      10.3878      0.00000
    850      10.3936      0.00000
    851      10.4234      0.00000
    852      10.5125      0.00000
    853      10.5174      0.00000
    854      10.4352      0.00000
    855      10.4306      0.00000
    856      10.4276      0.00000
    857      10.4436      0.00000
    858      10.5956      0.00000
    859      10.6005      0.00000
    860      10.4276      0.00000
    861      10.6992      0.00000
    862      10.5969      0.00000
    863      10.8324      0.00000
    864      10.5541      0.00000

 k-point     6 :       0.5000    0.0000    0.5000
  band No.  band energies     occupation 
      1     -10.0014      1.00000
      2      -9.9957      1.00000
      3      -9.9946      1.00000
      4      -9.9774      1.00000
      5      -9.9648      1.00000
      6      -9.9583      1.00000
      7      -9.9577      1.00000
      8      -9.9380      1.00000
      9      -9.8704      1.00000
     10      -9.8686      1.00000
     11      -9.8605      1.00000
     12      -9.8550      1.00000
     13      -9.8487      1.00000
     14      -9.8362      1.00000
     15      -9.8333      1.00000
     16      -9.8304      1.00000
     17      -9.8284      1.00000
     18      -9.8202      1.00000
     19      -9.8156      1.00000
     20      -9.8085      1.00000
     21      -9.8052      1.00000
     22      -9.8004      1.00000
     23      -9.7985      1.00000
     24      -9.7915      1.00000
     25      -9.7905      1.00000
     26      -9.7777      1.00000
     27      -9.7731      1.00000
     28      -9.7718      1.00000
     29      -9.7693      1.00000
     30      -9.7688      1.00000
     31      -9.7642      1.00000
     32      -9.7585      1.00000
     33      -9.7562      1.00000
     34      -9.7529      1.00000
     35      -9.7472      1.00000
     36      -9.7454      1.00000
     37      -9.7426      1.00000
     38      -9.7308      1.00000
     39      -9.7295      1.00000
     40      -9.7280      1.00000
     41      -9.7215      1.00000
     42      -9.7190      1.00000
     43      -9.7175      1.00000
     44      -9.7136      1.00000
     45      -9.7094      1.00000
     46      -9.7068      1.00000
     47      -9.7040      1.00000
     48      -9.6983      1.00000
     49      -9.6940      1.00000
     50      -9.6905      1.00000
     51      -9.6868      1.00000
     52      -9.6839      1.00000
     53      -9.6776      1.00000
     54      -9.6752      1.00000
     55      -9.6688      1.00000
     56      -9.6607      1.00000
     57      -9.6561      1.00000
     58      -9.6498      1.00000
     59      -9.6487      1.00000
     60      -9.6384      1.00000
     61      -9.6255      1.00000
     62      -9.6189      1.00000
     63      -9.6103      1.00000
     64      -9.6064      1.00000
     65      -8.3900      1.00000
     66      -8.3884      1.00000
     67      -8.3854      1.00000
     68      -8.3824      1.00000
     69      -8.3729      1.00000
     70      -8.3698      1.00000
     71      -8.3617      1.00000
     72      -8.3565      1.00000
     73      -8.3275      1.00000
     74      -8.3266      1.00000
     75      -8.3261      1.00000
     76      -8.3255      1.00000
     77      -8.3173      1.00000
     78      -8.3167      1.00000
     79      -8.3098      1.00000
     80      -8.3087      1.00000
     81      -8.3052      1.00000
     82      -8.3047      1.00000
     83      -8.3023      1.00000
     84      -8.3009      1.00000
     85      -8.2957      1.00000
     86      -8.2947      1.00000
     87      -8.2917      1.00000
     88      -8.2912      1.00000
     89      -8.2907      1.00000
     90      -8.2901      1.00000
     91      -8.2888      1.00000
     92      -8.2880      1.00000
     93      -8.2876      1.00000
     94      -8.2869      1.00000
     95      -8.2866      1.00000
     96      -8.2861      1.00000
     97      -8.2826      1.00000
     98      -8.2819      1.00000
     99      -8.2806      1.00000
    100      -8.2799      1.00000
    101      -8.2779      1.00000
    102      -8.2769      1.00000
    103      -8.2763      1.00000
    104      -8.2756      1.00000
    105      -8.2710      1.00000
    106      -8.2701      1.00000
    107      -8.2696      1.00000
    108      -8.2688      1.00000
    109      -8.2679      1.00000
    110      -8.2674      1.00000
    111      -8.2654      1.00000
    112      -8.2650      1.00000
    113      -8.2588      1.00000
    114      -8.2577      1.00000
    115      -8.2567      1.00000
    116      -8.2560      1.00000
    117      -8.2556      1.00000
    118      -8.2546      1.00000
    119      -8.2456      1.00000
    120      -8.2453      1.00000
    121      -8.2445      1.00000
    122      -8.2440      1.00000
    123      -8.2407      1.00000
    124      -8.2405      1.00000
    125      -8.2355      1.00000
    126      -8.2348      1.00000
    127      -8.2312      1.00000
    128      -8.2307      1.00000
    129      -8.2253      1.00000
    130      -8.2235      1.00000
    131      -8.2220      1.00000
    132      -8.2203      1.00000
    133      -8.1993      1.00000
    134      -8.1974      1.00000
    135      -8.1958      1.00000
    136      -8.1940      1.00000
    137      -8.1634      1.00000
    138      -8.1631      1.00000
    139      -8.1599      1.00000
    140      -8.1595      1.00000
    141      -8.1586      1.00000
    142      -8.1580      1.00000
    143      -8.1560      1.00000
    144      -8.1556      1.00000
    145      -8.1486      1.00000
    146      -8.1483      1.00000
    147      -8.1477      1.00000
    148      -8.1473      1.00000
    149      -8.1465      1.00000
    150      -8.1463      1.00000
    151      -8.1457      1.00000
    152      -8.1452      1.00000
    153      -8.1420      1.00000
    154      -8.1419      1.00000
    155      -8.1414      1.00000
    156      -8.1412      1.00000
    157      -8.1394      1.00000
    158      -8.1392      1.00000
    159      -8.1303      1.00000
    160      -8.1303      1.00000
    161      -8.1294      1.00000
    162      -8.1294      1.00000
    163      -8.1276      1.00000
    164      -8.1273      1.00000
    165      -8.0351      1.00000
    166      -8.0335      1.00000
    167      -8.0291      1.00000
    168      -8.0287      1.00000
    169      -8.0276      1.00000
    170      -8.0273      1.00000
    171      -8.0271      1.00000
    172      -8.0255      1.00000
    173      -7.9719      1.00000
    174      -7.9709      1.00000
    175      -7.9419      1.00000
    176      -7.9407      1.00000
    177      -7.9303      1.00000
    178      -7.9301      1.00000
    179      -7.9209      1.00000
    180      -7.9203      1.00000
    181      -7.9075      1.00000
    182      -7.9064      1.00000
    183      -7.9012      1.00000
    184      -7.8999      1.00000
    185      -7.8925      1.00000
    186      -7.8916      1.00000
    187      -7.8877      1.00000
    188      -7.8873      1.00000
    189      -7.8819      1.00000
    190      -7.8808      1.00000
    191      -7.8617      1.00000
    192      -7.8612      1.00000
    193      -7.8425      1.00000
    194      -7.8407      1.00000
    195      -7.8397      1.00000
    196      -7.8379      1.00000
    197      -7.7138      1.00000
    198      -7.7112      1.00000
    199      -7.6944      1.00000
    200      -7.6916      1.00000
    201      -7.6528      1.00000
    202      -7.6514      1.00000
    203      -7.6479      1.00000
    204      -7.6473      1.00000
    205      -7.6425      1.00000
    206      -7.6411      1.00000
    207      -7.6406      1.00000
    208      -7.6397      1.00000
    209      -7.6346      1.00000
    210      -7.6343      1.00000
    211      -7.6265      1.00000
    212      -7.6257      1.00000
    213      -7.6197      1.00000
    214      -7.6190      1.00000
    215      -7.6186      1.00000
    216      -7.6176      1.00000
    217      -7.6123      1.00000
    218      -7.6115      1.00000
    219      -7.6103      1.00000
    220      -7.6100      1.00000
    221      -7.6096      1.00000
    222      -7.6091      1.00000
    223      -7.6087      1.00000
    224      -7.6084      1.00000
    225      -7.6015      1.00000
    226      -7.6013      1.00000
    227      -7.6006      1.00000
    228      -7.5998      1.00000
    229      -7.5970      1.00000
    230      -7.5962      1.00000
    231      -7.5915      1.00000
    232      -7.5908      1.00000
    233      -7.5863      1.00000
    234      -7.5853      1.00000
    235      -7.5850      1.00000
    236      -7.5839      1.00000
    237      -7.5794      1.00000
    238      -7.5781      1.00000
    239      -7.5754      1.00000
    240      -7.5744      1.00000
    241      -7.5738      1.00000
    242      -7.5728      1.00000
    243      -7.5704      1.00000
    244      -7.5694      1.00000
    245      -7.5688      1.00000
    246      -7.5677      1.00000
    247      -7.5664      1.00000
    248      -7.5660      1.00000
    249      -7.5643      1.00000
    250      -7.5639      1.00000
    251      -7.5611      1.00000
    252      -7.5607      1.00000
    253      -7.5600      1.00000
    254      -7.5589      1.00000
    255      -7.5556      1.00000
    256      -7.5549      1.00000
    257      -7.5520      1.00000
    258      -7.5513      1.00000
    259      -7.5489      1.00000
    260      -7.5489      1.00000
    261      -7.5397      1.00000
    262      -7.5393      1.00000
    263      -7.5354      1.00000
    264      -7.5352      1.00000
    265      -7.5329      1.00000
    266      -7.5319      1.00000
    267      -7.5291      1.00000
    268      -7.5281      1.00000
    269      -7.5270      1.00000
    270      -7.5259      1.00000
    271      -7.5240      1.00000
    272      -7.5226      1.00000
    273      -7.5207      1.00000
    274      -7.5198      1.00000
    275      -7.5193      1.00000
    276      -7.5187      1.00000
    277      -7.5173      1.00000
    278      -7.5162      1.00000
    279      -7.5115      1.00000
    280      -7.5099      1.00000
    281      -7.5075      1.00000
    282      -7.5065      1.00000
    283      -7.5059      1.00000
    284      -7.5045      1.00000
    285      -7.5026      1.00000
    286      -7.5020      1.00000
    287      -7.5009      1.00000
    288      -7.5003      1.00000
    289      -7.4993      1.00000
    290      -7.4987      1.00000
    291      -7.4956      1.00000
    292      -7.4951      1.00000
    293      -7.4946      1.00000
    294      -7.4944      1.00000
    295      -7.4935      1.00000
    296      -7.4932      1.00000
    297      -7.4912      1.00000
    298      -7.4902      1.00000
    299      -7.4888      1.00000
    300      -7.4880      1.00000
    301      -7.4866      1.00000
    302      -7.4862      1.00000
    303      -7.4835      1.00000
    304      -7.4826      1.00000
    305      -7.4801      1.00000
    306      -7.4788      1.00000
    307      -7.4759      1.00000
    308      -7.4758      1.00000
    309      -7.4740      1.00000
    310      -7.4733      1.00000
    311      -7.4721      1.00000
    312      -7.4712      1.00000
    313      -7.4695      1.00000
    314      -7.4690      1.00000
    315      -7.4686      1.00000
    316      -7.4685      1.00000
    317      -7.4674      1.00000
    318      -7.4667      1.00000
    319      -7.4647      1.00000
    320      -7.4642      1.00000
    321      -7.4630      1.00000
    322      -7.4620      1.00000
    323      -7.4616      1.00000
    324      -7.4608      1.00000
    325      -7.4570      1.00000
    326      -7.4556      1.00000
    327      -7.4549      1.00000
    328      -7.4530      1.00000
    329      -7.3853      1.00000
    330      -7.3817      1.00000
    331      -7.3561      1.00000
    332      -7.3548      1.00000
    333      -7.3384      1.00000
    334      -7.3341      1.00000
    335      -7.3219      1.00000
    336      -7.3193      1.00000
    337      -7.3148      1.00000
    338      -7.3101      1.00000
    339      -7.2972      1.00000
    340      -7.2914      1.00000
    341      -7.2751      1.00000
    342      -7.2720      1.00000
    343      -7.2630      1.00000
    344      -7.2590      1.00000
    345      -7.2581      1.00000
    346      -7.2554      1.00000
    347      -7.2423      1.00000
    348      -7.2384      1.00000
    349      -7.1551      1.00000
    350      -7.1543      1.00000
    351      -7.1523      1.00000
    352      -7.1450      1.00000
    353      -7.1196      1.00000
    354      -7.1165      1.00000
    355      -7.1150      1.00000
    356      -7.1126      1.00000
    357      -7.1069      1.00000
    358      -7.1045      1.00000
    359      -7.0789      1.00000
    360      -7.0779      1.00000
    361      -7.0737      1.00000
    362      -7.0713      1.00000
    363      -7.0687      1.00000
    364      -7.0666      1.00000
    365      -7.0606      1.00000
    366      -7.0603      1.00000
    367      -7.0542      1.00000
    368      -7.0512      1.00000
    369      -7.0128      1.00000
    370      -7.0124      1.00000
    371      -7.0063      1.00000
    372      -7.0052      1.00000
    373      -6.9857      1.00000
    374      -6.9808      1.00000
    375      -6.9778      1.00000
    376      -6.9716      1.00000
    377      -6.9691      1.00000
    378      -6.9656      1.00000
    379      -6.9490      1.00000
    380      -6.9436      1.00000
    381      -6.9364      1.00000
    382      -6.9341      1.00000
    383      -6.9301      1.00000
    384      -6.9267      1.00000
    385      -6.8717      1.00000
    386      -6.8657      1.00000
    387      -6.8405      1.00000
    388      -6.8337      1.00000
    389      -6.7506      1.00000
    390      -6.7414      1.00000
    391      -6.7118      1.00000
    392      -6.7015      1.00000
    393      -6.6949      1.00000
    394      -6.6840      1.00000
    395      -3.1736      1.00000
    396      -3.1595      1.00000
    397      -2.7632      1.00000
    398      -2.7585      1.00000
    399      -2.7551      1.00000
    400      -2.7514      1.00000
    401      -2.7493      1.00000
    402      -2.7442      1.00000
    403      -2.7409      1.00000
    404      -2.7334      1.00000
    405      -2.7277      1.00000
    406      -2.7259      1.00000
    407      -2.6729      1.00000
    408      -2.6623      1.00000
    409      -2.6054      1.00000
    410      -2.5992      1.00000
    411      -2.5936      1.00000
    412      -2.5921      1.00000
    413      -2.5857      1.00000
    414      -2.5845      1.00000
    415      -2.5463      1.00000
    416      -2.5396      1.00000
    417      -2.5334      1.00000
    418      -2.5252      1.00000
    419      -2.4415      1.00000
    420      -2.4337      1.00000
    421      -2.4280      1.00000
    422      -2.4232      1.00000
    423      -2.4141      1.00000
    424      -2.4104      1.00000
    425      -2.3915      1.00000
    426      -2.3891      1.00000
    427      -2.3106      1.00000
    428      -2.3056      1.00000
    429      -2.2935      1.00000
    430      -2.2878      1.00000
    431      -2.2784      1.00000
    432      -2.2731      1.00000
    433      -2.2470      1.00000
    434      -2.2401      1.00000
    435      -2.1330      1.00000
    436      -2.1263      1.00000
    437      -2.0068      1.00000
    438      -2.0031      1.00000
    439      -2.0019      1.00000
    440      -2.0005      1.00000
    441      -1.9933      1.00000
    442      -1.9893      1.00000
    443      -1.9785      1.00000
    444      -1.9747      1.00000
    445      -1.9275      1.00000
    446      -1.9250      1.00000
    447      -1.9248      1.00000
    448      -1.9202      1.00000
    449      -1.9183      1.00000
    450      -1.9178      1.00000
    451      -1.1448      1.00000
    452      -1.1352      1.00000
    453      -1.0423      1.00000
    454      -1.0391      1.00000
    455      -0.8492      1.00000
    456      -0.8460      1.00000
    457      -0.7702      1.00000
    458      -0.7665      1.00000
    459      -0.5889      1.00000
    460      -0.5794      1.00000
    461      -0.5227      1.00000
    462      -0.5185      1.00000
    463      -0.5134      1.00000
    464      -0.5111      1.00000
    465      -0.4883      1.00000
    466      -0.4866      1.00000
    467      -0.4820      1.00000
    468      -0.4792      1.00000
    469      -0.4767      1.00000
    470      -0.4751      1.00000
    471      -0.4647      1.00000
    472      -0.4613      1.00000
    473      -0.4548      1.00000
    474      -0.4513      1.00000
    475      -0.4264      1.00000
    476      -0.4232      1.00000
    477      -0.3714      1.00000
    478      -0.3685      1.00000
    479      -0.3155      1.00000
    480      -0.3128      1.00000
    481      -0.2951      1.00000
    482      -0.2939      1.00000
    483      -0.2841      1.00000
    484      -0.2819      1.00000
    485      -0.2664      1.00000
    486      -0.2623      1.00000
    487      -0.2596      1.00000
    488      -0.2584      1.00000
    489      -0.2426      1.00000
    490      -0.2381      1.00000
    491      -0.2133      1.00000
    492      -0.2118      1.00000
    493      -0.1771      1.00000
    494      -0.1735      1.00000
    495      -0.1733      1.00000
    496      -0.1682      1.00000
    497      -0.1559      1.00000
    498      -0.1534      1.00000
    499       0.0474      1.00000
    500       0.0570      1.00000
    501       0.0589      1.00000
    502       0.0607      1.00000
    503       0.0687      1.00000
    504       0.0711      1.00000
    505       0.0912      1.00000
    506       0.0924      1.00000
    507       0.1869      1.00000
    508       0.1941      1.00000
    509       0.1988      1.00000
    510       0.2060      1.00000
    511       0.2136      1.00000
    512       0.2185      1.00000
    513       0.2193      1.00000
    514       0.2355      1.00000
    515       0.2392      1.00000
    516       0.2449      1.00000
    517       0.2460      1.00000
    518       0.2500      1.00000
    519       0.2657      1.00000
    520       0.2721      1.00000
    521       0.2792      1.00000
    522       0.2845      1.00000
    523       0.4594      1.00000
    524       0.4651      1.00000
    525       0.4686      1.00000
    526       0.4725      1.00000
    527       0.4752      1.00000
    528       0.4773      1.00000
    529       0.4817      1.00000
    530       0.4853      1.00000
    531       0.4888      1.00000
    532       0.4971      1.00000
    533       0.4981      1.00000
    534       0.5048      1.00000
    535       0.5068      1.00000
    536       0.5096      1.00000
    537       0.5183      1.00000
    538       0.5209      1.00000
    539       0.5680      1.00000
    540       0.5727      1.00000
    541       0.5785      1.00000
    542       0.5803      1.00000
    543       0.5850      1.00000
    544       0.5904      1.00000
    545       0.6026      1.00000
    546       0.6194      1.00000
    547       0.6259      1.00000
    548       0.6285      1.00000
    549       0.6328      1.00000
    550       0.6352      1.00000
    551       0.6422      1.00000
    552       0.6443      1.00000
    553       0.6569      1.00000
    554       0.6637      1.00000
    555       0.8549      1.00000
    556       0.8711      1.00000
    557       0.8810      1.00000
    558       0.8913      1.00000
    559       0.9683      1.00000
    560       0.9798      1.00000
    561       0.9921      1.00000
    562       0.9969      1.00000
    563       1.0031      1.00000
    564       1.0080      1.00000
    565       1.0161      1.00000
    566       1.0203      1.00000
    567       1.0320      1.00000
    568       1.0349      1.00000
    569       1.0383      1.00000
    570       1.0419      1.00000
    571       1.0446      1.00000
    572       1.0468      1.00000
    573       1.0516      1.00000
    574       1.0522      1.00000
    575       1.0575      1.00000
    576       1.0654      1.00000
    577       1.0689      1.00000
    578       1.0733      1.00000
    579       1.6892      1.00000
    580       1.6907      1.00000
    581       1.6947      1.00000
    582       1.7313      1.00000
    583       1.7362      1.00000
    584       1.7407      1.00000
    585       1.7437      1.00000
    586       1.7849      1.00000
    587       3.0680      1.00000
    588       3.1439      0.89812
    589       4.6048      0.00000
    590       4.6081      0.00000
    591       4.7645      0.00000
    592       4.8086      0.00000
    593       4.7759      0.00000
    594       4.9165      0.00000
    595       4.9184      0.00000
    596       4.6289      0.00000
    597       4.6470      0.00000
    598       4.9899      0.00000
    599       5.0361      0.00000
    600       5.0295      0.00000
    601       5.0676      0.00000
    602       4.7867      0.00000
    603       5.1240      0.00000
    604       4.7959      0.00000
    605       4.8634      0.00000
    606       4.9238      0.00000
    607       4.9398      0.00000
    608       5.2842      0.00000
    609       5.2788      0.00000
    610       5.3293      0.00000
    611       5.0200      0.00000
    612       5.0518      0.00000
    613       5.1354      0.00000
    614       5.1321      0.00000
    615       5.3334      0.00000
    616       5.3923      0.00000
    617       5.3261      0.00000
    618       5.4878      0.00000
    619       5.6257      0.00000
    620       5.6998      0.00000
    621       5.6833      0.00000
    622       5.2853      0.00000
    623       5.2864      0.00000
    624       5.6160      0.00000
    625       5.5955      0.00000
    626       5.6029      0.00000
    627       5.7606      0.00000
    628       5.7576      0.00000
    629       5.7872      0.00000
    630       5.7930      0.00000
    631       5.8085      0.00000
    632       5.8108      0.00000
    633       5.8096      0.00000
    634       5.6289      0.00000
    635       5.5425      0.00000
    636       5.8274      0.00000
    637       5.7984      0.00000
    638       5.9037      0.00000
    639       5.7157      0.00000
    640       5.9391      0.00000
    641       5.8313      0.00000
    642       5.8694      0.00000
    643       6.0006      0.00000
    644       6.0359      0.00000
    645       6.0153      0.00000
    646       5.9493      0.00000
    647       5.7407      0.00000
    648       5.7507      0.00000
    649       5.7830      0.00000
    650       5.7912      0.00000
    651       5.8059      0.00000
    652       5.8297      0.00000
    653       5.8401      0.00000
    654       5.8449      0.00000
    655       5.8610      0.00000
    656       5.8604      0.00000
    657       5.8623      0.00000
    658       5.8930      0.00000
    659       5.8835      0.00000
    660       5.9759      0.00000
    661       5.9955      0.00000
    662       6.0307      0.00000
    663       6.0282      0.00000
    664       6.0626      0.00000
    665       6.0590      0.00000
    666       6.0904      0.00000
    667       6.5833      0.00000
    668       6.6729      0.00000
    669       6.8124      0.00000
    670       6.8350      0.00000
    671       6.9501      0.00000
    672       6.7812      0.00000
    673       6.9182      0.00000
    674       6.8811      0.00000
    675       6.9636      0.00000
    676       6.9432      0.00000
    677       7.0170      0.00000
    678       7.0429      0.00000
    679       7.0451      0.00000
    680       7.0705      0.00000
    681       6.7997      0.00000
    682       7.0078      0.00000
    683       7.0986      0.00000
    684       7.1103      0.00000
    685       7.1024      0.00000
    686       7.1139      0.00000
    687       7.0311      0.00000
    688       7.1405      0.00000
    689       6.9856      0.00000
    690       6.9639      0.00000
    691       7.1053      0.00000
    692       7.1561      0.00000
    693       7.1629      0.00000
    694       7.1425      0.00000
    695       6.9302      0.00000
    696       6.9467      0.00000
    697       6.9920      0.00000
    698       7.0057      0.00000
    699       7.0261      0.00000
    700       7.0605      0.00000
    701       7.0655      0.00000
    702       7.0735      0.00000
    703       7.0445      0.00000
    704       7.0894      0.00000
    705       7.1216      0.00000
    706       7.0912      0.00000
    707       7.1331      0.00000
    708       7.1136      0.00000
    709       7.4085      0.00000
    710       7.3621      0.00000
    711       7.1967      0.00000
    712       7.1754      0.00000
    713       7.1551      0.00000
    714       7.2059      0.00000
    715       7.2056      0.00000
    716       7.2921      0.00000
    717       7.3071      0.00000
    718       7.4766      0.00000
    719       7.7218      0.00000
    720       7.7563      0.00000
    721       7.7157      0.00000
    722       7.5026      0.00000
    723       7.9678      0.00000
    724       7.6098      0.00000
    725       7.5998      0.00000
    726       7.7833      0.00000
    727       7.9675      0.00000
    728       8.0618      0.00000
    729       8.0629      0.00000
    730       8.2385      0.00000
    731       7.8975      0.00000
    732       7.9286      0.00000
    733       8.3229      0.00000
    734       8.0251      0.00000
    735       8.3386      0.00000
    736       8.1805      0.00000
    737       8.2913      0.00000
    738       8.3282      0.00000
    739       8.3458      0.00000
    740       8.4127      0.00000
    741       8.4244      0.00000
    742       8.3939      0.00000
    743       8.1874      0.00000
    744       8.3924      0.00000
    745       8.3763      0.00000
    746       8.4287      0.00000
    747       8.3700      0.00000
    748       8.4680      0.00000
    749       8.4649      0.00000
    750       8.4826      0.00000
    751       8.4710      0.00000
    752       8.2412      0.00000
    753       8.2498      0.00000
    754       8.4229      0.00000
    755       8.5665      0.00000
    756       8.5971      0.00000
    757       8.5769      0.00000
    758       8.5844      0.00000
    759       8.6147      0.00000
    760       8.5898      0.00000
    761       8.6123      0.00000
    762       8.6398      0.00000
    763       8.5606      0.00000
    764       8.4776      0.00000
    765       8.6854      0.00000
    766       8.7133      0.00000
    767       8.3575      0.00000
    768       8.4232      0.00000
    769       8.4043      0.00000
    770       8.3894      0.00000
    771       8.4689      0.00000
    772       8.3644      0.00000
    773       8.4806      0.00000
    774       8.4079      0.00000
    775       8.4312      0.00000
    776       8.4629      0.00000
    777       8.4680      0.00000
    778       8.4547      0.00000
    779       8.4750      0.00000
    780       8.4839      0.00000
    781       8.5085      0.00000
    782       8.5641      0.00000
    783       8.5810      0.00000
    784       8.5996      0.00000
    785       8.6142      0.00000
    786       8.6214      0.00000
    787       8.6247      0.00000
    788       8.6369      0.00000
    789       8.6350      0.00000
    790       8.6513      0.00000
    791       8.6581      0.00000
    792       8.6735      0.00000
    793       8.7145      0.00000
    794       8.7165      0.00000
    795       9.5349      0.00000
    796       9.5438      0.00000
    797       9.6474      0.00000
    798       9.6981      0.00000
    799       9.7510      0.00000
    800       9.7614      0.00000
    801       9.7770      0.00000
    802       9.8211      0.00000
    803       9.8295      0.00000
    804       9.9136      0.00000
    805       9.9275      0.00000
    806       9.9279      0.00000
    807       9.7105      0.00000
    808       9.6920      0.00000
    809       9.8303      0.00000
    810       9.9517      0.00000
    811       9.6833      0.00000
    812       9.7566      0.00000
    813       9.9587      0.00000
    814       9.8761      0.00000
    815       9.8128      0.00000
    816       9.8348      0.00000
    817      10.0595      0.00000
    818       9.8571      0.00000
    819       9.9669      0.00000
    820      10.0332      0.00000
    821      10.1628      0.00000
    822      10.1396      0.00000
    823      10.1448      0.00000
    824      10.1673      0.00000
    825      10.1136      0.00000
    826      10.1702      0.00000
    827      10.2214      0.00000
    828      10.3509      0.00000
    829      10.2622      0.00000
    830      10.4358      0.00000
    831      10.2271      0.00000
    832      10.4413      0.00000
    833      10.4597      0.00000
    834      10.2860      0.00000
    835      10.5785      0.00000
    836      10.5503      0.00000
    837      10.4376      0.00000
    838      10.5269      0.00000
    839      10.4993      0.00000
    840      10.6103      0.00000
    841      10.6336      0.00000
    842      10.6956      0.00000
    843      10.6727      0.00000
    844      10.6757      0.00000
    845      10.6645      0.00000
    846      10.6848      0.00000
    847      10.7408      0.00000
    848      10.7101      0.00000
    849      10.7333      0.00000
    850      10.7193      0.00000
    851      10.7251      0.00000
    852      10.7426      0.00000
    853      10.8160      0.00000
    854      10.8598      0.00000
    855      10.8869      0.00000
    856      10.8730      0.00000
    857      10.9312      0.00000
    858      10.9671      0.00000
    859      11.0115      0.00000
    860      11.0082      0.00000
    861      11.0409      0.00000
    862      11.0384      0.00000
    863      11.0729      0.00000
    864      11.0710      0.00000

 k-point     7 :       0.0000    0.5000    0.5000
  band No.  band energies     occupation 
      1     -10.0013      1.00000
      2      -9.9958      1.00000
      3      -9.9946      1.00000
      4      -9.9775      1.00000
      5      -9.9648      1.00000
      6      -9.9584      1.00000
      7      -9.9577      1.00000
      8      -9.9381      1.00000
      9      -9.8702      1.00000
     10      -9.8685      1.00000
     11      -9.8604      1.00000
     12      -9.8550      1.00000
     13      -9.8489      1.00000
     14      -9.8363      1.00000
     15      -9.8333      1.00000
     16      -9.8304      1.00000
     17      -9.8284      1.00000
     18      -9.8201      1.00000
     19      -9.8155      1.00000
     20      -9.8085      1.00000
     21      -9.8051      1.00000
     22      -9.8003      1.00000
     23      -9.7984      1.00000
     24      -9.7916      1.00000
     25      -9.7906      1.00000
     26      -9.7777      1.00000
     27      -9.7733      1.00000
     28      -9.7719      1.00000
     29      -9.7694      1.00000
     30      -9.7687      1.00000
     31      -9.7643      1.00000
     32      -9.7585      1.00000
     33      -9.7562      1.00000
     34      -9.7530      1.00000
     35      -9.7472      1.00000
     36      -9.7453      1.00000
     37      -9.7425      1.00000
     38      -9.7309      1.00000
     39      -9.7295      1.00000
     40      -9.7279      1.00000
     41      -9.7216      1.00000
     42      -9.7191      1.00000
     43      -9.7176      1.00000
     44      -9.7136      1.00000
     45      -9.7093      1.00000
     46      -9.7068      1.00000
     47      -9.7040      1.00000
     48      -9.6983      1.00000
     49      -9.6939      1.00000
     50      -9.6905      1.00000
     51      -9.6868      1.00000
     52      -9.6839      1.00000
     53      -9.6775      1.00000
     54      -9.6752      1.00000
     55      -9.6688      1.00000
     56      -9.6606      1.00000
     57      -9.6562      1.00000
     58      -9.6498      1.00000
     59      -9.6487      1.00000
     60      -9.6384      1.00000
     61      -9.6255      1.00000
     62      -9.6189      1.00000
     63      -9.6104      1.00000
     64      -9.6064      1.00000
     65      -8.3900      1.00000
     66      -8.3884      1.00000
     67      -8.3854      1.00000
     68      -8.3824      1.00000
     69      -8.3729      1.00000
     70      -8.3698      1.00000
     71      -8.3617      1.00000
     72      -8.3565      1.00000
     73      -8.3274      1.00000
     74      -8.3266      1.00000
     75      -8.3261      1.00000
     76      -8.3254      1.00000
     77      -8.3174      1.00000
     78      -8.3167      1.00000
     79      -8.3098      1.00000
     80      -8.3087      1.00000
     81      -8.3052      1.00000
     82      -8.3047      1.00000
     83      -8.3023      1.00000
     84      -8.3010      1.00000
     85      -8.2957      1.00000
     86      -8.2947      1.00000
     87      -8.2917      1.00000
     88      -8.2912      1.00000
     89      -8.2907      1.00000
     90      -8.2901      1.00000
     91      -8.2888      1.00000
     92      -8.2880      1.00000
     93      -8.2876      1.00000
     94      -8.2869      1.00000
     95      -8.2865      1.00000
     96      -8.2861      1.00000
     97      -8.2826      1.00000
     98      -8.2819      1.00000
     99      -8.2806      1.00000
    100      -8.2799      1.00000
    101      -8.2779      1.00000
    102      -8.2769      1.00000
    103      -8.2763      1.00000
    104      -8.2756      1.00000
    105      -8.2710      1.00000
    106      -8.2701      1.00000
    107      -8.2696      1.00000
    108      -8.2689      1.00000
    109      -8.2679      1.00000
    110      -8.2674      1.00000
    111      -8.2655      1.00000
    112      -8.2651      1.00000
    113      -8.2588      1.00000
    114      -8.2577      1.00000
    115      -8.2567      1.00000
    116      -8.2560      1.00000
    117      -8.2556      1.00000
    118      -8.2546      1.00000
    119      -8.2456      1.00000
    120      -8.2453      1.00000
    121      -8.2444      1.00000
    122      -8.2440      1.00000
    123      -8.2407      1.00000
    124      -8.2405      1.00000
    125      -8.2355      1.00000
    126      -8.2348      1.00000
    127      -8.2313      1.00000
    128      -8.2308      1.00000
    129      -8.2252      1.00000
    130      -8.2234      1.00000
    131      -8.2220      1.00000
    132      -8.2203      1.00000
    133      -8.1993      1.00000
    134      -8.1974      1.00000
    135      -8.1958      1.00000
    136      -8.1940      1.00000
    137      -8.1634      1.00000
    138      -8.1630      1.00000
    139      -8.1599      1.00000
    140      -8.1595      1.00000
    141      -8.1586      1.00000
    142      -8.1580      1.00000
    143      -8.1559      1.00000
    144      -8.1556      1.00000
    145      -8.1487      1.00000
    146      -8.1484      1.00000
    147      -8.1477      1.00000
    148      -8.1473      1.00000
    149      -8.1466      1.00000
    150      -8.1464      1.00000
    151      -8.1457      1.00000
    152      -8.1452      1.00000
    153      -8.1420      1.00000
    154      -8.1419      1.00000
    155      -8.1413      1.00000
    156      -8.1412      1.00000
    157      -8.1394      1.00000
    158      -8.1392      1.00000
    159      -8.1303      1.00000
    160      -8.1303      1.00000
    161      -8.1294      1.00000
    162      -8.1294      1.00000
    163      -8.1276      1.00000
    164      -8.1273      1.00000
    165      -8.0351      1.00000
    166      -8.0335      1.00000
    167      -8.0291      1.00000
    168      -8.0287      1.00000
    169      -8.0276      1.00000
    170      -8.0273      1.00000
    171      -8.0271      1.00000
    172      -8.0255      1.00000
    173      -7.9719      1.00000
    174      -7.9709      1.00000
    175      -7.9420      1.00000
    176      -7.9408      1.00000
    177      -7.9303      1.00000
    178      -7.9301      1.00000
    179      -7.9208      1.00000
    180      -7.9203      1.00000
    181      -7.9076      1.00000
    182      -7.9065      1.00000
    183      -7.9012      1.00000
    184      -7.8999      1.00000
    185      -7.8925      1.00000
    186      -7.8915      1.00000
    187      -7.8877      1.00000
    188      -7.8873      1.00000
    189      -7.8819      1.00000
    190      -7.8808      1.00000
    191      -7.8617      1.00000
    192      -7.8612      1.00000
    193      -7.8424      1.00000
    194      -7.8407      1.00000
    195      -7.8397      1.00000
    196      -7.8378      1.00000
    197      -7.7138      1.00000
    198      -7.7112      1.00000
    199      -7.6944      1.00000
    200      -7.6916      1.00000
    201      -7.6528      1.00000
    202      -7.6513      1.00000
    203      -7.6479      1.00000
    204      -7.6473      1.00000
    205      -7.6426      1.00000
    206      -7.6411      1.00000
    207      -7.6406      1.00000
    208      -7.6397      1.00000
    209      -7.6346      1.00000
    210      -7.6343      1.00000
    211      -7.6266      1.00000
    212      -7.6258      1.00000
    213      -7.6197      1.00000
    214      -7.6190      1.00000
    215      -7.6186      1.00000
    216      -7.6176      1.00000
    217      -7.6123      1.00000
    218      -7.6115      1.00000
    219      -7.6103      1.00000
    220      -7.6100      1.00000
    221      -7.6096      1.00000
    222      -7.6091      1.00000
    223      -7.6087      1.00000
    224      -7.6084      1.00000
    225      -7.6015      1.00000
    226      -7.6013      1.00000
    227      -7.6005      1.00000
    228      -7.5998      1.00000
    229      -7.5969      1.00000
    230      -7.5962      1.00000
    231      -7.5915      1.00000
    232      -7.5908      1.00000
    233      -7.5863      1.00000
    234      -7.5853      1.00000
    235      -7.5850      1.00000
    236      -7.5839      1.00000
    237      -7.5794      1.00000
    238      -7.5782      1.00000
    239      -7.5754      1.00000
    240      -7.5744      1.00000
    241      -7.5738      1.00000
    242      -7.5728      1.00000
    243      -7.5705      1.00000
    244      -7.5694      1.00000
    245      -7.5688      1.00000
    246      -7.5678      1.00000
    247      -7.5664      1.00000
    248      -7.5660      1.00000
    249      -7.5643      1.00000
    250      -7.5639      1.00000
    251      -7.5612      1.00000
    252      -7.5607      1.00000
    253      -7.5600      1.00000
    254      -7.5588      1.00000
    255      -7.5555      1.00000
    256      -7.5549      1.00000
    257      -7.5520      1.00000
    258      -7.5513      1.00000
    259      -7.5490      1.00000
    260      -7.5489      1.00000
    261      -7.5397      1.00000
    262      -7.5393      1.00000
    263      -7.5354      1.00000
    264      -7.5352      1.00000
    265      -7.5329      1.00000
    266      -7.5319      1.00000
    267      -7.5291      1.00000
    268      -7.5281      1.00000
    269      -7.5270      1.00000
    270      -7.5259      1.00000
    271      -7.5240      1.00000
    272      -7.5226      1.00000
    273      -7.5206      1.00000
    274      -7.5198      1.00000
    275      -7.5193      1.00000
    276      -7.5187      1.00000
    277      -7.5172      1.00000
    278      -7.5162      1.00000
    279      -7.5115      1.00000
    280      -7.5099      1.00000
    281      -7.5075      1.00000
    282      -7.5065      1.00000
    283      -7.5059      1.00000
    284      -7.5045      1.00000
    285      -7.5026      1.00000
    286      -7.5020      1.00000
    287      -7.5009      1.00000
    288      -7.5003      1.00000
    289      -7.4994      1.00000
    290      -7.4987      1.00000
    291      -7.4956      1.00000
    292      -7.4951      1.00000
    293      -7.4946      1.00000
    294      -7.4944      1.00000
    295      -7.4935      1.00000
    296      -7.4932      1.00000
    297      -7.4912      1.00000
    298      -7.4902      1.00000
    299      -7.4887      1.00000
    300      -7.4880      1.00000
    301      -7.4866      1.00000
    302      -7.4862      1.00000
    303      -7.4835      1.00000
    304      -7.4826      1.00000
    305      -7.4802      1.00000
    306      -7.4788      1.00000
    307      -7.4759      1.00000
    308      -7.4758      1.00000
    309      -7.4740      1.00000
    310      -7.4733      1.00000
    311      -7.4721      1.00000
    312      -7.4711      1.00000
    313      -7.4695      1.00000
    314      -7.4691      1.00000
    315      -7.4686      1.00000
    316      -7.4685      1.00000
    317      -7.4674      1.00000
    318      -7.4666      1.00000
    319      -7.4647      1.00000
    320      -7.4642      1.00000
    321      -7.4630      1.00000
    322      -7.4620      1.00000
    323      -7.4616      1.00000
    324      -7.4608      1.00000
    325      -7.4570      1.00000
    326      -7.4556      1.00000
    327      -7.4549      1.00000
    328      -7.4530      1.00000
    329      -7.3853      1.00000
    330      -7.3817      1.00000
    331      -7.3561      1.00000
    332      -7.3548      1.00000
    333      -7.3384      1.00000
    334      -7.3341      1.00000
    335      -7.3219      1.00000
    336      -7.3193      1.00000
    337      -7.3149      1.00000
    338      -7.3102      1.00000
    339      -7.2971      1.00000
    340      -7.2914      1.00000
    341      -7.2751      1.00000
    342      -7.2720      1.00000
    343      -7.2630      1.00000
    344      -7.2590      1.00000
    345      -7.2580      1.00000
    346      -7.2554      1.00000
    347      -7.2423      1.00000
    348      -7.2384      1.00000
    349      -7.1551      1.00000
    350      -7.1544      1.00000
    351      -7.1523      1.00000
    352      -7.1451      1.00000
    353      -7.1196      1.00000
    354      -7.1165      1.00000
    355      -7.1149      1.00000
    356      -7.1126      1.00000
    357      -7.1069      1.00000
    358      -7.1045      1.00000
    359      -7.0789      1.00000
    360      -7.0778      1.00000
    361      -7.0737      1.00000
    362      -7.0714      1.00000
    363      -7.0687      1.00000
    364      -7.0667      1.00000
    365      -7.0606      1.00000
    366      -7.0603      1.00000
    367      -7.0542      1.00000
    368      -7.0512      1.00000
    369      -7.0128      1.00000
    370      -7.0123      1.00000
    371      -7.0063      1.00000
    372      -7.0052      1.00000
    373      -6.9857      1.00000
    374      -6.9809      1.00000
    375      -6.9778      1.00000
    376      -6.9717      1.00000
    377      -6.9692      1.00000
    378      -6.9656      1.00000
    379      -6.9489      1.00000
    380      -6.9435      1.00000
    381      -6.9364      1.00000
    382      -6.9341      1.00000
    383      -6.9301      1.00000
    384      -6.9267      1.00000
    385      -6.8716      1.00000
    386      -6.8657      1.00000
    387      -6.8405      1.00000
    388      -6.8336      1.00000
    389      -6.7506      1.00000
    390      -6.7413      1.00000
    391      -6.7118      1.00000
    392      -6.7015      1.00000
    393      -6.6949      1.00000
    394      -6.6840      1.00000
    395      -3.1737      1.00000
    396      -3.1595      1.00000
    397      -2.7632      1.00000
    398      -2.7585      1.00000
    399      -2.7551      1.00000
    400      -2.7514      1.00000
    401      -2.7493      1.00000
    402      -2.7442      1.00000
    403      -2.7409      1.00000
    404      -2.7335      1.00000
    405      -2.7278      1.00000
    406      -2.7259      1.00000
    407      -2.6729      1.00000
    408      -2.6623      1.00000
    409      -2.6054      1.00000
    410      -2.5992      1.00000
    411      -2.5936      1.00000
    412      -2.5921      1.00000
    413      -2.5857      1.00000
    414      -2.5844      1.00000
    415      -2.5464      1.00000
    416      -2.5397      1.00000
    417      -2.5334      1.00000
    418      -2.5252      1.00000
    419      -2.4416      1.00000
    420      -2.4339      1.00000
    421      -2.4281      1.00000
    422      -2.4233      1.00000
    423      -2.4141      1.00000
    424      -2.4107      1.00000
    425      -2.3916      1.00000
    426      -2.3889      1.00000
    427      -2.3108      1.00000
    428      -2.3055      1.00000
    429      -2.2935      1.00000
    430      -2.2877      1.00000
    431      -2.2780      1.00000
    432      -2.2728      1.00000
    433      -2.2468      1.00000
    434      -2.2398      1.00000
    435      -2.1330      1.00000
    436      -2.1269      1.00000
    437      -2.0068      1.00000
    438      -2.0031      1.00000
    439      -2.0019      1.00000
    440      -2.0007      1.00000
    441      -1.9932      1.00000
    442      -1.9891      1.00000
    443      -1.9787      1.00000
    444      -1.9748      1.00000
    445      -1.9275      1.00000
    446      -1.9251      1.00000
    447      -1.9249      1.00000
    448      -1.9202      1.00000
    449      -1.9184      1.00000
    450      -1.9177      1.00000
    451      -1.1448      1.00000
    452      -1.1352      1.00000
    453      -1.0423      1.00000
    454      -1.0390      1.00000
    455      -0.8490      1.00000
    456      -0.8459      1.00000
    457      -0.7701      1.00000
    458      -0.7665      1.00000
    459      -0.5888      1.00000
    460      -0.5794      1.00000
    461      -0.5226      1.00000
    462      -0.5186      1.00000
    463      -0.5134      1.00000
    464      -0.5112      1.00000
    465      -0.4882      1.00000
    466      -0.4866      1.00000
    467      -0.4819      1.00000
    468      -0.4791      1.00000
    469      -0.4767      1.00000
    470      -0.4751      1.00000
    471      -0.4645      1.00000
    472      -0.4612      1.00000
    473      -0.4547      1.00000
    474      -0.4512      1.00000
    475      -0.4265      1.00000
    476      -0.4232      1.00000
    477      -0.3714      1.00000
    478      -0.3685      1.00000
    479      -0.3154      1.00000
    480      -0.3128      1.00000
    481      -0.2952      1.00000
    482      -0.2939      1.00000
    483      -0.2841      1.00000
    484      -0.2819      1.00000
    485      -0.2663      1.00000
    486      -0.2623      1.00000
    487      -0.2596      1.00000
    488      -0.2584      1.00000
    489      -0.2426      1.00000
    490      -0.2381      1.00000
    491      -0.2134      1.00000
    492      -0.2119      1.00000
    493      -0.1772      1.00000
    494      -0.1736      1.00000
    495      -0.1733      1.00000
    496      -0.1683      1.00000
    497      -0.1558      1.00000
    498      -0.1533      1.00000
    499       0.0474      1.00000
    500       0.0571      1.00000
    501       0.0590      1.00000
    502       0.0606      1.00000
    503       0.0687      1.00000
    504       0.0711      1.00000
    505       0.0912      1.00000
    506       0.0924      1.00000
    507       0.1869      1.00000
    508       0.1941      1.00000
    509       0.1987      1.00000
    510       0.2060      1.00000
    511       0.2137      1.00000
    512       0.2185      1.00000
    513       0.2193      1.00000
    514       0.2354      1.00000
    515       0.2392      1.00000
    516       0.2448      1.00000
    517       0.2461      1.00000
    518       0.2501      1.00000
    519       0.2656      1.00000
    520       0.2722      1.00000
    521       0.2793      1.00000
    522       0.2846      1.00000
    523       0.4594      1.00000
    524       0.4651      1.00000
    525       0.4687      1.00000
    526       0.4725      1.00000
    527       0.4752      1.00000
    528       0.4773      1.00000
    529       0.4816      1.00000
    530       0.4852      1.00000
    531       0.4887      1.00000
    532       0.4971      1.00000
    533       0.4981      1.00000
    534       0.5047      1.00000
    535       0.5069      1.00000
    536       0.5097      1.00000
    537       0.5183      1.00000
    538       0.5209      1.00000
    539       0.5680      1.00000
    540       0.5727      1.00000
    541       0.5785      1.00000
    542       0.5803      1.00000
    543       0.5849      1.00000
    544       0.5904      1.00000
    545       0.6025      1.00000
    546       0.6193      1.00000
    547       0.6259      1.00000
    548       0.6284      1.00000
    549       0.6328      1.00000
    550       0.6352      1.00000
    551       0.6423      1.00000
    552       0.6444      1.00000
    553       0.6569      1.00000
    554       0.6636      1.00000
    555       0.8548      1.00000
    556       0.8711      1.00000
    557       0.8810      1.00000
    558       0.8913      1.00000
    559       0.9682      1.00000
    560       0.9797      1.00000
    561       0.9921      1.00000
    562       0.9969      1.00000
    563       1.0031      1.00000
    564       1.0081      1.00000
    565       1.0161      1.00000
    566       1.0203      1.00000
    567       1.0321      1.00000
    568       1.0350      1.00000
    569       1.0383      1.00000
    570       1.0419      1.00000
    571       1.0447      1.00000
    572       1.0469      1.00000
    573       1.0515      1.00000
    574       1.0521      1.00000
    575       1.0576      1.00000
    576       1.0654      1.00000
    577       1.0689      1.00000
    578       1.0733      1.00000
    579       1.6893      1.00000
    580       1.6906      1.00000
    581       1.6947      1.00000
    582       1.7313      1.00000
    583       1.7362      1.00000
    584       1.7407      1.00000
    585       1.7438      1.00000
    586       1.7849      1.00000
    587       3.0677      1.00000
    588       3.1438      0.89866
    589       4.6047      0.00000
    590       4.6081      0.00000
    591       4.7645      0.00000
    592       4.8086      0.00000
    593       4.7759      0.00000
    594       4.9165      0.00000
    595       4.9183      0.00000
    596       4.6287      0.00000
    597       4.6468      0.00000
    598       4.9899      0.00000
    599       5.0360      0.00000
    600       5.0294      0.00000
    601       5.0676      0.00000
    602       4.7869      0.00000
    603       5.1235      0.00000
    604       4.7957      0.00000
    605       4.8635      0.00000
    606       4.9236      0.00000
    607       4.9395      0.00000
    608       5.2842      0.00000
    609       5.2787      0.00000
    610       5.3292      0.00000
    611       5.0198      0.00000
    612       5.0517      0.00000
    613       5.1347      0.00000
    614       5.1301      0.00000
    615       5.3360      0.00000
    616       5.3900      0.00000
    617       5.3269      0.00000
    618       5.4891      0.00000
    619       5.6257      0.00000
    620       5.6997      0.00000
    621       5.6833      0.00000
    622       5.2853      0.00000
    623       5.2863      0.00000
    624       5.6156      0.00000
    625       5.5967      0.00000
    626       5.6018      0.00000
    627       5.7605      0.00000
    628       5.7575      0.00000
    629       5.7872      0.00000
    630       5.7929      0.00000
    631       5.8084      0.00000
    632       5.8105      0.00000
    633       5.8097      0.00000
    634       5.6294      0.00000
    635       5.5426      0.00000
    636       5.8281      0.00000
    637       5.7974      0.00000
    638       5.9036      0.00000
    639       5.7155      0.00000
    640       5.9395      0.00000
    641       5.8319      0.00000
    642       5.8669      0.00000
    643       6.0014      0.00000
    644       6.0354      0.00000
    645       6.0159      0.00000
    646       5.9496      0.00000
    647       5.7406      0.00000
    648       5.7506      0.00000
    649       5.7829      0.00000
    650       5.7911      0.00000
    651       5.8058      0.00000
    652       5.8296      0.00000
    653       5.8401      0.00000
    654       5.8449      0.00000
    655       5.8606      0.00000
    656       5.8603      0.00000
    657       5.8623      0.00000
    658       5.8929      0.00000
    659       5.8834      0.00000
    660       5.9757      0.00000
    661       5.9952      0.00000
    662       6.0305      0.00000
    663       6.0279      0.00000
    664       6.0625      0.00000
    665       6.0588      0.00000
    666       6.0903      0.00000
    667       6.5833      0.00000
    668       6.6729      0.00000
    669       6.8123      0.00000
    670       6.8349      0.00000
    671       6.9500      0.00000
    672       6.7803      0.00000
    673       6.9183      0.00000
    674       6.8815      0.00000
    675       6.9639      0.00000
    676       6.9433      0.00000
    677       7.0171      0.00000
    678       7.0428      0.00000
    679       7.0451      0.00000
    680       7.0704      0.00000
    681       6.7996      0.00000
    682       7.0079      0.00000
    683       7.0986      0.00000
    684       7.1103      0.00000
    685       7.1024      0.00000
    686       7.1139      0.00000
    687       7.0294      0.00000
    688       7.1397      0.00000
    689       6.9875      0.00000
    690       6.9635      0.00000
    691       7.1060      0.00000
    692       7.1556      0.00000
    693       7.1633      0.00000
    694       7.1427      0.00000
    695       6.9302      0.00000
    696       6.9475      0.00000
    697       6.9912      0.00000
    698       7.0057      0.00000
    699       7.0260      0.00000
    700       7.0606      0.00000
    701       7.0655      0.00000
    702       7.0737      0.00000
    703       7.0445      0.00000
    704       7.0894      0.00000
    705       7.1216      0.00000
    706       7.0911      0.00000
    707       7.1332      0.00000
    708       7.1136      0.00000
    709       7.4086      0.00000
    710       7.3620      0.00000
    711       7.1965      0.00000
    712       7.1752      0.00000
    713       7.1549      0.00000
    714       7.2062      0.00000
    715       7.2067      0.00000
    716       7.2909      0.00000
    717       7.3069      0.00000
    718       7.4767      0.00000
    719       7.7222      0.00000
    720       7.7553      0.00000
    721       7.7162      0.00000
    722       7.5023      0.00000
    723       7.9687      0.00000
    724       7.6095      0.00000
    725       7.5995      0.00000
    726       7.7830      0.00000
    727       7.9676      0.00000
    728       8.0619      0.00000
    729       8.0629      0.00000
    730       8.2384      0.00000
    731       7.8975      0.00000
    732       7.9290      0.00000
    733       8.3229      0.00000
    734       8.0232      0.00000
    735       8.3365      0.00000
    736       8.1877      0.00000
    737       8.2882      0.00000
    738       8.3281      0.00000
    739       8.3459      0.00000
    740       8.4129      0.00000
    741       8.4247      0.00000
    742       8.3940      0.00000
    743       8.1882      0.00000
    744       8.3909      0.00000
    745       8.3766      0.00000
    746       8.4287      0.00000
    747       8.3701      0.00000
    748       8.4683      0.00000
    749       8.4646      0.00000
    750       8.4822      0.00000
    751       8.4582      0.00000
    752       8.2543      0.00000
    753       8.2479      0.00000
    754       8.4252      0.00000
    755       8.5665      0.00000
    756       8.5972      0.00000
    757       8.5770      0.00000
    758       8.5844      0.00000
    759       8.6147      0.00000
    760       8.5897      0.00000
    761       8.6126      0.00000
    762       8.6399      0.00000
    763       8.5613      0.00000
    764       8.4765      0.00000
    765       8.6854      0.00000
    766       8.7133      0.00000
    767       8.3576      0.00000
    768       8.4232      0.00000
    769       8.4042      0.00000
    770       8.3895      0.00000
    771       8.4688      0.00000
    772       8.3646      0.00000
    773       8.4806      0.00000
    774       8.4079      0.00000
    775       8.4312      0.00000
    776       8.4632      0.00000
    777       8.4675      0.00000
    778       8.4553      0.00000
    779       8.4750      0.00000
    780       8.4840      0.00000
    781       8.5085      0.00000
    782       8.5641      0.00000
    783       8.5811      0.00000
    784       8.5995      0.00000
    785       8.6143      0.00000
    786       8.6215      0.00000
    787       8.6246      0.00000
    788       8.6368      0.00000
    789       8.6350      0.00000
    790       8.6514      0.00000
    791       8.6582      0.00000
    792       8.6735      0.00000
    793       8.7144      0.00000
    794       8.7164      0.00000
    795       9.5350      0.00000
    796       9.5437      0.00000
    797       9.6476      0.00000
    798       9.6984      0.00000
    799       9.7506      0.00000
    800       9.7618      0.00000
    801       9.7768      0.00000
    802       9.8205      0.00000
    803       9.8292      0.00000
    804       9.9149      0.00000
    805       9.9263      0.00000
    806       9.9277      0.00000
    807       9.7121      0.00000
    808       9.6931      0.00000
    809       9.8316      0.00000
    810       9.9526      0.00000
    811       9.6817      0.00000
    812       9.7599      0.00000
    813       9.9111      0.00000
    814       9.9334      0.00000
    815       9.8111      0.00000
    816       9.8404      0.00000
    817      10.0507      0.00000
    818       9.8669      0.00000
    819       9.9645      0.00000
    820      10.0746      0.00000
    821      10.1334      0.00000
    822      10.1446      0.00000
    823      10.1390      0.00000
    824      10.1383      0.00000
    825      10.1209      0.00000
    826      10.2197      0.00000
    827      10.1815      0.00000
    828      10.2982      0.00000
    829      10.3303      0.00000
    830      10.4375      0.00000
    831      10.2289      0.00000
    832      10.4341      0.00000
    833      10.4828      0.00000
    834      10.2458      0.00000
    835      10.6161      0.00000
    836      10.5662      0.00000
    837      10.4074      0.00000
    838      10.4316      0.00000
    839      10.5378      0.00000
    840      10.5888      0.00000
    841      10.6329      0.00000
    842      10.6250      0.00000
    843      10.6913      0.00000
    844      10.6827      0.00000
    845      10.7010      0.00000
    846      10.6694      0.00000
    847      10.6609      0.00000
    848      10.7085      0.00000
    849      10.7249      0.00000
    850      10.7335      0.00000
    851      10.6949      0.00000
    852      10.6698      0.00000
    853      10.7664      0.00000
    854      10.8711      0.00000
    855      10.8877      0.00000
    856      10.8717      0.00000
    857      10.9212      0.00000
    858      10.9649      0.00000
    859      10.9949      0.00000
    860      11.0371      0.00000
    861      11.0276      0.00000
    862      11.0791      0.00000
    863      11.0610      0.00000
    864      11.0707      0.00000

 k-point     8 :       0.5000    0.5000    0.5000
  band No.  band energies     occupation 
      1      -9.9706      1.00000
      2      -9.9702      1.00000
      3      -9.9699      1.00000
      4      -9.9635      1.00000
      5      -9.9331      1.00000
      6      -9.9330      1.00000
      7      -9.9325      1.00000
      8      -9.9261      1.00000
      9      -9.9243      1.00000
     10      -9.9235      1.00000
     11      -9.9230      1.00000
     12      -9.8922      1.00000
     13      -9.8864      1.00000
     14      -9.8860      1.00000
     15      -9.8851      1.00000
     16      -9.8528      1.00000
     17      -9.8182      1.00000
     18      -9.8161      1.00000
     19      -9.8140      1.00000
     20      -9.7848      1.00000
     21      -9.7822      1.00000
     22      -9.7814      1.00000
     23      -9.7793      1.00000
     24      -9.7739      1.00000
     25      -9.7737      1.00000
     26      -9.7734      1.00000
     27      -9.7708      1.00000
     28      -9.7697      1.00000
     29      -9.7661      1.00000
     30      -9.7642      1.00000
     31      -9.7586      1.00000
     32      -9.7536      1.00000
     33      -9.7528      1.00000
     34      -9.7482      1.00000
     35      -9.7379      1.00000
     36      -9.7357      1.00000
     37      -9.7293      1.00000
     38      -9.7279      1.00000
     39      -9.7252      1.00000
     40      -9.7201      1.00000
     41      -9.7200      1.00000
     42      -9.7190      1.00000
     43      -9.7134      1.00000
     44      -9.7121      1.00000
     45      -9.7114      1.00000
     46      -9.7100      1.00000
     47      -9.7063      1.00000
     48      -9.7022      1.00000
     49      -9.7002      1.00000
     50      -9.6927      1.00000
     51      -9.6884      1.00000
     52      -9.6857      1.00000
     53      -9.6814      1.00000
     54      -9.6689      1.00000
     55      -9.6677      1.00000
     56      -9.6618      1.00000
     57      -9.6598      1.00000
     58      -9.6527      1.00000
     59      -9.6491      1.00000
     60      -9.6384      1.00000
     61      -9.6378      1.00000
     62      -9.6145      1.00000
     63      -9.6138      1.00000
     64      -9.6104      1.00000
     65      -8.3917      1.00000
     66      -8.3895      1.00000
     67      -8.3886      1.00000
     68      -8.3856      1.00000
     69      -8.3748      1.00000
     70      -8.3721      1.00000
     71      -8.3553      1.00000
     72      -8.3500      1.00000
     73      -8.3331      1.00000
     74      -8.3320      1.00000
     75      -8.3317      1.00000
     76      -8.3309      1.00000
     77      -8.3181      1.00000
     78      -8.3173      1.00000
     79      -8.3171      1.00000
     80      -8.3166      1.00000
     81      -8.3037      1.00000
     82      -8.3033      1.00000
     83      -8.3030      1.00000
     84      -8.3025      1.00000
     85      -8.2971      1.00000
     86      -8.2969      1.00000
     87      -8.2967      1.00000
     88      -8.2966      1.00000
     89      -8.2870      1.00000
     90      -8.2870      1.00000
     91      -8.2852      1.00000
     92      -8.2852      1.00000
     93      -8.2851      1.00000
     94      -8.2850      1.00000
     95      -8.2791      1.00000
     96      -8.2790      1.00000
     97      -8.2787      1.00000
     98      -8.2785      1.00000
     99      -8.2775      1.00000
    100      -8.2770      1.00000
    101      -8.2757      1.00000
    102      -8.2756      1.00000
    103      -8.2754      1.00000
    104      -8.2753      1.00000
    105      -8.2744      1.00000
    106      -8.2738      1.00000
    107      -8.2688      1.00000
    108      -8.2680      1.00000
    109      -8.2671      1.00000
    110      -8.2663      1.00000
    111      -8.2644      1.00000
    112      -8.2633      1.00000
    113      -8.2533      1.00000
    114      -8.2532      1.00000
    115      -8.2526      1.00000
    116      -8.2525      1.00000
    117      -8.2444      1.00000
    118      -8.2433      1.00000
    119      -8.2430      1.00000
    120      -8.2419      1.00000
    121      -8.2358      1.00000
    122      -8.2356      1.00000
    123      -8.2355      1.00000
    124      -8.2351      1.00000
    125      -8.2349      1.00000
    126      -8.2347      1.00000
    127      -8.2282      1.00000
    128      -8.2279      1.00000
    129      -8.1926      1.00000
    130      -8.1922      1.00000
    131      -8.1920      1.00000
    132      -8.1903      1.00000
    133      -8.1899      1.00000
    134      -8.1894      1.00000
    135      -8.1808      1.00000
    136      -8.1783      1.00000
    137      -8.1747      1.00000
    138      -8.1739      1.00000
    139      -8.1736      1.00000
    140      -8.1725      1.00000
    141      -8.1720      1.00000
    142      -8.1701      1.00000
    143      -8.1597      1.00000
    144      -8.1578      1.00000
    145      -8.1568      1.00000
    146      -8.1563      1.00000
    147      -8.1561      1.00000
    148      -8.1557      1.00000
    149      -8.1467      1.00000
    150      -8.1466      1.00000
    151      -8.1438      1.00000
    152      -8.1436      1.00000
    153      -8.1432      1.00000
    154      -8.1432      1.00000
    155      -8.1431      1.00000
    156      -8.1430      1.00000
    157      -8.1393      1.00000
    158      -8.1390      1.00000
    159      -8.1379      1.00000
    160      -8.1379      1.00000
    161      -8.1379      1.00000
    162      -8.1378      1.00000
    163      -8.1376      1.00000
    164      -8.1375      1.00000
    165      -8.1363      1.00000
    166      -8.1361      1.00000
    167      -8.1358      1.00000
    168      -8.1357      1.00000
    169      -7.9659      1.00000
    170      -7.9644      1.00000
    171      -7.9636      1.00000
    172      -7.9621      1.00000
    173      -7.9330      1.00000
    174      -7.9322      1.00000
    175      -7.9257      1.00000
    176      -7.9254      1.00000
    177      -7.9244      1.00000
    178      -7.9242      1.00000
    179      -7.9137      1.00000
    180      -7.9131      1.00000
    181      -7.8988      1.00000
    182      -7.8988      1.00000
    183      -7.8981      1.00000
    184      -7.8979      1.00000
    185      -7.8971      1.00000
    186      -7.8965      1.00000
    187      -7.8919      1.00000
    188      -7.8910      1.00000
    189      -7.8877      1.00000
    190      -7.8876      1.00000
    191      -7.8870      1.00000
    192      -7.8870      1.00000
    193      -7.8448      1.00000
    194      -7.8428      1.00000
    195      -7.8417      1.00000
    196      -7.8396      1.00000
    197      -7.7075      1.00000
    198      -7.7046      1.00000
    199      -7.6795      1.00000
    200      -7.6764      1.00000
    201      -7.6521      1.00000
    202      -7.6515      1.00000
    203      -7.6512      1.00000
    204      -7.6505      1.00000
    205      -7.6435      1.00000
    206      -7.6426      1.00000
    207      -7.6373      1.00000
    208      -7.6347      1.00000
    209      -7.6322      1.00000
    210      -7.6320      1.00000
    211      -7.6300      1.00000
    212      -7.6299      1.00000
    213      -7.6171      1.00000
    214      -7.6170      1.00000
    215      -7.6158      1.00000
    216      -7.6158      1.00000
    217      -7.6152      1.00000
    218      -7.6150      1.00000
    219      -7.6064      1.00000
    220      -7.6059      1.00000
    221      -7.6012      1.00000
    222      -7.6004      1.00000
    223      -7.6001      1.00000
    224      -7.5995      1.00000
    225      -7.5989      1.00000
    226      -7.5988      1.00000
    227      -7.5932      1.00000
    228      -7.5927      1.00000
    229      -7.5919      1.00000
    230      -7.5916      1.00000
    231      -7.5915      1.00000
    232      -7.5909      1.00000
    233      -7.5867      1.00000
    234      -7.5866      1.00000
    235      -7.5860      1.00000
    236      -7.5853      1.00000
    237      -7.5845      1.00000
    238      -7.5844      1.00000
    239      -7.5815      1.00000
    240      -7.5808      1.00000
    241      -7.5796      1.00000
    242      -7.5790      1.00000
    243      -7.5758      1.00000
    244      -7.5750      1.00000
    245      -7.5746      1.00000
    246      -7.5735      1.00000
    247      -7.5667      1.00000
    248      -7.5664      1.00000
    249      -7.5660      1.00000
    250      -7.5659      1.00000
    251      -7.5658      1.00000
    252      -7.5654      1.00000
    253      -7.5649      1.00000
    254      -7.5647      1.00000
    255      -7.5634      1.00000
    256      -7.5633      1.00000
    257      -7.5522      1.00000
    258      -7.5522      1.00000
    259      -7.5520      1.00000
    260      -7.5519      1.00000
    261      -7.5363      1.00000
    262      -7.5362      1.00000
    263      -7.5354      1.00000
    264      -7.5353      1.00000
    265      -7.5289      1.00000
    266      -7.5273      1.00000
    267      -7.5265      1.00000
    268      -7.5252      1.00000
    269      -7.5248      1.00000
    270      -7.5244      1.00000
    271      -7.5241      1.00000
    272      -7.5240      1.00000
    273      -7.5079      1.00000
    274      -7.5073      1.00000
    275      -7.5072      1.00000
    276      -7.5064      1.00000
    277      -7.5053      1.00000
    278      -7.5048      1.00000
    279      -7.5045      1.00000
    280      -7.5040      1.00000
    281      -7.5033      1.00000
    282      -7.5032      1.00000
    283      -7.5007      1.00000
    284      -7.5005      1.00000
    285      -7.5002      1.00000
    286      -7.5001      1.00000
    287      -7.4998      1.00000
    288      -7.4997      1.00000
    289      -7.4996      1.00000
    290      -7.4990      1.00000
    291      -7.4986      1.00000
    292      -7.4975      1.00000
    293      -7.4939      1.00000
    294      -7.4938      1.00000
    295      -7.4933      1.00000
    296      -7.4929      1.00000
    297      -7.4873      1.00000
    298      -7.4850      1.00000
    299      -7.4835      1.00000
    300      -7.4835      1.00000
    301      -7.4820      1.00000
    302      -7.4820      1.00000
    303      -7.4801      1.00000
    304      -7.4801      1.00000
    305      -7.4756      1.00000
    306      -7.4754      1.00000
    307      -7.4753      1.00000
    308      -7.4751      1.00000
    309      -7.4719      1.00000
    310      -7.4718      1.00000
    311      -7.4695      1.00000
    312      -7.4693      1.00000
    313      -7.4692      1.00000
    314      -7.4690      1.00000
    315      -7.4672      1.00000
    316      -7.4665      1.00000
    317      -7.4661      1.00000
    318      -7.4658      1.00000
    319      -7.4657      1.00000
    320      -7.4655      1.00000
    321      -7.4597      1.00000
    322      -7.4583      1.00000
    323      -7.4574      1.00000
    324      -7.4555      1.00000
    325      -7.4502      1.00000
    326      -7.4493      1.00000
    327      -7.4478      1.00000
    328      -7.4469      1.00000
    329      -7.4452      1.00000
    330      -7.4442      1.00000
    331      -7.4441      1.00000
    332      -7.4425      1.00000
    333      -7.4376      1.00000
    334      -7.4356      1.00000
    335      -7.4326      1.00000
    336      -7.4291      1.00000
    337      -7.3458      1.00000
    338      -7.3414      1.00000
    339      -7.3406      1.00000
    340      -7.3360      1.00000
    341      -7.1699      1.00000
    342      -7.1658      1.00000
    343      -7.1499      1.00000
    344      -7.1407      1.00000
    345      -7.1296      1.00000
    346      -7.1296      1.00000
    347      -7.1204      1.00000
    348      -7.1203      1.00000
    349      -7.0999      1.00000
    350      -7.0981      1.00000
    351      -7.0977      1.00000
    352      -7.0963      1.00000
    353      -7.0935      1.00000
    354      -7.0928      1.00000
    355      -7.0926      1.00000
    356      -7.0903      1.00000
    357      -7.0899      1.00000
    358      -7.0897      1.00000
    359      -7.0881      1.00000
    360      -7.0875      1.00000
    361      -7.0854      1.00000
    362      -7.0853      1.00000
    363      -7.0829      1.00000
    364      -7.0793      1.00000
    365      -7.0661      1.00000
    366      -7.0639      1.00000
    367      -7.0619      1.00000
    368      -7.0600      1.00000
    369      -6.9973      1.00000
    370      -6.9972      1.00000
    371      -6.9840      1.00000
    372      -6.9821      1.00000
    373      -6.9803      1.00000
    374      -6.9798      1.00000
    375      -6.9772      1.00000
    376      -6.9764      1.00000
    377      -6.9736      1.00000
    378      -6.9726      1.00000
    379      -6.9715      1.00000
    380      -6.9680      1.00000
    381      -6.9665      1.00000
    382      -6.9659      1.00000
    383      -6.9616      1.00000
    384      -6.9569      1.00000
    385      -6.9569      1.00000
    386      -6.9547      1.00000
    387      -6.9516      1.00000
    388      -6.9507      1.00000
    389      -6.7561      1.00000
    390      -6.7467      1.00000
    391      -6.7184      1.00000
    392      -6.7138      1.00000
    393      -6.7038      1.00000
    394      -6.7026      1.00000
    395      -3.1510      1.00000
    396      -3.1356      1.00000
    397      -2.6105      1.00000
    398      -2.6079      1.00000
    399      -2.6076      1.00000
    400      -2.6070      1.00000
    401      -2.6044      1.00000
    402      -2.6040      1.00000
    403      -2.6033      1.00000
    404      -2.6028      1.00000
    405      -2.6020      1.00000
    406      -2.6003      1.00000
    407      -2.5977      1.00000
    408      -2.5964      1.00000
    409      -2.5862      1.00000
    410      -2.5824      1.00000
    411      -2.5814      1.00000
    412      -2.5779      1.00000
    413      -2.5752      1.00000
    414      -2.5727      1.00000
    415      -2.5472      1.00000
    416      -2.5469      1.00000
    417      -2.5465      1.00000
    418      -2.5453      1.00000
    419      -2.4966      1.00000
    420      -2.4932      1.00000
    421      -2.4677      1.00000
    422      -2.4671      1.00000
    423      -2.4666      1.00000
    424      -2.4658      1.00000
    425      -2.4574      1.00000
    426      -2.4531      1.00000
    427      -2.4530      1.00000
    428      -2.4512      1.00000
    429      -2.4472      1.00000
    430      -2.4466      1.00000
    431      -2.4345      1.00000
    432      -2.4296      1.00000
    433      -2.4257      1.00000
    434      -2.4218      1.00000
    435      -2.4144      1.00000
    436      -2.4136      1.00000
    437      -2.4129      1.00000
    438      -2.4111      1.00000
    439      -2.4057      1.00000
    440      -2.4027      1.00000
    441      -2.4009      1.00000
    442      -2.3984      1.00000
    443      -1.3719      1.00000
    444      -1.3657      1.00000
    445      -1.0820      1.00000
    446      -1.0808      1.00000
    447      -1.0758      1.00000
    448      -1.0742      1.00000
    449      -1.0737      1.00000
    450      -1.0729      1.00000
    451      -1.0663      1.00000
    452      -1.0662      1.00000
    453      -1.0264      1.00000
    454      -1.0254      1.00000
    455      -1.0227      1.00000
    456      -1.0219      1.00000
    457      -1.0216      1.00000
    458      -1.0211      1.00000
    459      -0.7444      1.00000
    460      -0.7343      1.00000
    461      -0.5811      1.00000
    462      -0.5769      1.00000
    463      -0.5551      1.00000
    464      -0.5515      1.00000
    465      -0.5488      1.00000
    466      -0.5453      1.00000
    467      -0.5228      1.00000
    468      -0.5227      1.00000
    469      -0.5206      1.00000
    470      -0.5201      1.00000
    471      -0.5012      1.00000
    472      -0.5000      1.00000
    473      -0.4952      1.00000
    474      -0.4949      1.00000
    475      -0.4920      1.00000
    476      -0.4918      1.00000
    477      -0.4847      1.00000
    478      -0.4812      1.00000
    479      -0.4741      1.00000
    480      -0.4723      1.00000
    481      -0.4692      1.00000
    482      -0.4671      1.00000
    483      -0.3607      1.00000
    484      -0.3566      1.00000
    485      -0.3285      1.00000
    486      -0.3239      1.00000
    487      -0.3084      1.00000
    488      -0.3079      1.00000
    489      -0.3068      1.00000
    490      -0.3064      1.00000
    491      -0.2816      1.00000
    492      -0.2810      1.00000
    493      -0.2783      1.00000
    494      -0.2777      1.00000
    495      -0.2655      1.00000
    496      -0.2642      1.00000
    497      -0.2613      1.00000
    498      -0.2612      1.00000
    499      -0.2588      1.00000
    500      -0.2563      1.00000
    501      -0.2507      1.00000
    502      -0.2462      1.00000
    503      -0.2439      1.00000
    504      -0.2423      1.00000
    505      -0.2397      1.00000
    506      -0.2387      1.00000
    507       0.3060      1.00000
    508       0.3065      1.00000
    509       0.3180      1.00000
    510       0.3316      1.00000
    511       0.3385      1.00000
    512       0.3412      1.00000
    513       0.3569      1.00000
    514       0.3590      1.00000
    515       0.3603      1.00000
    516       0.3769      1.00000
    517       0.3785      1.00000
    518       0.3806      1.00000
    519       0.3812      1.00000
    520       0.3892      1.00000
    521       0.3913      1.00000
    522       0.3984      1.00000
    523       0.3995      1.00000
    524       0.4004      1.00000
    525       0.4138      1.00000
    526       0.4152      1.00000
    527       0.4198      1.00000
    528       0.4225      1.00000
    529       0.4249      1.00000
    530       0.4282      1.00000
    531       0.4296      1.00000
    532       0.4310      1.00000
    533       0.4336      1.00000
    534       0.4348      1.00000
    535       0.4406      1.00000
    536       0.4408      1.00000
    537       0.4439      1.00000
    538       0.4453      1.00000
    539       0.4471      1.00000
    540       0.4483      1.00000
    541       0.4545      1.00000
    542       0.4557      1.00000
    543       0.4565      1.00000
    544       0.4599      1.00000
    545       0.4635      1.00000
    546       0.4653      1.00000
    547       0.4694      1.00000
    548       0.4701      1.00000
    549       0.4811      1.00000
    550       0.4865      1.00000
    551       0.4905      1.00000
    552       0.5060      1.00000
    553       0.5137      1.00000
    554       0.5195      1.00000
    555       1.0844      1.00000
    556       1.0957      1.00000
    557       1.0990      1.00000
    558       1.0994      1.00000
    559       1.1092      1.00000
    560       1.1123      1.00000
    561       1.1141      1.00000
    562       1.1241      1.00000
    563       1.1259      1.00000
    564       1.1314      1.00000
    565       1.1385      1.00000
    566       1.1443      1.00000
    567       1.1474      1.00000
    568       1.1532      1.00000
    569       1.1591      1.00000
    570       1.1690      1.00000
    571       1.6064      1.00000
    572       1.6201      1.00000
    573       1.6256      1.00000
    574       1.6266      1.00000
    575       1.6431      1.00000
    576       1.6443      1.00000
    577       1.6465      1.00000
    578       1.6560      1.00000
    579       1.6637      1.00000
    580       1.6650      1.00000
    581       1.6724      1.00000
    582       1.6728      1.00000
    583       1.6741      1.00000
    584       1.6817      1.00000
    585       1.6926      1.00000
    586       1.6995      1.00000
    587       2.9126      1.00000
    588       2.9925      1.00000
    589       4.2997      0.00000
    590       4.3028      0.00000
    591       4.3057      0.00000
    592       4.4167      0.00000
    593       4.4814      0.00000
    594       4.4816      0.00000
    595       4.4816      0.00000
    596       4.6155      0.00000
    597       4.2783      0.00000
    598       4.2814      0.00000
    599       4.2847      0.00000
    600       4.3938      0.00000
    601       4.4567      0.00000
    602       4.4574      0.00000
    603       4.4565      0.00000
    604       4.5983      0.00000
    605       5.1249      0.00000
    606       5.1320      0.00000
    607       5.1388      0.00000
    608       5.3707      0.00000
    609       5.3850      0.00000
    610       5.3787      0.00000
    611       5.3983      0.00000
    612       5.4155      0.00000
    613       5.4155      0.00000
    614       5.4275      0.00000
    615       5.4324      0.00000
    616       5.4450      0.00000
    617       5.4403      0.00000
    618       5.4234      0.00000
    619       5.4440      0.00000
    620       5.4505      0.00000
    621       5.4543      0.00000
    622       5.4613      0.00000
    623       5.3228      0.00000
    624       5.4474      0.00000
    625       5.4652      0.00000
    626       5.4366      0.00000
    627       5.4986      0.00000
    628       5.2435      0.00000
    629       5.3663      0.00000
    630       5.1647      0.00000
    631       5.3757      0.00000
    632       5.3777      0.00000
    633       5.3756      0.00000
    634       5.3799      0.00000
    635       5.4018      0.00000
    636       5.4088      0.00000
    637       5.4094      0.00000
    638       5.4204      0.00000
    639       5.4295      0.00000
    640       5.4391      0.00000
    641       5.4322      0.00000
    642       5.4369      0.00000
    643       5.4298      0.00000
    644       5.4365      0.00000
    645       5.4495      0.00000
    646       5.4492      0.00000
    647       5.4667      0.00000
    648       5.4750      0.00000
    649       5.4798      0.00000
    650       5.4828      0.00000
    651       6.2406      0.00000
    652       6.2794      0.00000
    653       6.7190      0.00000
    654       6.7527      0.00000
    655       6.8003      0.00000
    656       6.9217      0.00000
    657       6.9438      0.00000
    658       6.9691      0.00000
    659       6.9690      0.00000
    660       6.9813      0.00000
    661       6.9721      0.00000
    662       7.0034      0.00000
    663       6.9995      0.00000
    664       7.0009      0.00000
    665       7.0137      0.00000
    666       7.0157      0.00000
    667       7.0177      0.00000
    668       7.0257      0.00000
    669       7.0140      0.00000
    670       7.0623      0.00000
    671       7.0606      0.00000
    672       7.1027      0.00000
    673       7.1007      0.00000
    674       7.0023      0.00000
    675       7.1493      0.00000
    676       6.9686      0.00000
    677       6.9066      0.00000
    678       6.9709      0.00000
    679       6.9631      0.00000
    680       6.9893      0.00000
    681       6.9998      0.00000
    682       7.0132      0.00000
    683       7.0240      0.00000
    684       7.0218      0.00000
    685       7.0699      0.00000
    686       7.0859      0.00000
    687       7.0717      0.00000
    688       7.0882      0.00000
    689       7.0921      0.00000
    690       7.1495      0.00000
    691       7.1033      0.00000
    692       7.1133      0.00000
    693       7.3679      0.00000
    694       7.1291      0.00000
    695       7.1412      0.00000
    696       7.1740      0.00000
    697       7.3100      0.00000
    698       7.1925      0.00000
    699       7.1876      0.00000
    700       7.3095      0.00000
    701       7.5364      0.00000
    702       7.6791      0.00000
    703       7.7056      0.00000
    704       7.7133      0.00000
    705       7.6286      0.00000
    706       7.8025      0.00000
    707       7.6476      0.00000
    708       7.6395      0.00000
    709       7.7071      0.00000
    710       7.6785      0.00000
    711       7.6802      0.00000
    712       7.7074      0.00000
    713       7.7756      0.00000
    714       7.8576      0.00000
    715       7.8038      0.00000
    716       7.8068      0.00000
    717       7.7363      0.00000
    718       7.8409      0.00000
    719       7.8956      0.00000
    720       7.8621      0.00000
    721       7.9530      0.00000
    722       7.5188      0.00000
    723       7.8758      0.00000
    724       7.5539      0.00000
    725       7.5765      0.00000
    726       7.6584      0.00000
    727       7.7565      0.00000
    728       7.7613      0.00000
    729       7.6597      0.00000
    730       7.8213      0.00000
    731       7.6918      0.00000
    732       7.7203      0.00000
    733       7.7866      0.00000
    734       7.7541      0.00000
    735       7.8521      0.00000
    736       7.8062      0.00000
    737       7.7643      0.00000
    738       7.7489      0.00000
    739       7.8342      0.00000
    740       7.8877      0.00000
    741       7.8791      0.00000
    742       7.8915      0.00000
    743       7.8350      0.00000
    744       7.9441      0.00000
    745       7.9214      0.00000
    746       8.2821      0.00000
    747       8.2553      0.00000
    748       8.2632      0.00000
    749       7.8695      0.00000
    750       8.5362      0.00000
    751       8.6209      0.00000
    752       8.5974      0.00000
    753       8.6159      0.00000
    754       8.6013      0.00000
    755       8.5375      0.00000
    756       8.6327      0.00000
    757       8.6300      0.00000
    758       8.6581      0.00000
    759       8.5412      0.00000
    760       8.6597      0.00000
    761       8.4962      0.00000
    762       8.5836      0.00000
    763       8.6864      0.00000
    764       8.6829      0.00000
    765       8.5682      0.00000
    766       8.6914      0.00000
    767       8.7222      0.00000
    768       8.7239      0.00000
    769       8.7379      0.00000
    770       8.7281      0.00000
    771       8.6572      0.00000
    772       8.7212      0.00000
    773       8.7131      0.00000
    774       8.5683      0.00000
    775       8.6849      0.00000
    776       8.6348      0.00000
    777       8.6551      0.00000
    778       8.6881      0.00000
    779       8.8131      0.00000
    780       8.7067      0.00000
    781       8.7066      0.00000
    782       8.6901      0.00000
    783       8.7108      0.00000
    784       8.7249      0.00000
    785       8.7630      0.00000
    786       8.7293      0.00000
    787       8.7512      0.00000
    788       8.8176      0.00000
    789       8.7687      0.00000
    790       8.7441      0.00000
    791       8.7581      0.00000
    792       8.8510      0.00000
    793       8.8071      0.00000
    794       8.8968      0.00000
    795       8.9078      0.00000
    796       8.7851      0.00000
    797       8.8409      0.00000
    798       9.2877      0.00000
    799       9.2904      0.00000
    800       9.2949      0.00000
    801       9.3261      0.00000
    802       9.3269      0.00000
    803       9.3558      0.00000
    804       9.3768      0.00000
    805       9.3598      0.00000
    806       9.3622      0.00000
    807       9.3695      0.00000
    808       9.3613      0.00000
    809       9.3907      0.00000
    810       9.2879      0.00000
    811       9.3495      0.00000
    812       9.4370      0.00000
    813       9.4361      0.00000
    814       9.3435      0.00000
    815       9.3302      0.00000
    816       9.2583      0.00000
    817       9.4601      0.00000
    818       9.4601      0.00000
    819       9.3943      0.00000
    820       9.3065      0.00000
    821       9.2332      0.00000
    822       9.2774      0.00000
    823       9.2838      0.00000
    824       9.2889      0.00000
    825       9.3154      0.00000
    826       9.3156      0.00000
    827       9.3461      0.00000
    828       9.3514      0.00000
    829       9.3736      0.00000
    830       9.3542      0.00000
    831       9.3748      0.00000
    832       9.3759      0.00000
    833       9.3797      0.00000
    834       9.3875      0.00000
    835       9.4258      0.00000
    836       9.4238      0.00000
    837       9.4264      0.00000
    838       9.4496      0.00000
    839       9.4579      0.00000
    840       9.4433      0.00000
    841       9.4637      0.00000
    842       9.4547      0.00000
    843      10.5581      0.00000
    844      10.5854      0.00000
    845      10.6120      0.00000
    846      10.6011      0.00000
    847      10.9838      0.00000
    848      10.9824      0.00000
    849      10.6298      0.00000
    850      10.6845      0.00000
    851      10.9976      0.00000
    852      11.0174      0.00000
    853      11.0316      0.00000
    854      11.0331      0.00000
    855      11.0404      0.00000
    856      11.0415      0.00000
    857      11.0650      0.00000
    858      11.0634      0.00000
    859      11.0623      0.00000
    860      11.0780      0.00000
    861      11.0731      0.00000
    862      10.9991      0.00000
    863      11.0746      0.00000
    864      11.1732      0.00000


--------------------------------------------------------------------------------------------------------


 soft charge-density along one line, spin component           1
         0         1         2         3         4         5         6         7         8         9
 total charge-density along one line

 soft charge-density along one line, spin component           2
         0         1         2         3         4         5         6         7         8         9
 total charge-density along one line

 soft charge-density along one line, spin component           3
         0         1         2         3         4         5         6         7         8         9
 total charge-density along one line

 soft charge-density along one line, spin component           4
         0         1         2         3         4         5         6         7         8         9
 total charge-density along one line

 pseudopotential strength for first ion, spin component:           1
-16.502  -0.000  -0.000   0.000   0.002   0.000   0.000   0.000  -0.000   0.277 -16.608  -0.000  -0.000   0.000   0.002   0.000
 -0.000  -0.000 -16.502  -0.000  -0.001   0.000   0.000   0.139   0.001   0.000  -0.000  -0.000 -16.608   0.000  -0.001   0.000
  0.002  -0.000  -0.001  -0.000 -16.505   0.000   0.001   0.000  -0.000   0.000   0.002  -0.000  -0.001  -0.000 -16.611   0.000
  0.000  -0.000   0.000  -0.139   0.001  -0.000 -16.502   0.000   0.002  -0.000   0.000  -0.000   0.000  -0.133   0.001  -0.000
 -0.000  -0.277   0.001  -0.000  -0.000  -0.000   0.002   0.000 -16.505  -0.000  -0.000  -0.266   0.001  -0.000  -0.000  -0.000
-16.608   0.000  -0.000   0.000   0.002   0.000   0.000   0.000  -0.000   0.266 -16.691  -0.000   0.000   0.000   0.002   0.000
 -0.000  -0.000 -16.608  -0.000  -0.001   0.000   0.000   0.133   0.001   0.000   0.000  -0.000 -16.691  -0.000  -0.001   0.000
  0.002  -0.000  -0.001  -0.000 -16.611  -0.000   0.001   0.000  -0.000   0.000   0.002  -0.000  -0.001  -0.000 -16.694   0.000
  0.000  -0.000   0.000  -0.133   0.001  -0.000 -16.608   0.000   0.002  -0.000  -0.000  -0.000   0.000  -0.128   0.001  -0.000
 -0.000  -0.266   0.001  -0.000  -0.000  -0.000   0.002   0.000 -16.611  -0.000  -0.000  -0.255   0.001  -0.000  -0.000  -0.000
 -0.002   0.000  -0.002   0.000  -0.000  -0.000   0.002   0.000  -0.000   0.000  -0.002   0.000  -0.002   0.000  -0.000  -0.000
 -0.004   0.000  -0.004   0.000  -0.000  -0.000   0.004   0.000  -0.000   0.000  -0.004   0.000  -0.004   0.000  -0.000  -0.000
 -0.000  -0.000  -0.000  -0.000  -0.000  -0.000   0.001   0.000  -0.000   0.000  -0.000  -0.000  -0.000  -0.000  -0.000  -0.000
  0.001  -0.000   0.000  -0.000  -0.000   0.000  -0.000  -0.000  -0.000   0.000   0.001  -0.000   0.000  -0.000  -0.000   0.000
  0.000  -0.000   0.001  -0.000   0.000   0.000  -0.000   0.000  -0.000  -0.000   0.000  -0.000   0.001  -0.000   0.000   0.000
 -0.000  -0.000  -0.000  -0.000  -0.000  -0.000  -0.000   0.000  -0.000   0.000  -0.000  -0.000  -0.000  -0.000  -0.000  -0.000
 -0.000  -0.000   0.000  -0.000  -0.000   0.000  -0.000  -0.000  -0.000   0.000  -0.000  -0.000   0.000  -0.000  -0.000   0.000
  0.000  -0.000  -0.000  -0.000   0.000   0.000  -0.000   0.000  -0.000  -0.000   0.000  -0.000  -0.000  -0.000   0.000   0.000
 pseudopotential strength for first ion, spin component:           2
 -0.003   0.003   0.139   0.000  -0.000  -0.000   0.000  -0.139  -0.000  -0.000  -0.003   0.003   0.133   0.000  -0.000  -0.000
 -0.139   0.000  -0.003   0.003  -0.000  -0.240   0.000  -0.000   0.000  -0.139  -0.133   0.000  -0.003   0.003  -0.000  -0.230
  0.000   0.000   0.000   0.240  -0.003   0.003  -0.240  -0.000  -0.000   0.000   0.000   0.000   0.000   0.230  -0.003   0.003
  0.000   0.139   0.000  -0.000   0.240   0.000  -0.003   0.003  -0.139   0.000   0.000   0.133   0.000  -0.000   0.230   0.000
 -0.000  -0.000  -0.000   0.139   0.000  -0.000   0.139  -0.000  -0.003   0.003  -0.000  -0.000  -0.000   0.133   0.000  -0.000
 -0.003   0.003   0.133   0.000  -0.000  -0.000   0.000  -0.133  -0.000  -0.000  -0.003   0.003   0.128   0.000  -0.000  -0.000
 -0.133   0.000  -0.003   0.003  -0.000  -0.230   0.000  -0.000   0.000  -0.133  -0.128   0.000  -0.003   0.003  -0.000  -0.221
  0.000   0.000   0.000   0.230  -0.003   0.003  -0.230  -0.000  -0.000   0.000   0.000   0.000   0.000   0.221  -0.003   0.003
  0.000   0.133   0.000  -0.000   0.230   0.000  -0.003   0.003  -0.133   0.000   0.000   0.128   0.000  -0.000   0.221   0.000
 -0.000  -0.000  -0.000   0.133   0.000  -0.000   0.133  -0.000  -0.003   0.003  -0.000  -0.000  -0.000   0.128   0.000  -0.000
  0.000  -0.000   0.000  -0.000  -0.000  -0.000  -0.000  -0.000   0.000  -0.000   0.000  -0.000   0.000  -0.000  -0.000  -0.000
  0.000  -0.000   0.000  -0.000  -0.000  -0.000  -0.000   0.000   0.000  -0.000   0.000  -0.000   0.000  -0.000  -0.000  -0.000
 -0.000   0.000   0.000   0.000  -0.000  -0.000   0.000  -0.000   0.000  -0.000  -0.000   0.000   0.000   0.000  -0.000  -0.000
  0.000  -0.000   0.000  -0.000   0.000  -0.000  -0.000  -0.000   0.000  -0.000   0.000  -0.000   0.000  -0.000   0.000  -0.000
 -0.000   0.000   0.000  -0.000  -0.000  -0.000   0.000   0.000  -0.000  -0.000  -0.000   0.000   0.000  -0.000  -0.000  -0.000
 -0.000   0.000   0.000   0.000  -0.000  -0.000   0.000  -0.000   0.000  -0.000  -0.000   0.000   0.000   0.000  -0.000  -0.000
  0.000  -0.000   0.000  -0.000   0.000  -0.000  -0.000  -0.000   0.000   0.000   0.000  -0.000   0.000  -0.000   0.000  -0.000
 -0.000   0.000   0.000  -0.000  -0.000  -0.000   0.000   0.000  -0.000  -0.000  -0.000   0.000   0.000  -0.000  -0.000  -0.000
 pseudopotential strength for first ion, spin component:           3
 -0.003  -0.003  -0.139  -0.000   0.000  -0.000   0.000  -0.139  -0.000   0.000  -0.003  -0.003  -0.133  -0.000   0.000  -0.000
  0.139  -0.000  -0.003  -0.003   0.000  -0.240   0.000   0.000  -0.000  -0.139   0.133  -0.000  -0.003  -0.003   0.000  -0.230
 -0.000   0.000  -0.000   0.240  -0.003  -0.003   0.240  -0.000   0.000   0.000  -0.000   0.000  -0.000   0.230  -0.003  -0.003
  0.000   0.139   0.000   0.000  -0.240   0.000  -0.003  -0.003   0.139   0.000   0.000   0.133   0.000   0.000  -0.230   0.000
 -0.000   0.000   0.000   0.139  -0.000  -0.000  -0.139  -0.000  -0.003  -0.003  -0.000   0.000   0.000   0.133  -0.000  -0.000
 -0.003  -0.003  -0.133  -0.000   0.000  -0.000   0.000  -0.133  -0.000   0.000  -0.003  -0.003  -0.128  -0.000   0.000  -0.000
  0.133  -0.000  -0.003  -0.003   0.000  -0.230   0.000   0.000  -0.000  -0.133   0.128  -0.000  -0.003  -0.003   0.000  -0.221
 -0.000   0.000  -0.000   0.230  -0.003  -0.003   0.230  -0.000   0.000   0.000  -0.000   0.000  -0.000   0.221  -0.003  -0.003
  0.000   0.133   0.000   0.000  -0.230   0.000  -0.003  -0.003   0.133   0.000   0.000   0.128   0.000   0.000  -0.221   0.000
 -0.000   0.000   0.000   0.133  -0.000  -0.000  -0.133  -0.000  -0.003  -0.003  -0.000   0.000   0.000   0.128  -0.000  -0.000
  0.000  -0.000  -0.000   0.000   0.000  -0.000  -0.000  -0.000  -0.000  -0.000   0.000  -0.000  -0.000   0.000   0.000  -0.000
  0.000  -0.000  -0.000   0.000   0.000  -0.000  -0.000  -0.000  -0.000  -0.000   0.000  -0.000  -0.000   0.000   0.000  -0.000
 -0.000   0.000  -0.000   0.000   0.000   0.000   0.000   0.000  -0.000   0.000  -0.000   0.000  -0.000   0.000   0.000   0.000
  0.000   0.000  -0.000   0.000   0.000   0.000  -0.000  -0.000   0.000   0.000   0.000   0.000  -0.000   0.000   0.000   0.000
  0.000   0.000   0.000   0.000  -0.000  -0.000  -0.000   0.000  -0.000  -0.000   0.000   0.000   0.000   0.000  -0.000  -0.000
 -0.000   0.000  -0.000   0.000   0.000   0.000   0.000   0.000   0.000   0.000  -0.000   0.000  -0.000   0.000   0.000   0.000
  0.000   0.000  -0.000   0.000   0.000   0.000  -0.000  -0.000   0.000   0.000   0.000   0.000  -0.000   0.000   0.000   0.000
  0.000   0.000   0.000   0.000  -0.000  -0.000  -0.000   0.000  -0.000  -0.000   0.000   0.000   0.000   0.000  -0.000  -0.000
 pseudopotential strength for first ion, spin component:           4
-16.496  -0.000   0.000  -0.000   0.002  -0.000  -0.000   0.000  -0.000  -0.277 -16.602  -0.000   0.000  -0.000   0.002  -0.000
  0.000   0.000 -16.496  -0.000  -0.001   0.000  -0.000  -0.139   0.002  -0.000   0.000   0.000 -16.602  -0.000  -0.001   0.000
  0.002   0.000  -0.001  -0.000 -16.500   0.000   0.001  -0.000  -0.000  -0.000   0.002   0.000  -0.001  -0.000 -16.605  -0.000
 -0.000  -0.000  -0.000   0.139   0.001   0.000 -16.496   0.000   0.001   0.000  -0.000  -0.000  -0.000   0.133   0.001   0.000
 -0.000   0.277   0.002   0.000  -0.000   0.000   0.001  -0.000 -16.500  -0.000  -0.000   0.266   0.001   0.000  -0.000   0.000
-16.602   0.000   0.000  -0.000   0.002  -0.000  -0.000   0.000  -0.000  -0.266 -16.686  -0.000   0.000  -0.000   0.002  -0.000
  0.000   0.000 -16.602   0.000  -0.001   0.000  -0.000  -0.133   0.001  -0.000   0.000   0.000 -16.685  -0.000  -0.001   0.000
  0.002   0.000  -0.001  -0.000 -16.605   0.000   0.001  -0.000  -0.000  -0.000   0.002   0.000  -0.001  -0.000 -16.689   0.000
 -0.000  -0.000  -0.000   0.133   0.001   0.000 -16.602  -0.000   0.001   0.000  -0.000  -0.000  -0.000   0.128   0.001   0.000
 -0.000   0.266   0.001   0.000  -0.000   0.000   0.001  -0.000 -16.606  -0.000  -0.000   0.255   0.001   0.000  -0.000   0.000
 -0.002   0.000  -0.002  -0.000  -0.000   0.000   0.002  -0.000  -0.000  -0.000  -0.002   0.000  -0.002  -0.000  -0.000   0.000
 -0.004   0.000  -0.004  -0.000  -0.000   0.000   0.004  -0.000  -0.000  -0.000  -0.004   0.000  -0.004  -0.000  -0.000   0.000
 -0.000   0.000  -0.000   0.000  -0.000  -0.000   0.001  -0.000  -0.000   0.000  -0.000   0.000  -0.000   0.000  -0.000  -0.000
  0.001   0.000   0.000   0.000  -0.000   0.000  -0.000   0.000   0.000  -0.000   0.001   0.000   0.000   0.000  -0.000   0.000
  0.000  -0.000   0.001   0.000   0.000   0.000  -0.000  -0.000  -0.000   0.000   0.000  -0.000   0.001   0.000   0.000   0.000
 -0.000   0.000  -0.000   0.000  -0.000  -0.000  -0.000  -0.000  -0.000   0.000  -0.000   0.000  -0.000   0.000  -0.000  -0.000
 -0.000   0.000   0.000   0.000  -0.000   0.000  -0.000   0.000   0.000  -0.000  -0.000   0.000   0.000   0.000  -0.000   0.000
  0.000  -0.000  -0.000   0.000   0.000   0.000  -0.000  -0.000  -0.000   0.000   0.000  -0.000  -0.000   0.000   0.000   0.000
 total augmentation occupancy for first ion, spin component:           1
  4.764   0.247   0.052  -0.244  -0.000  -2.438  -0.271  -0.065   0.269   0.000   0.437  -0.150   0.022   0.477  -0.022  -0.010
  0.247   4.764  -0.026  -0.245   0.045  -0.271  -2.438   0.033   0.270  -0.056   0.436  -0.149   0.022  -0.022   0.477  -0.010
  0.052  -0.026   3.082   0.026  -0.001  -0.065   0.032  -0.812  -0.032   0.001  -0.001   0.000   0.007   0.013  -0.007  -0.005
 -0.244  -0.245   0.026   4.763   0.045   0.269   0.269  -0.033  -2.437  -0.056  -0.437   0.150   0.477   0.022   0.022  -0.102
 -0.000   0.045  -0.001   0.045   3.081   0.000  -0.056   0.001  -0.056  -0.811  -0.001   0.000   0.012  -0.000   0.012  -0.008
 -2.438  -0.271  -0.065   0.269   0.000   2.119   0.293   0.077  -0.292   0.000  -0.440   0.162  -0.017  -0.447   0.017   0.005
 -0.271  -2.438   0.032   0.269  -0.056   0.293   2.119  -0.039  -0.292   0.067  -0.440   0.162  -0.017   0.017  -0.447   0.005
 -0.065   0.033  -0.812  -0.033   0.001   0.077  -0.039   0.547   0.039  -0.000   0.000  -0.000  -0.004  -0.007   0.004   0.001
  0.269   0.270  -0.032  -2.437  -0.056  -0.292  -0.292   0.039   2.119   0.067   0.441  -0.162  -0.447  -0.017  -0.017   0.102
  0.000  -0.056   0.001  -0.056  -0.811   0.000   0.067  -0.000   0.067   0.547  -0.000   0.000  -0.006   0.000  -0.006   0.003
  0.437   0.436  -0.001  -0.437  -0.001  -0.440  -0.440   0.000   0.441  -0.000   4.959  -1.842   0.002  -0.002  -0.002  -0.004
 -0.150  -0.149   0.000   0.150   0.000   0.162   0.162  -0.000  -0.162   0.000  -1.842   0.704  -0.006   0.006   0.006   0.003
  0.022   0.022   0.007   0.477   0.012  -0.017  -0.017  -0.004  -0.447  -0.006   0.002  -0.006   0.220  -0.028  -0.028  -0.052
  0.477  -0.022   0.013   0.022  -0.000  -0.447   0.017  -0.007  -0.017   0.000  -0.002   0.006  -0.028   0.220   0.028   0.007
 -0.022   0.477  -0.007   0.022   0.012   0.017  -0.447   0.004  -0.017  -0.006  -0.002   0.006  -0.028   0.028   0.220   0.007
 -0.010  -0.010  -0.005  -0.102  -0.008   0.005   0.005   0.001   0.102   0.003  -0.004   0.003  -0.052   0.007   0.007   0.014
 -0.102   0.010  -0.009  -0.010   0.000   0.102  -0.005   0.003   0.005  -0.000   0.004  -0.003   0.007  -0.052  -0.007  -0.002
  0.010  -0.102   0.005  -0.010  -0.008  -0.005   0.102  -0.001   0.005   0.003   0.004  -0.003   0.007  -0.007  -0.052  -0.002
 total augmentation occupancy for first ion, spin component:           2
  0.069   0.014  -0.001  -0.014   0.002  -0.047  -0.012   0.001   0.012  -0.001   0.001  -0.002   0.000   0.001  -0.001  -0.000
  0.014   0.066   0.001  -0.014  -0.000  -0.012  -0.046  -0.001   0.012   0.000   0.000  -0.001   0.000  -0.000   0.001  -0.000
 -0.001   0.001   0.037  -0.003  -0.000   0.001  -0.001  -0.019   0.001   0.000  -0.001   0.000   0.000  -0.000   0.000  -0.000
 -0.014  -0.014  -0.003   0.070  -0.001   0.012   0.012   0.002  -0.048   0.001  -0.001   0.002   0.001   0.000   0.000  -0.001
  0.002  -0.000  -0.000  -0.001   0.037  -0.001   0.000   0.000   0.001  -0.019  -0.000   0.000  -0.000  -0.000  -0.000   0.000
 -0.047  -0.012   0.001   0.012  -0.001   0.026   0.010  -0.001  -0.010  -0.000   0.000   0.001  -0.000  -0.001   0.000   0.000
 -0.012  -0.046  -0.001   0.012   0.000   0.010   0.026   0.001  -0.011  -0.000   0.000   0.001  -0.000   0.000  -0.001  -0.000
  0.001  -0.001  -0.019   0.002   0.000  -0.001   0.001   0.001  -0.000  -0.000   0.001  -0.000  -0.000   0.000  -0.000   0.000
  0.012   0.012   0.001  -0.048   0.001  -0.010  -0.011  -0.000   0.028  -0.001   0.000  -0.001  -0.001  -0.000  -0.000   0.001
 -0.001   0.000   0.000   0.001  -0.019  -0.000  -0.000  -0.000  -0.001   0.001   0.000  -0.000   0.000   0.000   0.000  -0.000
  0.001   0.000  -0.001  -0.001  -0.000   0.000   0.000   0.001   0.000   0.000  -0.021   0.002  -0.001   0.001   0.001   0.000
 -0.002  -0.001   0.000   0.002   0.000   0.001   0.001  -0.000  -0.001  -0.000   0.002   0.001   0.000  -0.000  -0.000  -0.000
  0.000   0.000   0.000   0.001  -0.000  -0.000  -0.000  -0.000  -0.001   0.000  -0.001   0.000  -0.002  -0.000  -0.000  -0.000
  0.001  -0.000  -0.000   0.000  -0.000  -0.001   0.000   0.000  -0.000   0.000   0.001  -0.000  -0.000  -0.002   0.000  -0.000
 -0.001   0.001   0.000   0.000  -0.000   0.000  -0.001  -0.000  -0.000   0.000   0.001  -0.000  -0.000   0.000  -0.002   0.000
 -0.000  -0.000  -0.000  -0.001   0.000   0.000  -0.000   0.000   0.001  -0.000   0.000  -0.000  -0.000  -0.000   0.000   0.000
 -0.001   0.000   0.000  -0.000   0.000   0.001  -0.000  -0.000   0.000  -0.000  -0.000   0.000  -0.000  -0.000   0.000   0.000
  0.000  -0.001   0.000  -0.000   0.000  -0.000   0.001  -0.000   0.000   0.000  -0.000   0.000  -0.000  -0.000  -0.000   0.000
 total augmentation occupancy for first ion, spin component:           3
  0.070   0.014  -0.002  -0.013  -0.003  -0.048  -0.013   0.001   0.011   0.002   0.002  -0.002   0.000   0.001  -0.000  -0.000
  0.014   0.070  -0.002  -0.013  -0.003  -0.013  -0.049   0.001   0.011   0.002   0.001  -0.002   0.000  -0.000   0.001  -0.000
 -0.002  -0.002   0.037  -0.001   0.000   0.002   0.001  -0.019   0.001  -0.000   0.000  -0.000  -0.000  -0.000   0.000   0.000
 -0.013  -0.013  -0.001   0.064  -0.001   0.011   0.011   0.001  -0.044   0.001  -0.000   0.001   0.001   0.000   0.000  -0.001
 -0.003  -0.003   0.000  -0.001   0.037   0.002   0.002  -0.000   0.001  -0.019   0.001  -0.000  -0.000   0.001   0.000   0.000
 -0.048  -0.013   0.002   0.011   0.002   0.028   0.011  -0.001  -0.010  -0.000  -0.001   0.001  -0.000  -0.001   0.000   0.000
 -0.013  -0.049   0.001   0.011   0.002   0.011   0.028   0.000  -0.010  -0.001  -0.001   0.001  -0.000   0.000  -0.001   0.000
  0.001   0.001  -0.019   0.001  -0.000  -0.001   0.000   0.001  -0.000   0.000  -0.000   0.000   0.000   0.000  -0.000  -0.000
  0.011   0.011   0.001  -0.044   0.001  -0.010  -0.010  -0.000   0.025  -0.000  -0.001  -0.000  -0.001  -0.000  -0.000   0.001
  0.002   0.002  -0.000   0.001  -0.019  -0.000  -0.001   0.000  -0.000   0.001  -0.001   0.000   0.000  -0.000   0.000  -0.000
  0.002   0.001   0.000  -0.000   0.001  -0.001  -0.001  -0.000  -0.001  -0.001  -0.021   0.003  -0.001   0.001   0.001   0.000
 -0.002  -0.002  -0.000   0.001  -0.000   0.001   0.001   0.000  -0.000   0.000   0.003   0.001   0.000  -0.000  -0.000  -0.000
  0.000   0.000  -0.000   0.001  -0.000  -0.000  -0.000   0.000  -0.001   0.000  -0.001   0.000  -0.002  -0.000  -0.000  -0.000
  0.001  -0.000  -0.000   0.000   0.001  -0.001   0.000   0.000  -0.000  -0.000   0.001  -0.000  -0.000  -0.002   0.000  -0.000
 -0.000   0.001   0.000   0.000   0.000   0.000  -0.001  -0.000  -0.000   0.000   0.001  -0.000  -0.000   0.000  -0.002  -0.000
 -0.000  -0.000   0.000  -0.001   0.000   0.000   0.000  -0.000   0.001  -0.000   0.000  -0.000  -0.000  -0.000  -0.000   0.000
 -0.001   0.000  -0.000  -0.000  -0.000   0.001  -0.000   0.000   0.000   0.000  -0.000   0.000   0.000  -0.000  -0.000   0.000
  0.000  -0.001  -0.000  -0.000  -0.000  -0.000   0.001   0.000   0.000   0.000  -0.000   0.000   0.000  -0.000  -0.000   0.000
 total augmentation occupancy for first ion, spin component:           4
  0.066   0.014  -0.000  -0.014   0.001  -0.046  -0.012   0.001   0.012  -0.001   0.001  -0.001   0.000   0.001  -0.000  -0.000
  0.014   0.069   0.002  -0.014   0.000  -0.012  -0.047  -0.001   0.012   0.000   0.001  -0.002   0.000  -0.000   0.001  -0.000
 -0.000   0.002   0.037   0.001  -0.000   0.000  -0.001  -0.019   0.000   0.000   0.000  -0.000  -0.000  -0.000  -0.000   0.000
 -0.014  -0.014   0.001   0.070  -0.003   0.012   0.012   0.000  -0.048   0.002  -0.001   0.002   0.001   0.000   0.000  -0.001
  0.001   0.000  -0.000  -0.003   0.037  -0.000   0.000   0.000   0.002  -0.019  -0.001   0.000   0.000  -0.000  -0.001  -0.000
 -0.046  -0.012   0.000   0.012  -0.000   0.026   0.010  -0.001  -0.011   0.001   0.000   0.001  -0.000  -0.001   0.000  -0.000
 -0.012  -0.047  -0.001   0.012   0.000   0.010   0.026   0.000  -0.010  -0.001   0.000   0.001  -0.000   0.000  -0.001   0.000
  0.001  -0.001  -0.019   0.000   0.000  -0.001   0.000   0.001  -0.001  -0.000  -0.000  -0.000   0.000   0.000   0.000  -0.000
  0.012   0.012   0.000  -0.048   0.002  -0.011  -0.010  -0.001   0.028  -0.001   0.000  -0.001  -0.001  -0.000  -0.000   0.001
 -0.001   0.000   0.000   0.002  -0.019   0.001  -0.001  -0.000  -0.001   0.001   0.000  -0.000   0.000   0.000   0.000   0.000
  0.001   0.001   0.000  -0.001  -0.001   0.000   0.000  -0.000   0.000   0.000  -0.021   0.002  -0.001   0.001   0.001   0.000
 -0.001  -0.002  -0.000   0.002   0.000   0.001   0.001  -0.000  -0.001  -0.000   0.002   0.001   0.000  -0.000  -0.000  -0.000
  0.000   0.000  -0.000   0.001   0.000  -0.000  -0.000   0.000  -0.001   0.000  -0.001   0.000  -0.002  -0.000  -0.000  -0.000
  0.001  -0.000  -0.000   0.000  -0.000  -0.001   0.000   0.000  -0.000   0.000   0.001  -0.000  -0.000  -0.002   0.000   0.000
 -0.000   0.001  -0.000   0.000  -0.001   0.000  -0.001   0.000  -0.000   0.000   0.001  -0.000  -0.000   0.000  -0.002   0.000
 -0.000  -0.000   0.000  -0.001  -0.000  -0.000   0.000  -0.000   0.001   0.000   0.000  -0.000  -0.000   0.000   0.000   0.000
 -0.001   0.000   0.000  -0.000   0.000   0.001  -0.000   0.000   0.000  -0.000  -0.000   0.000  -0.000  -0.000  -0.000   0.000
  0.000  -0.001   0.000  -0.000   0.000  -0.000   0.001  -0.000   0.000  -0.000  -0.000   0.000  -0.000   0.000  -0.000   0.000


------------------------ aborting loop EDIFF was not reached (unconverged)  ----------------------------


 -----------------------------------------------------------------------------
|                                                                             |
|           W    W    AA    RRRRR   N    N  II  N    N   GGGG   !!!           |
|           W    W   A  A   R    R  NN   N  II  NN   N  G    G  !!!           |
|           W    W  A    A  R    R  N N  N  II  N N  N  G       !!!           |
|           W WW W  AAAAAA  RRRRR   N  N N  II  N  N N  G  GGG   !            |
|           WW  WW  A    A  R   R   N   NN  II  N   NN  G    G                |
|           W    W  A    A  R    R  N    N  II  N    N   GGGG   !!!           |
|                                                                             |
|     The electronic self-consistency was not achieved in the given           |
|     number of steps (NELM). The forces and other quantities evaluated       |
|     might not be reliable so examine the results carefully. If you find     |
|     spurious results, we suggest increasing NELM, if you were close to      |
|     convergence or switching to a different ALGO or adjusting the           |
|     density mixing parameters otherwise.                                    |
|                                                                             |
 -----------------------------------------------------------------------------




 total charge

# of ion       s       p       d       tot
------------------------------------------
    1        0.408   0.282   9.583  10.274
    2        0.417   0.295   9.582  10.294
    3        0.417   0.295   9.582  10.294
    4        0.416   0.296   9.583  10.294
    5        0.417   0.295   9.582  10.294
    6        0.416   0.296   9.583  10.294
    7        0.416   0.296   9.583  10.294
    8        0.414   0.293   9.583  10.290
    9        0.417   0.295   9.582  10.294
   10        0.408   0.282   9.583  10.274
   11        0.416   0.296   9.583  10.294
   12        0.417   0.295   9.582  10.294
   13        0.416   0.296   9.583  10.294
   14        0.417   0.295   9.582  10.294
   15        0.414   0.293   9.583  10.290
   16        0.416   0.296   9.583  10.294
   17        0.416   0.296   9.583  10.294
   18        0.417   0.295   9.582  10.294
   19        0.414   0.293   9.583  10.290
   20        0.416   0.296   9.583  10.294
   21        0.417   0.295   9.582  10.294
   22        0.408   0.282   9.584  10.274
   23        0.416   0.296   9.583  10.294
   24        0.417   0.295   9.582  10.294
   25        0.417   0.295   9.582  10.294
   26        0.416   0.296   9.583  10.294
   27        0.416   0.296   9.583  10.294
   28        0.414   0.293   9.583  10.290
   29        0.408   0.282   9.584  10.274
   30        0.417   0.295   9.582  10.294
   31        0.417   0.295   9.582  10.294
   32        0.416   0.296   9.583  10.294
   33        0.724   0.155   9.550  10.429
   34        1.284   2.227   0.017   3.527
   35        1.295   2.200   0.017   3.512
   36        1.284   2.225   0.016   3.525
   37        1.284   2.227   0.017   3.527
   38        1.284   2.227   0.017   3.527
   39        1.295   2.200   0.017   3.512
   40        1.284   2.225   0.016   3.525
   41        1.284   2.227   0.017   3.527
   42        1.284   2.223   0.016   3.523
   43        1.284   2.223   0.017   3.524
   44        1.284   2.224   0.017   3.524
   45        1.284   2.223   0.016   3.523
   46        1.284   2.223   0.017   3.524
   47        1.284   2.223   0.016   3.523
   48        1.284   2.223   0.016   3.523
   49        1.284   2.223   0.017   3.524
   50        1.284   2.227   0.017   3.527
   51        1.284   2.227   0.017   3.527
   52        1.284   2.225   0.016   3.525
   53        1.284   2.225   0.016   3.525
   54        1.295   2.200   0.017   3.512
   55        1.295   2.200   0.017   3.512
   56        1.284   2.227   0.017   3.527
   57        1.284   2.227   0.017   3.527
   58        1.284   2.225   0.016   3.525
   59        1.284   2.227   0.017   3.527
   60        1.284   2.225   0.016   3.525
   61        1.284   2.227   0.017   3.527
   62        1.284   2.227   0.017   3.527
   63        1.295   2.200   0.017   3.512
   64        1.284   2.227   0.017   3.527
   65        1.295   2.200   0.017   3.512
--------------------------------------------------
tot         55.147  80.595 316.730 452.471



 magnetization (x)

# of ion       s       p       d       tot
------------------------------------------
    1       -0.005  -0.004   0.002  -0.006
    2       -0.005  -0.003   0.002  -0.006
    3       -0.005  -0.003   0.002  -0.006
    4       -0.004  -0.003   0.002  -0.006
    5       -0.005  -0.003   0.002  -0.006
    6       -0.004  -0.003   0.002  -0.006
    7       -0.004  -0.003   0.002  -0.006
    8       -0.005  -0.003   0.002  -0.006
    9       -0.005  -0.003   0.002  -0.006
   10       -0.005  -0.004   0.002  -0.006
   11       -0.004  -0.003   0.002  -0.006
   12       -0.005  -0.003   0.002  -0.006
   13       -0.004  -0.003   0.002  -0.006
   14       -0.005  -0.003   0.002  -0.006
   15       -0.005  -0.003   0.002  -0.006
   16       -0.004  -0.003   0.002  -0.006
   17       -0.004  -0.003   0.002  -0.006
   18       -0.005  -0.003   0.002  -0.006
   19       -0.005  -0.003   0.002  -0.006
   20       -0.004  -0.003   0.002  -0.006
   21       -0.005  -0.003   0.002  -0.006
   22       -0.005  -0.004   0.002  -0.006
   23       -0.004  -0.003   0.002  -0.006
   24       -0.005  -0.003   0.002  -0.006
   25       -0.005  -0.003   0.002  -0.006
   26       -0.004  -0.003   0.002  -0.006
   27       -0.004  -0.003   0.002  -0.006
   28       -0.005  -0.003   0.002  -0.006
   29       -0.005  -0.004   0.002  -0.006
   30       -0.005  -0.003   0.002  -0.006
   31       -0.005  -0.003   0.002  -0.006
   32       -0.004  -0.003   0.002  -0.006
   33        0.021  -0.003   0.002   0.019
   34        0.008   0.023  -0.000   0.030
   35        0.008   0.026  -0.000   0.033
   36        0.008   0.022  -0.000   0.030
   37        0.008   0.023  -0.000   0.030
   38        0.008   0.023  -0.000   0.030
   39        0.008   0.026  -0.000   0.033
   40        0.008   0.022  -0.000   0.030
   41        0.008   0.023  -0.000   0.030
   42        0.008   0.023  -0.000   0.030
   43        0.008   0.022  -0.000   0.030
   44        0.008   0.023  -0.000   0.030
   45        0.008   0.023  -0.000   0.030
   46        0.008   0.023  -0.000   0.030
   47        0.008   0.023  -0.000   0.030
   48        0.008   0.022  -0.000   0.030
   49        0.008   0.023  -0.000   0.030
   50        0.008   0.023  -0.000   0.030
   51        0.008   0.023  -0.000   0.030
   52        0.008   0.022  -0.000   0.030
   53        0.008   0.022  -0.000   0.030
   54        0.008   0.026  -0.000   0.033
   55        0.008   0.026  -0.000   0.033
   56        0.008   0.023  -0.000   0.030
   57        0.008   0.023  -0.000   0.030
   58        0.008   0.022  -0.000   0.030
   59        0.008   0.023  -0.000   0.030
   60        0.008   0.022  -0.000   0.030
   61        0.008   0.023  -0.000   0.030
   62        0.008   0.023  -0.000   0.030
   63        0.008   0.026  -0.000   0.033
   64        0.008   0.023  -0.000   0.030
   65        0.008   0.026  -0.000   0.033
--------------------------------------------------
tot          0.123   0.629   0.061   0.812



 magnetization (y)

# of ion       s       p       d       tot
------------------------------------------
    1       -0.005  -0.004   0.002  -0.006
    2       -0.005  -0.003   0.002  -0.006
    3       -0.005  -0.003   0.002  -0.006
    4       -0.004  -0.003   0.002  -0.006
    5       -0.005  -0.003   0.002  -0.006
    6       -0.004  -0.003   0.002  -0.006
    7       -0.004  -0.003   0.002  -0.006
    8       -0.005  -0.003   0.002  -0.006
    9       -0.005  -0.003   0.002  -0.006
   10       -0.005  -0.004   0.002  -0.006
   11       -0.004  -0.003   0.002  -0.006
   12       -0.005  -0.003   0.002  -0.006
   13       -0.004  -0.003   0.002  -0.006
   14       -0.005  -0.003   0.002  -0.006
   15       -0.005  -0.003   0.002  -0.006
   16       -0.004  -0.003   0.002  -0.006
   17       -0.004  -0.003   0.002  -0.006
   18       -0.005  -0.003   0.002  -0.006
   19       -0.005  -0.003   0.002  -0.006
   20       -0.004  -0.003   0.002  -0.006
   21       -0.005  -0.003   0.002  -0.006
   22       -0.005  -0.004   0.002  -0.006
   23       -0.004  -0.003   0.002  -0.006
   24       -0.005  -0.003   0.002  -0.006
   25       -0.005  -0.003   0.002  -0.006
   26       -0.004  -0.003   0.002  -0.006
   27       -0.004  -0.003   0.002  -0.006
   28       -0.005  -0.003   0.002  -0.006
   29       -0.005  -0.004   0.002  -0.006
   30       -0.005  -0.003   0.002  -0.006
   31       -0.005  -0.003   0.002  -0.006
   32       -0.004  -0.003   0.002  -0.006
   33        0.021  -0.003   0.002   0.019
   34        0.008   0.023  -0.000   0.030
   35        0.008   0.026  -0.000   0.033
   36        0.008   0.022  -0.000   0.030
   37        0.008   0.023  -0.000   0.030
   38        0.008   0.023  -0.000   0.030
   39        0.008   0.026  -0.000   0.033
   40        0.008   0.022  -0.000   0.030
   41        0.008   0.023  -0.000   0.030
   42        0.008   0.023  -0.000   0.030
   43        0.008   0.022  -0.000   0.030
   44        0.008   0.023  -0.000   0.030
   45        0.008   0.023  -0.000   0.030
   46        0.008   0.023  -0.000   0.030
   47        0.008   0.023  -0.000   0.030
   48        0.008   0.022  -0.000   0.030
   49        0.008   0.023  -0.000   0.030
   50        0.008   0.023  -0.000   0.030
   51        0.008   0.023  -0.000   0.030
   52        0.008   0.022  -0.000   0.030
   53        0.008   0.022  -0.000   0.030
   54        0.008   0.026  -0.000   0.033
   55        0.008   0.026  -0.000   0.033
   56        0.008   0.023  -0.000   0.030
   57        0.008   0.023  -0.000   0.030
   58        0.008   0.022  -0.000   0.030
   59        0.008   0.023  -0.000   0.030
   60        0.008   0.022  -0.000   0.030
   61        0.008   0.023  -0.000   0.030
   62        0.008   0.023  -0.000   0.030
   63        0.008   0.026  -0.000   0.033
   64        0.008   0.023  -0.000   0.030
   65        0.008   0.026  -0.000   0.033
--------------------------------------------------
tot          0.123   0.629   0.061   0.812



 magnetization (z)

# of ion       s       p       d       tot
------------------------------------------
    1       -0.005  -0.004   0.002  -0.006
    2       -0.005  -0.003   0.002  -0.006
    3       -0.005  -0.003   0.002  -0.006
    4       -0.004  -0.003   0.002  -0.006
    5       -0.005  -0.003   0.002  -0.006
    6       -0.004  -0.003   0.002  -0.006
    7       -0.004  -0.003   0.002  -0.006
    8       -0.005  -0.003   0.002  -0.006
    9       -0.005  -0.003   0.002  -0.006
   10       -0.005  -0.004   0.002  -0.006
   11       -0.004  -0.003   0.002  -0.006
   12       -0.005  -0.003   0.002  -0.006
   13       -0.004  -0.003   0.002  -0.006
   14       -0.005  -0.003   0.002  -0.006
   15       -0.005  -0.003   0.002  -0.006
   16       -0.004  -0.003   0.002  -0.006
   17       -0.004  -0.003   0.002  -0.006
   18       -0.005  -0.003   0.002  -0.006
   19       -0.005  -0.003   0.002  -0.006
   20       -0.004  -0.003   0.002  -0.006
   21       -0.005  -0.003   0.002  -0.006
   22       -0.005  -0.004   0.002  -0.006
   23       -0.004  -0.003   0.002  -0.006
   24       -0.005  -0.003   0.002  -0.006
   25       -0.005  -0.003   0.002  -0.006
   26       -0.004  -0.003   0.002  -0.006
   27       -0.004  -0.003   0.002  -0.006
   28       -0.005  -0.003   0.002  -0.006
   29       -0.005  -0.004   0.002  -0.006
   30       -0.005  -0.003   0.002  -0.006
   31       -0.005  -0.003   0.002  -0.006
   32       -0.004  -0.003   0.002  -0.006
   33        0.021  -0.003   0.002   0.019
   34        0.008   0.023  -0.000   0.030
   35        0.008   0.026  -0.000   0.033
   36        0.008   0.022  -0.000   0.030
   37        0.008   0.023  -0.000   0.030
   38        0.008   0.023  -0.000   0.030
   39        0.008   0.026  -0.000   0.033
   40        0.008   0.022  -0.000   0.030
   41        0.008   0.023  -0.000   0.030
   42        0.008   0.023  -0.000   0.030
   43        0.008   0.023  -0.000   0.030
   44        0.008   0.023  -0.000   0.030
   45        0.008   0.022  -0.000   0.030
   46        0.008   0.023  -0.000   0.030
   47        0.008   0.023  -0.000   0.030
   48        0.008   0.022  -0.000   0.030
   49        0.008   0.023  -0.000   0.030
   50        0.008   0.023  -0.000   0.030
   51        0.008   0.023  -0.000   0.030
   52        0.008   0.022  -0.000   0.030
   53        0.008   0.022  -0.000   0.030
   54        0.008   0.026  -0.000   0.033
   55        0.008   0.026  -0.000   0.033
   56        0.008   0.023  -0.000   0.030
   57        0.008   0.023  -0.000   0.030
   58        0.008   0.022  -0.000   0.030
   59        0.008   0.023  -0.000   0.030
   60        0.008   0.022  -0.000   0.030
   61        0.008   0.023  -0.000   0.030
   62        0.008   0.023  -0.000   0.030
   63        0.008   0.026  -0.000   0.033
   64        0.008   0.023  -0.000   0.030
   65        0.008   0.026  -0.000   0.033
--------------------------------------------------
tot          0.123   0.629   0.061   0.812

    FORLOC:  cpu time      0.0020: real time      0.0020
    FORHF :  cpu time    150.8735: real time    152.3707
    FORNL :  cpu time      2.7476: real time      2.7723
    STRESS:  cpu time      7.0594: real time      7.1267
    FORCOR:  cpu time      0.2829: real time      0.2856
    OFIELD:  cpu time      0.0093: real time      0.0098

  FORCE on cell =-STRESS in cart. coord.  units (eV):
  Direction    XX          YY          ZZ          XY          YZ          ZX
  --------------------------------------------------------------------------------------
  Alpha Z  1642.45119  1642.45119  1642.45119
  Ewald  -11313.45310-11313.46250-11313.46200    -0.00065     0.00037     0.00096
  Hartree  5670.49199  5670.47810  5670.48569    -0.01328    -0.01920    -0.00817
  E(xc)   -2177.76252 -2177.76162 -2177.76193    -0.00021    -0.00045    -0.00040
  Local    -659.73406  -659.68765  -659.70102     0.03256     0.03653     0.02558
  n-local  2104.26468  2104.24862  2104.25404     0.01869     0.02260     0.02089
  augment    -3.67243    -3.67026    -3.66857     0.00402     0.00295     0.00389
  Kinetic  6667.32891  6667.30446  6667.32161     0.00287     0.00912     0.01800
  Fock    -1838.92350 -1838.92470 -1838.92548    -0.00840    -0.00779    -0.00703
  -------------------------------------------------------------------------------------
  Total      90.99116    90.97564    90.99352     0.03561     0.04413     0.05373
  in kB      65.04480    65.03370    65.04649     0.02546     0.03155     0.03841
  external pressure =       65.04 kB  Pullay stress =        0.00 kB


 VOLUME and BASIS-vectors are now :
 -----------------------------------------------------------------------------
  energy-cutoff  :      450.00
  volume of cell :     2241.29
      direct lattice vectors                 reciprocal lattice vectors
    13.086768000  0.000000000  0.000000000     0.076413061  0.000000000  0.000000000
     0.000000000 13.086768000  0.000000000     0.000000000  0.076413061  0.000000000
     0.000000000  0.000000000 13.086768000     0.000000000  0.000000000  0.076413061

  length of vectors
    13.086768000 13.086768000 13.086768000     0.076413061  0.076413061  0.076413061


 FORCES acting on ions:
    Electron-Ion                     Ewald-Force                    Non-Local-Force
 -----------------------------------------------------------------------------------------------
   -.106E+03 0.106E+03 -.106E+03   0.105E+03 -.105E+03 0.105E+03   -.258E+00 0.254E+00 -.259E+00
   -.145E+02 0.145E+02 0.224E+02   0.142E+02 -.142E+02 -.220E+02   0.340E+00 -.340E+00 -.838E-01
   -.145E+02 -.224E+02 -.145E+02   0.142E+02 0.220E+02 0.142E+02   0.338E+00 0.832E-01 0.337E+00
   -.803E+01 -.716E+01 0.716E+01   0.767E+01 0.717E+01 -.717E+01   0.248E+00 -.156E+00 0.156E+00
   0.224E+02 0.145E+02 -.145E+02   -.220E+02 -.142E+02 0.142E+02   -.855E-01 -.342E+00 0.338E+00
   0.716E+01 0.803E+01 0.716E+01   -.716E+01 -.767E+01 -.716E+01   0.154E+00 -.250E+00 0.153E+00
   0.716E+01 -.716E+01 -.804E+01   -.717E+01 0.716E+01 0.767E+01   0.155E+00 -.154E+00 0.251E+00
   0.678E+01 -.679E+01 0.678E+01   -.657E+01 0.657E+01 -.657E+01   -.706E-01 0.719E-01 -.693E-01
   -.145E+02 -.145E+02 -.224E+02   0.142E+02 0.142E+02 0.220E+02   0.338E+00 0.337E+00 0.836E-01
   -.106E+03 -.106E+03 0.106E+03   0.105E+03 0.105E+03 -.105E+03   -.258E+00 -.258E+00 0.257E+00
   -.804E+01 0.716E+01 -.716E+01   0.767E+01 -.717E+01 0.717E+01   0.251E+00 0.157E+00 -.157E+00
   -.145E+02 0.224E+02 0.145E+02   0.142E+02 -.220E+02 -.142E+02   0.337E+00 -.858E-01 -.340E+00
   0.715E+01 -.804E+01 -.716E+01   -.717E+01 0.767E+01 0.716E+01   0.157E+00 0.249E+00 -.153E+00
   0.224E+02 -.145E+02 0.145E+02   -.220E+02 0.142E+02 -.142E+02   -.857E-01 0.338E+00 -.340E+00
   0.678E+01 0.678E+01 -.679E+01   -.657E+01 -.657E+01 0.657E+01   -.703E-01 -.718E-01 0.716E-01
   0.716E+01 0.716E+01 0.803E+01   -.716E+01 -.716E+01 -.767E+01   0.156E+00 0.154E+00 -.249E+00
   -.716E+01 0.804E+01 -.716E+01   0.716E+01 -.767E+01 0.716E+01   -.155E+00 -.251E+00 -.155E+00
   -.224E+02 0.145E+02 0.145E+02   0.220E+02 -.142E+02 -.142E+02   0.841E-01 -.338E+00 -.339E+00
   -.678E+01 -.678E+01 -.679E+01   0.657E+01 0.657E+01 0.657E+01   0.703E-01 0.701E-01 0.724E-01
   -.716E+01 -.716E+01 0.804E+01   0.717E+01 0.716E+01 -.767E+01   -.156E+00 -.155E+00 -.251E+00
   0.145E+02 0.145E+02 -.224E+02   -.142E+02 -.142E+02 0.220E+02   -.338E+00 -.341E+00 0.843E-01
   0.106E+03 0.106E+03 0.106E+03   -.105E+03 -.105E+03 -.105E+03   0.259E+00 0.258E+00 0.256E+00
   0.803E+01 -.716E+01 -.716E+01   -.766E+01 0.717E+01 0.717E+01   -.247E+00 -.156E+00 -.154E+00
   0.145E+02 -.224E+02 0.145E+02   -.142E+02 0.220E+02 -.142E+02   -.342E+00 0.814E-01 -.338E+00
   -.224E+02 -.145E+02 -.145E+02   0.220E+02 0.142E+02 0.142E+02   0.839E-01 0.339E+00 0.341E+00
   -.716E+01 -.803E+01 0.715E+01   0.716E+01 0.767E+01 -.717E+01   -.155E+00 0.249E+00 0.157E+00
   -.716E+01 0.716E+01 -.804E+01   0.716E+01 -.716E+01 0.767E+01   -.156E+00 0.155E+00 0.250E+00
   -.678E+01 0.679E+01 0.678E+01   0.657E+01 -.657E+01 -.657E+01   0.706E-01 -.718E-01 -.700E-01
   0.106E+03 -.106E+03 -.106E+03   -.105E+03 0.105E+03 0.105E+03   0.256E+00 -.260E+00 -.259E+00
   0.145E+02 -.145E+02 0.224E+02   -.142E+02 0.142E+02 -.220E+02   -.341E+00 0.339E+00 -.831E-01
   0.145E+02 0.224E+02 -.145E+02   -.142E+02 -.220E+02 0.142E+02   -.340E+00 -.860E-01 0.338E+00
   0.803E+01 0.716E+01 0.716E+01   -.766E+01 -.717E+01 -.717E+01   -.248E+00 0.153E+00 0.154E+00
   0.410E-02 0.391E-03 0.231E-02   -.126E-03 0.632E-03 -.109E-02   -.104E-02 -.236E-03 -.456E-04
   -.508E+01 -.219E-02 -.524E-02   0.498E+01 0.656E-03 -.134E-03   0.452E-01 0.642E-03 0.156E-02
   -.602E+02 0.307E-02 -.283E-02   0.587E+02 -.529E-03 0.376E-03   0.771E+00 -.478E-03 0.177E-02
   -.676E+01 -.100E-02 -.103E-02   0.676E+01 -.837E-04 0.196E-04   -.971E-01 0.828E-03 0.551E-03
   -.508E+01 -.154E-02 -.204E-02   0.498E+01 0.607E-04 -.145E-04   0.432E-01 0.173E-02 0.665E-03
   0.508E+01 -.250E-02 -.196E-02   -.498E+01 -.526E-03 0.490E-03   -.427E-01 -.789E-03 0.641E-04
   0.602E+02 -.148E-02 0.743E-04   -.587E+02 -.672E-03 0.570E-03   -.770E+00 0.740E-03 -.888E-03
   0.675E+01 -.469E-02 -.313E-04   -.676E+01 0.708E-03 0.709E-03   0.102E+00 0.159E-02 -.645E-03
   0.508E+01 0.367E-02 -.284E-03   -.498E+01 -.542E-04 -.502E-03   -.437E-01 -.125E-02 0.717E-03
   -.670E+01 -.670E+01 -.670E+01   0.643E+01 0.644E+01 0.644E+01   0.824E-01 0.802E-01 0.817E-01
   -.128E+02 -.128E+02 0.128E+02   0.130E+02 0.130E+02 -.130E+02   -.363E+00 -.365E+00 0.367E+00
   -.128E+02 0.128E+02 -.128E+02   0.130E+02 -.130E+02 0.130E+02   -.362E+00 0.365E+00 -.365E+00
   -.670E+01 0.670E+01 0.670E+01   0.643E+01 -.644E+01 -.644E+01   0.856E-01 -.832E-01 -.816E-01
   0.128E+02 -.128E+02 -.128E+02   -.130E+02 0.130E+02 0.130E+02   0.363E+00 -.367E+00 -.363E+00
   0.671E+01 -.670E+01 0.671E+01   -.644E+01 0.644E+01 -.644E+01   -.845E-01 0.862E-01 -.869E-01
   0.670E+01 0.671E+01 -.670E+01   -.644E+01 -.644E+01 0.643E+01   -.817E-01 -.870E-01 0.843E-01
   0.128E+02 0.128E+02 0.128E+02   -.130E+02 -.130E+02 -.130E+02   0.363E+00 0.362E+00 0.364E+00
   -.576E-02 -.311E-02 -.507E+01   -.985E-04 0.119E-02 0.498E+01   0.386E-02 0.972E-03 0.399E-01
   0.282E-02 0.161E-02 0.508E+01   -.133E-03 -.254E-04 -.498E+01   -.159E-02 -.146E-02 -.440E-01
   -.200E-02 -.906E-03 -.676E+01   -.281E-04 -.139E-03 0.676E+01   0.642E-03 -.629E-06 -.994E-01
   -.103E-02 -.324E-02 0.675E+01   -.204E-04 0.362E-04 -.676E+01   -.635E-03 0.265E-02 0.102E+00
   0.263E-02 0.186E-02 -.602E+02   -.150E-03 0.680E-03 0.586E+02   -.142E-02 -.354E-03 0.770E+00
   -.215E-02 0.163E-02 0.602E+02   0.696E-03 -.743E-03 -.586E+02   0.162E-02 -.137E-02 -.771E+00
   -.978E-03 0.539E-04 -.508E+01   0.984E-05 -.566E-03 0.498E+01   -.490E-03 0.157E-02 0.405E-01
   0.817E-03 0.192E-02 0.508E+01   -.466E-03 0.688E-04 -.498E+01   -.260E-03 -.133E-02 -.397E-01
   -.208E-02 -.676E+01 0.105E-02   0.185E-04 0.676E+01 -.648E-03   0.151E-02 -.964E-01 0.356E-04
   0.151E-02 -.508E+01 0.980E-03   -.744E-04 0.498E+01 0.106E-03   -.174E-02 0.430E-01 -.678E-03
   -.234E-02 0.676E+01 0.599E-02   -.241E-04 -.676E+01 0.528E-04   0.114E-02 0.991E-01 -.294E-02
   -.799E-04 0.508E+01 0.738E-03   -.201E-03 -.498E+01 -.570E-03   -.117E-03 -.425E-01 -.170E-02
   -.130E-02 -.508E+01 -.874E-02   0.172E-03 0.498E+01 -.529E-03   0.160E-02 0.430E-01 0.401E-02
   0.354E-02 -.602E+02 0.563E-02   0.572E-03 0.586E+02 0.743E-03   -.205E-02 0.770E+00 -.361E-02
   0.378E-02 0.508E+01 0.217E-02   -.478E-03 -.498E+01 0.812E-04   -.162E-02 -.432E-01 -.445E-03
   0.404E-02 0.603E+02 0.290E-02   -.184E-03 -.586E+02 -.706E-03   -.290E-02 -.775E+00 -.984E-03
 -----------------------------------------------------------------------------------------------
   -.313E-01 0.308E-01 -.305E-01   -.967E-13 0.121E-12 -.181E-12   0.618E-03 -.339E-01 -.539E-02


 POSITION                                       TOTAL-FORCE (eV/Angst)
 -----------------------------------------------------------------------------------
      0.05869     13.02807      0.05869        -0.789513      0.789810     -0.789540
      0.01632     13.07045      6.50359         0.068345     -0.070750      0.368540
      0.01632      6.58318      0.01632         0.068767     -0.372171      0.069452
     13.08186      6.55932      6.52744        -0.115353     -0.158464      0.156960
      6.50359     13.07045      0.01632         0.370580     -0.068580      0.068119
      6.52743      0.00491      6.52743         0.159207      0.116207      0.159516
      6.52743      6.55934     13.08186         0.159344     -0.160882     -0.118278
      6.55029      6.53647      6.55029         0.144700     -0.143892      0.143188
      0.01632      3.28801      3.31148         0.069819      0.069482     -0.371364
      0.05871      3.33039      9.75638        -0.789479     -0.791800      0.790924
     13.08186      9.79914      3.28763        -0.118491      0.157395     -0.158212
      0.01632      9.77528      9.79876         0.070479      0.369618     -0.069477
      6.52744      3.26678      3.28764         0.157332     -0.118654     -0.161810
      6.50360      3.28801      9.79876         0.369392      0.067335     -0.068460
      6.55029      9.82199      3.26478         0.144691      0.143636     -0.145275
      6.52743      9.79912      9.81998         0.158570      0.160177      0.115887
      3.28764      0.00491      3.28764        -0.163110      0.117635     -0.160406
      3.31148     13.07045      9.79876        -0.370545     -0.070272     -0.069110
      3.26478      6.53647      3.26478        -0.145833     -0.144130     -0.145424
      3.28764      6.55934      9.81998        -0.159776     -0.161675      0.117070
      9.79876     13.07045      3.31148        -0.072094     -0.068074     -0.371892
      9.75637     13.02807      9.75638         0.787463      0.788915      0.790546
      9.81998      6.55934      3.28764         0.116234     -0.160380     -0.162113
      9.79876      6.58317      9.79876        -0.068464     -0.369193     -0.070332
      3.31148      3.28801      0.01632        -0.371538      0.068101      0.065392
      3.28764      3.26678      6.52743        -0.159760     -0.117223      0.157425
      3.28764      9.79912     13.08186        -0.160164      0.159368     -0.118224
      3.26478      9.82199      6.55029        -0.145722      0.143886      0.144366
      9.75637      3.33039      0.05869         0.790590     -0.788757     -0.788130
      9.79876      3.28801      6.50360        -0.069332      0.068696      0.369446
      9.79876      9.77528      0.01632        -0.070068      0.369056      0.069538
      9.81998      9.79914      6.52744         0.115539      0.158212      0.159252
     11.45092      1.63585     11.45092         0.003589      0.000961      0.001872
      1.65752      1.63585      4.90754        -0.052566     -0.000714     -0.003143
      1.73765      1.63585     11.45092        -0.832055      0.002216     -0.000000
      1.64752      8.17923      4.90754        -0.099460     -0.000094      0.000205
      1.65752      8.17923     11.45092        -0.051648      0.000427     -0.000739
      8.15756      1.63585      4.90754         0.052764     -0.003683     -0.000770
      8.07743      1.63585     11.45092         0.830785     -0.001241      0.000381
      8.16756      8.17923      4.90754         0.098936     -0.002243      0.000669
      8.15756      8.17923     11.45092         0.054824      0.002490      0.000584
      1.63386      4.90555      1.63386        -0.184781     -0.179823     -0.179279
      1.66841      4.94010      8.14667        -0.183768     -0.183631      0.183576
      1.66841     11.41836      1.66841        -0.184076      0.188337     -0.182846
      1.63386     11.45291      8.18122        -0.182392      0.181254      0.183963
      8.14667      4.94010      1.66841         0.187121     -0.182574     -0.184066
      8.18122      4.90555      8.18122         0.185099     -0.180298      0.183805
      8.18122     11.45291      1.63386         0.183754      0.184341     -0.182811
      8.14667     11.41836      8.14667         0.184783      0.186383      0.183853
      4.90754      1.63585      1.65752        -0.001411     -0.000780     -0.048648
      4.90754      1.63585      8.15756         0.001633      0.000263      0.053448
      4.90754      8.17923      1.64752        -0.000807     -0.000907     -0.096837
      4.90754      8.17923      8.16756        -0.001165     -0.000369      0.097003
     11.45092      1.63585      1.73765         0.001602      0.002316     -0.832402
     11.45092      1.63585      8.07743         0.000738     -0.000353      0.833797
     11.45092      8.17923      1.65752        -0.000910      0.001241     -0.050265
     11.45092      8.17923      8.15756         0.000645      0.000770      0.053052
      4.90754      4.91921      4.90754         0.000009     -0.098905      0.001086
      4.90754      4.92921     11.45092         0.000196     -0.052149      0.001047
      4.90754     11.43925      4.90754        -0.000699      0.101229      0.003707
      4.90754     11.42925     11.45092         0.000158      0.051965     -0.000910
     11.45092      4.92921      4.90754         0.001042     -0.050987     -0.004555
     11.45092      5.00934     11.45092         0.002575     -0.832841      0.003341
     11.45092     11.42925      4.90754         0.002211      0.051899      0.002452
     11.45092     11.34912     11.45092         0.001461      0.832863      0.001852
 -----------------------------------------------------------------------------------
    total drift:                               -0.034149     -0.008679     -0.040897


--------------------------------------------------------------------------------------------------------



  FREE ENERGIE OF THE ION-ELECTRON SYSTEM (eV)
  ---------------------------------------------------
  free  energy   TOTEN  =      -184.04417602 eV

  energy  without entropy=     -184.03803446  energy(sigma->0) =     -184.04110524



--------------------------------------------------------------------------------------------------------


    POTLOK:  cpu time      1.0166: real time      1.0258


--------------------------------------------------------------------------------------------------------


 writing wavefunctions
     LOOP+:  cpu time    714.3450: real time    721.3224
    4ORBIT:  cpu time      0.0000: real time      0.0000

 Spin-Orbit-Coupling matrix elements

 Ion:    1  E_soc:     -0.0546355
 l=   1
     0.0000000    -0.0023771    -0.0023779
    -0.0023771     0.0000000    -0.0023779
    -0.0023779    -0.0023779     0.0000000
 l=   2
     0.0000000    -0.0013550     0.0000000    -0.0013616    -0.0053688
    -0.0013550     0.0000000    -0.0040257    -0.0013609    -0.0013440
     0.0000000    -0.0040257     0.0000000    -0.0040278     0.0000000
    -0.0013616    -0.0013609    -0.0040278     0.0000000    -0.0013410
    -0.0053688    -0.0013440     0.0000000    -0.0013410     0.0000000
 l=   3
     0.0000000     0.0000000     0.0000000     0.0000000     0.0000000     0.0000000     0.0000000
     0.0000000     0.0000000     0.0000000     0.0000000     0.0000000     0.0000000     0.0000000
     0.0000000     0.0000000     0.0000000     0.0000000     0.0000000     0.0000000     0.0000000
     0.0000000     0.0000000     0.0000000     0.0000000     0.0000000     0.0000000     0.0000000
     0.0000000     0.0000000     0.0000000     0.0000000     0.0000000     0.0000000     0.0000000
     0.0000000     0.0000000     0.0000000     0.0000000     0.0000000     0.0000000     0.0000000
     0.0000000     0.0000000     0.0000000     0.0000000     0.0000000     0.0000000     0.0000000

 Ion:    2  E_soc:     -0.0556598
 l=   1
     0.0000000    -0.0025608    -0.0025968
    -0.0025608     0.0000000    -0.0025625
    -0.0025968    -0.0025625     0.0000000
 l=   2
     0.0000000    -0.0013488     0.0000000    -0.0013489    -0.0053540
    -0.0013488     0.0000000    -0.0040186    -0.0013475    -0.0013390
     0.0000000    -0.0040186     0.0000000    -0.0040149     0.0000000
    -0.0013489    -0.0013475    -0.0040149     0.0000000    -0.0013380
    -0.0053540    -0.0013390     0.0000000    -0.0013380     0.0000000
 l=   3
     0.0000000     0.0000000     0.0000000     0.0000000     0.0000000     0.0000000     0.0000000
     0.0000000     0.0000000     0.0000000     0.0000000     0.0000000     0.0000000     0.0000000
     0.0000000     0.0000000     0.0000000     0.0000000     0.0000000     0.0000000     0.0000000
     0.0000000     0.0000000     0.0000000     0.0000000     0.0000000     0.0000000     0.0000000
     0.0000000     0.0000000     0.0000000     0.0000000     0.0000000     0.0000000     0.0000000
     0.0000000     0.0000000     0.0000000     0.0000000     0.0000000     0.0000000     0.0000000
     0.0000000     0.0000000     0.0000000     0.0000000     0.0000000     0.0000000     0.0000000

 Ion:    3  E_soc:     -0.0556541
 l=   1
     0.0000000    -0.0025626    -0.0025627
    -0.0025626     0.0000000    -0.0025968
    -0.0025627    -0.0025968     0.0000000
 l=   2
     0.0000000    -0.0013455     0.0000000    -0.0013494    -0.0053553
    -0.0013455     0.0000000    -0.0040161    -0.0013483    -0.0013392
     0.0000000    -0.0040161     0.0000000    -0.0040128     0.0000000
    -0.0013494    -0.0013483    -0.0040128     0.0000000    -0.0013381
    -0.0053553    -0.0013392     0.0000000    -0.0013381     0.0000000
 l=   3
     0.0000000     0.0000000     0.0000000     0.0000000     0.0000000     0.0000000     0.0000000
     0.0000000     0.0000000     0.0000000     0.0000000     0.0000000     0.0000000     0.0000000
     0.0000000     0.0000000     0.0000000     0.0000000     0.0000000     0.0000000     0.0000000
     0.0000000     0.0000000     0.0000000     0.0000000     0.0000000     0.0000000     0.0000000
     0.0000000     0.0000000     0.0000000     0.0000000     0.0000000     0.0000000     0.0000000
     0.0000000     0.0000000     0.0000000     0.0000000     0.0000000     0.0000000     0.0000000
     0.0000000     0.0000000     0.0000000     0.0000000     0.0000000     0.0000000     0.0000000

 Ion:    4  E_soc:     -0.0556503
 l=   1
     0.0000000    -0.0025636    -0.0025719
    -0.0025636     0.0000000    -0.0025704
    -0.0025719    -0.0025704     0.0000000
 l=   2
     0.0000000    -0.0013515     0.0000000    -0.0013510    -0.0053572
    -0.0013515     0.0000000    -0.0040168    -0.0013505    -0.0013387
     0.0000000    -0.0040168     0.0000000    -0.0040152     0.0000000
    -0.0013510    -0.0013505    -0.0040152     0.0000000    -0.0013384
    -0.0053572    -0.0013387     0.0000000    -0.0013384     0.0000000
 l=   3
     0.0000000     0.0000000     0.0000000     0.0000000     0.0000000     0.0000000     0.0000000
     0.0000000     0.0000000     0.0000000     0.0000000     0.0000000     0.0000000     0.0000000
     0.0000000     0.0000000     0.0000000     0.0000000     0.0000000     0.0000000     0.0000000
     0.0000000     0.0000000     0.0000000     0.0000000     0.0000000     0.0000000     0.0000000
     0.0000000     0.0000000     0.0000000     0.0000000     0.0000000     0.0000000     0.0000000
     0.0000000     0.0000000     0.0000000     0.0000000     0.0000000     0.0000000     0.0000000
     0.0000000     0.0000000     0.0000000     0.0000000     0.0000000     0.0000000     0.0000000

 Ion:    5  E_soc:     -0.0556496
 l=   1
     0.0000000    -0.0025971    -0.0025613
    -0.0025971     0.0000000    -0.0025602
    -0.0025613    -0.0025602     0.0000000
 l=   2
     0.0000000    -0.0013494     0.0000000    -0.0013479    -0.0053567
    -0.0013494     0.0000000    -0.0040128    -0.0013474    -0.0013370
     0.0000000    -0.0040128     0.0000000    -0.0040161     0.0000000
    -0.0013479    -0.0013474    -0.0040161     0.0000000    -0.0013389
    -0.0053567    -0.0013370     0.0000000    -0.0013389     0.0000000
 l=   3
     0.0000000     0.0000000     0.0000000     0.0000000     0.0000000     0.0000000     0.0000000
     0.0000000     0.0000000     0.0000000     0.0000000     0.0000000     0.0000000     0.0000000
     0.0000000     0.0000000     0.0000000     0.0000000     0.0000000     0.0000000     0.0000000
     0.0000000     0.0000000     0.0000000     0.0000000     0.0000000     0.0000000     0.0000000
     0.0000000     0.0000000     0.0000000     0.0000000     0.0000000     0.0000000     0.0000000
     0.0000000     0.0000000     0.0000000     0.0000000     0.0000000     0.0000000     0.0000000
     0.0000000     0.0000000     0.0000000     0.0000000     0.0000000     0.0000000     0.0000000

 Ion:    6  E_soc:     -0.0556469
 l=   1
     0.0000000    -0.0025696    -0.0025701
    -0.0025696     0.0000000    -0.0025658
    -0.0025701    -0.0025658     0.0000000
 l=   2
     0.0000000    -0.0013511     0.0000000    -0.0013503    -0.0053559
    -0.0013511     0.0000000    -0.0040142    -0.0013518    -0.0013370
     0.0000000    -0.0040142     0.0000000    -0.0040178     0.0000000
    -0.0013503    -0.0013518    -0.0040178     0.0000000    -0.0013397
    -0.0053559    -0.0013370     0.0000000    -0.0013397     0.0000000
 l=   3
     0.0000000     0.0000000     0.0000000     0.0000000     0.0000000     0.0000000     0.0000000
     0.0000000     0.0000000     0.0000000     0.0000000     0.0000000     0.0000000     0.0000000
     0.0000000     0.0000000     0.0000000     0.0000000     0.0000000     0.0000000     0.0000000
     0.0000000     0.0000000     0.0000000     0.0000000     0.0000000     0.0000000     0.0000000
     0.0000000     0.0000000     0.0000000     0.0000000     0.0000000     0.0000000     0.0000000
     0.0000000     0.0000000     0.0000000     0.0000000     0.0000000     0.0000000     0.0000000
     0.0000000     0.0000000     0.0000000     0.0000000     0.0000000     0.0000000     0.0000000

 Ion:    7  E_soc:     -0.0556532
 l=   1
     0.0000000    -0.0025709    -0.0025621
    -0.0025709     0.0000000    -0.0025739
    -0.0025621    -0.0025739     0.0000000
 l=   2
     0.0000000    -0.0013518     0.0000000    -0.0013515    -0.0053600
    -0.0013518     0.0000000    -0.0040130    -0.0013517    -0.0013391
     0.0000000    -0.0040130     0.0000000    -0.0040151     0.0000000
    -0.0013515    -0.0013517    -0.0040151     0.0000000    -0.0013376
    -0.0053600    -0.0013391     0.0000000    -0.0013376     0.0000000
 l=   3
     0.0000000     0.0000000     0.0000000     0.0000000     0.0000000     0.0000000     0.0000000
     0.0000000     0.0000000     0.0000000     0.0000000     0.0000000     0.0000000     0.0000000
     0.0000000     0.0000000     0.0000000     0.0000000     0.0000000     0.0000000     0.0000000
     0.0000000     0.0000000     0.0000000     0.0000000     0.0000000     0.0000000     0.0000000
     0.0000000     0.0000000     0.0000000     0.0000000     0.0000000     0.0000000     0.0000000
     0.0000000     0.0000000     0.0000000     0.0000000     0.0000000     0.0000000     0.0000000
     0.0000000     0.0000000     0.0000000     0.0000000     0.0000000     0.0000000     0.0000000

 Ion:    8  E_soc:     -0.0555434
 l=   1
     0.0000000    -0.0025463    -0.0025494
    -0.0025463     0.0000000    -0.0025504
    -0.0025494    -0.0025504     0.0000000
 l=   2
     0.0000000    -0.0013512     0.0000000    -0.0013505    -0.0053566
    -0.0013512     0.0000000    -0.0040189    -0.0013513    -0.0013387
     0.0000000    -0.0040189     0.0000000    -0.0040181     0.0000000
    -0.0013505    -0.0013513    -0.0040181     0.0000000    -0.0013403
    -0.0053566    -0.0013387     0.0000000    -0.0013403     0.0000000
 l=   3
     0.0000000     0.0000000     0.0000000     0.0000000     0.0000000     0.0000000     0.0000000
     0.0000000     0.0000000     0.0000000     0.0000000     0.0000000     0.0000000     0.0000000
     0.0000000     0.0000000     0.0000000     0.0000000     0.0000000     0.0000000     0.0000000
     0.0000000     0.0000000     0.0000000     0.0000000     0.0000000     0.0000000     0.0000000
     0.0000000     0.0000000     0.0000000     0.0000000     0.0000000     0.0000000     0.0000000
     0.0000000     0.0000000     0.0000000     0.0000000     0.0000000     0.0000000     0.0000000
     0.0000000     0.0000000     0.0000000     0.0000000     0.0000000     0.0000000     0.0000000

 Ion:    9  E_soc:     -0.0556573
 l=   1
     0.0000000    -0.0025646    -0.0025941
    -0.0025646     0.0000000    -0.0025617
    -0.0025941    -0.0025617     0.0000000
 l=   2
     0.0000000    -0.0013486     0.0000000    -0.0013483    -0.0053537
    -0.0013486     0.0000000    -0.0040170    -0.0013463    -0.0013396
     0.0000000    -0.0040170     0.0000000    -0.0040159     0.0000000
    -0.0013483    -0.0013463    -0.0040159     0.0000000    -0.0013389
    -0.0053537    -0.0013396     0.0000000    -0.0013389     0.0000000
 l=   3
     0.0000000     0.0000000     0.0000000     0.0000000     0.0000000     0.0000000     0.0000000
     0.0000000     0.0000000     0.0000000     0.0000000     0.0000000     0.0000000     0.0000000
     0.0000000     0.0000000     0.0000000     0.0000000     0.0000000     0.0000000     0.0000000
     0.0000000     0.0000000     0.0000000     0.0000000     0.0000000     0.0000000     0.0000000
     0.0000000     0.0000000     0.0000000     0.0000000     0.0000000     0.0000000     0.0000000
     0.0000000     0.0000000     0.0000000     0.0000000     0.0000000     0.0000000     0.0000000
     0.0000000     0.0000000     0.0000000     0.0000000     0.0000000     0.0000000     0.0000000

 Ion:   10  E_soc:     -0.0546239
 l=   1
     0.0000000    -0.0023754    -0.0023746
    -0.0023754     0.0000000    -0.0023757
    -0.0023746    -0.0023757     0.0000000
 l=   2
     0.0000000    -0.0013606     0.0000000    -0.0013601    -0.0053774
    -0.0013606     0.0000000    -0.0040280    -0.0013544    -0.0013395
     0.0000000    -0.0040280     0.0000000    -0.0040257     0.0000000
    -0.0013601    -0.0013544    -0.0040257     0.0000000    -0.0013405
    -0.0053774    -0.0013395     0.0000000    -0.0013405     0.0000000
 l=   3
     0.0000000     0.0000000     0.0000000     0.0000000     0.0000000     0.0000000     0.0000000
     0.0000000     0.0000000     0.0000000     0.0000000     0.0000000     0.0000000     0.0000000
     0.0000000     0.0000000     0.0000000     0.0000000     0.0000000     0.0000000     0.0000000
     0.0000000     0.0000000     0.0000000     0.0000000     0.0000000     0.0000000     0.0000000
     0.0000000     0.0000000     0.0000000     0.0000000     0.0000000     0.0000000     0.0000000
     0.0000000     0.0000000     0.0000000     0.0000000     0.0000000     0.0000000     0.0000000
     0.0000000     0.0000000     0.0000000     0.0000000     0.0000000     0.0000000     0.0000000

 Ion:   11  E_soc:     -0.0556539
 l=   1
     0.0000000    -0.0025623    -0.0025731
    -0.0025623     0.0000000    -0.0025719
    -0.0025731    -0.0025719     0.0000000
 l=   2
     0.0000000    -0.0013517     0.0000000    -0.0013504    -0.0053519
    -0.0013517     0.0000000    -0.0040190    -0.0013519    -0.0013405
     0.0000000    -0.0040190     0.0000000    -0.0040166     0.0000000
    -0.0013504    -0.0013519    -0.0040166     0.0000000    -0.0013375
    -0.0053519    -0.0013405     0.0000000    -0.0013375     0.0000000
 l=   3
     0.0000000     0.0000000     0.0000000     0.0000000     0.0000000     0.0000000     0.0000000
     0.0000000     0.0000000     0.0000000     0.0000000     0.0000000     0.0000000     0.0000000
     0.0000000     0.0000000     0.0000000     0.0000000     0.0000000     0.0000000     0.0000000
     0.0000000     0.0000000     0.0000000     0.0000000     0.0000000     0.0000000     0.0000000
     0.0000000     0.0000000     0.0000000     0.0000000     0.0000000     0.0000000     0.0000000
     0.0000000     0.0000000     0.0000000     0.0000000     0.0000000     0.0000000     0.0000000
     0.0000000     0.0000000     0.0000000     0.0000000     0.0000000     0.0000000     0.0000000

 Ion:   12  E_soc:     -0.0556497
 l=   1
     0.0000000    -0.0025605    -0.0025616
    -0.0025605     0.0000000    -0.0025935
    -0.0025616    -0.0025935     0.0000000
 l=   2
     0.0000000    -0.0013478     0.0000000    -0.0013479    -0.0053558
    -0.0013478     0.0000000    -0.0040198    -0.0013493    -0.0013399
     0.0000000    -0.0040198     0.0000000    -0.0040106     0.0000000
    -0.0013479    -0.0013493    -0.0040106     0.0000000    -0.0013380
    -0.0053558    -0.0013399     0.0000000    -0.0013380     0.0000000
 l=   3
     0.0000000     0.0000000     0.0000000     0.0000000     0.0000000     0.0000000     0.0000000
     0.0000000     0.0000000     0.0000000     0.0000000     0.0000000     0.0000000     0.0000000
     0.0000000     0.0000000     0.0000000     0.0000000     0.0000000     0.0000000     0.0000000
     0.0000000     0.0000000     0.0000000     0.0000000     0.0000000     0.0000000     0.0000000
     0.0000000     0.0000000     0.0000000     0.0000000     0.0000000     0.0000000     0.0000000
     0.0000000     0.0000000     0.0000000     0.0000000     0.0000000     0.0000000     0.0000000
     0.0000000     0.0000000     0.0000000     0.0000000     0.0000000     0.0000000     0.0000000

 Ion:   13  E_soc:     -0.0556474
 l=   1
     0.0000000    -0.0025720    -0.0025733
    -0.0025720     0.0000000    -0.0025604
    -0.0025733    -0.0025604     0.0000000
 l=   2
     0.0000000    -0.0013524     0.0000000    -0.0013511    -0.0053505
    -0.0013524     0.0000000    -0.0040175    -0.0013519    -0.0013383
     0.0000000    -0.0040175     0.0000000    -0.0040174     0.0000000
    -0.0013511    -0.0013519    -0.0040174     0.0000000    -0.0013388
    -0.0053505    -0.0013383     0.0000000    -0.0013388     0.0000000
 l=   3
     0.0000000     0.0000000     0.0000000     0.0000000     0.0000000     0.0000000     0.0000000
     0.0000000     0.0000000     0.0000000     0.0000000     0.0000000     0.0000000     0.0000000
     0.0000000     0.0000000     0.0000000     0.0000000     0.0000000     0.0000000     0.0000000
     0.0000000     0.0000000     0.0000000     0.0000000     0.0000000     0.0000000     0.0000000
     0.0000000     0.0000000     0.0000000     0.0000000     0.0000000     0.0000000     0.0000000
     0.0000000     0.0000000     0.0000000     0.0000000     0.0000000     0.0000000     0.0000000
     0.0000000     0.0000000     0.0000000     0.0000000     0.0000000     0.0000000     0.0000000

 Ion:   14  E_soc:     -0.0556706
 l=   1
     0.0000000    -0.0025967    -0.0025622
    -0.0025967     0.0000000    -0.0025641
    -0.0025622    -0.0025641     0.0000000
 l=   2
     0.0000000    -0.0013487     0.0000000    -0.0013471    -0.0053559
    -0.0013487     0.0000000    -0.0040164    -0.0013500    -0.0013377
     0.0000000    -0.0040164     0.0000000    -0.0040183     0.0000000
    -0.0013471    -0.0013500    -0.0040183     0.0000000    -0.0013382
    -0.0053559    -0.0013377     0.0000000    -0.0013382     0.0000000
 l=   3
     0.0000000     0.0000000     0.0000000     0.0000000     0.0000000     0.0000000     0.0000000
     0.0000000     0.0000000     0.0000000     0.0000000     0.0000000     0.0000000     0.0000000
     0.0000000     0.0000000     0.0000000     0.0000000     0.0000000     0.0000000     0.0000000
     0.0000000     0.0000000     0.0000000     0.0000000     0.0000000     0.0000000     0.0000000
     0.0000000     0.0000000     0.0000000     0.0000000     0.0000000     0.0000000     0.0000000
     0.0000000     0.0000000     0.0000000     0.0000000     0.0000000     0.0000000     0.0000000
     0.0000000     0.0000000     0.0000000     0.0000000     0.0000000     0.0000000     0.0000000

 Ion:   15  E_soc:     -0.0555501
 l=   1
     0.0000000    -0.0025482    -0.0025501
    -0.0025482     0.0000000    -0.0025494
    -0.0025501    -0.0025494     0.0000000
 l=   2
     0.0000000    -0.0013527     0.0000000    -0.0013508    -0.0053592
    -0.0013527     0.0000000    -0.0040166    -0.0013510    -0.0013390
     0.0000000    -0.0040166     0.0000000    -0.0040189     0.0000000
    -0.0013508    -0.0013510    -0.0040189     0.0000000    -0.0013391
    -0.0053592    -0.0013390     0.0000000    -0.0013391     0.0000000
 l=   3
     0.0000000     0.0000000     0.0000000     0.0000000     0.0000000     0.0000000     0.0000000
     0.0000000     0.0000000     0.0000000     0.0000000     0.0000000     0.0000000     0.0000000
     0.0000000     0.0000000     0.0000000     0.0000000     0.0000000     0.0000000     0.0000000
     0.0000000     0.0000000     0.0000000     0.0000000     0.0000000     0.0000000     0.0000000
     0.0000000     0.0000000     0.0000000     0.0000000     0.0000000     0.0000000     0.0000000
     0.0000000     0.0000000     0.0000000     0.0000000     0.0000000     0.0000000     0.0000000
     0.0000000     0.0000000     0.0000000     0.0000000     0.0000000     0.0000000     0.0000000

 Ion:   16  E_soc:     -0.0556575
 l=   1
     0.0000000    -0.0025715    -0.0025648
    -0.0025715     0.0000000    -0.0025673
    -0.0025648    -0.0025673     0.0000000
 l=   2
     0.0000000    -0.0013514     0.0000000    -0.0013503    -0.0053580
    -0.0013514     0.0000000    -0.0040182    -0.0013519    -0.0013389
     0.0000000    -0.0040182     0.0000000    -0.0040184     0.0000000
    -0.0013503    -0.0013519    -0.0040184     0.0000000    -0.0013381
    -0.0053580    -0.0013389     0.0000000    -0.0013381     0.0000000
 l=   3
     0.0000000     0.0000000     0.0000000     0.0000000     0.0000000     0.0000000     0.0000000
     0.0000000     0.0000000     0.0000000     0.0000000     0.0000000     0.0000000     0.0000000
     0.0000000     0.0000000     0.0000000     0.0000000     0.0000000     0.0000000     0.0000000
     0.0000000     0.0000000     0.0000000     0.0000000     0.0000000     0.0000000     0.0000000
     0.0000000     0.0000000     0.0000000     0.0000000     0.0000000     0.0000000     0.0000000
     0.0000000     0.0000000     0.0000000     0.0000000     0.0000000     0.0000000     0.0000000
     0.0000000     0.0000000     0.0000000     0.0000000     0.0000000     0.0000000     0.0000000

 Ion:   17  E_soc:     -0.0556498
 l=   1
     0.0000000    -0.0025696    -0.0025693
    -0.0025696     0.0000000    -0.0025643
    -0.0025693    -0.0025643     0.0000000
 l=   2
     0.0000000    -0.0013519     0.0000000    -0.0013525    -0.0053535
    -0.0013519     0.0000000    -0.0040150    -0.0013510    -0.0013381
     0.0000000    -0.0040150     0.0000000    -0.0040202     0.0000000
    -0.0013525    -0.0013510    -0.0040202     0.0000000    -0.0013395
    -0.0053535    -0.0013381     0.0000000    -0.0013395     0.0000000
 l=   3
     0.0000000     0.0000000     0.0000000     0.0000000     0.0000000     0.0000000     0.0000000
     0.0000000     0.0000000     0.0000000     0.0000000     0.0000000     0.0000000     0.0000000
     0.0000000     0.0000000     0.0000000     0.0000000     0.0000000     0.0000000     0.0000000
     0.0000000     0.0000000     0.0000000     0.0000000     0.0000000     0.0000000     0.0000000
     0.0000000     0.0000000     0.0000000     0.0000000     0.0000000     0.0000000     0.0000000
     0.0000000     0.0000000     0.0000000     0.0000000     0.0000000     0.0000000     0.0000000
     0.0000000     0.0000000     0.0000000     0.0000000     0.0000000     0.0000000     0.0000000

 Ion:   18  E_soc:     -0.0556491
 l=   1
     0.0000000    -0.0025940    -0.0025595
    -0.0025940     0.0000000    -0.0025628
    -0.0025595    -0.0025628     0.0000000
 l=   2
     0.0000000    -0.0013495     0.0000000    -0.0013459    -0.0053561
    -0.0013495     0.0000000    -0.0040149    -0.0013489    -0.0013383
     0.0000000    -0.0040149     0.0000000    -0.0040146     0.0000000
    -0.0013459    -0.0013489    -0.0040146     0.0000000    -0.0013400
    -0.0053561    -0.0013383     0.0000000    -0.0013400     0.0000000
 l=   3
     0.0000000     0.0000000     0.0000000     0.0000000     0.0000000     0.0000000     0.0000000
     0.0000000     0.0000000     0.0000000     0.0000000     0.0000000     0.0000000     0.0000000
     0.0000000     0.0000000     0.0000000     0.0000000     0.0000000     0.0000000     0.0000000
     0.0000000     0.0000000     0.0000000     0.0000000     0.0000000     0.0000000     0.0000000
     0.0000000     0.0000000     0.0000000     0.0000000     0.0000000     0.0000000     0.0000000
     0.0000000     0.0000000     0.0000000     0.0000000     0.0000000     0.0000000     0.0000000
     0.0000000     0.0000000     0.0000000     0.0000000     0.0000000     0.0000000     0.0000000

 Ion:   19  E_soc:     -0.0555449
 l=   1
     0.0000000    -0.0025505    -0.0025502
    -0.0025505     0.0000000    -0.0025497
    -0.0025502    -0.0025497     0.0000000
 l=   2
     0.0000000    -0.0013514     0.0000000    -0.0013499    -0.0053547
    -0.0013514     0.0000000    -0.0040185    -0.0013517    -0.0013395
     0.0000000    -0.0040185     0.0000000    -0.0040177     0.0000000
    -0.0013499    -0.0013517    -0.0040177     0.0000000    -0.0013387
    -0.0053547    -0.0013395     0.0000000    -0.0013387     0.0000000
 l=   3
     0.0000000     0.0000000     0.0000000     0.0000000     0.0000000     0.0000000     0.0000000
     0.0000000     0.0000000     0.0000000     0.0000000     0.0000000     0.0000000     0.0000000
     0.0000000     0.0000000     0.0000000     0.0000000     0.0000000     0.0000000     0.0000000
     0.0000000     0.0000000     0.0000000     0.0000000     0.0000000     0.0000000     0.0000000
     0.0000000     0.0000000     0.0000000     0.0000000     0.0000000     0.0000000     0.0000000
     0.0000000     0.0000000     0.0000000     0.0000000     0.0000000     0.0000000     0.0000000
     0.0000000     0.0000000     0.0000000     0.0000000     0.0000000     0.0000000     0.0000000

 Ion:   20  E_soc:     -0.0556538
 l=   1
     0.0000000    -0.0025725    -0.0025639
    -0.0025725     0.0000000    -0.0025700
    -0.0025639    -0.0025700     0.0000000
 l=   2
     0.0000000    -0.0013518     0.0000000    -0.0013506    -0.0053617
    -0.0013518     0.0000000    -0.0040132    -0.0013508    -0.0013364
     0.0000000    -0.0040132     0.0000000    -0.0040151     0.0000000
    -0.0013506    -0.0013508    -0.0040151     0.0000000    -0.0013408
    -0.0053617    -0.0013364     0.0000000    -0.0013408     0.0000000
 l=   3
     0.0000000     0.0000000     0.0000000     0.0000000     0.0000000     0.0000000     0.0000000
     0.0000000     0.0000000     0.0000000     0.0000000     0.0000000     0.0000000     0.0000000
     0.0000000     0.0000000     0.0000000     0.0000000     0.0000000     0.0000000     0.0000000
     0.0000000     0.0000000     0.0000000     0.0000000     0.0000000     0.0000000     0.0000000
     0.0000000     0.0000000     0.0000000     0.0000000     0.0000000     0.0000000     0.0000000
     0.0000000     0.0000000     0.0000000     0.0000000     0.0000000     0.0000000     0.0000000
     0.0000000     0.0000000     0.0000000     0.0000000     0.0000000     0.0000000     0.0000000

 Ion:   21  E_soc:     -0.0556594
 l=   1
     0.0000000    -0.0025610    -0.0025951
    -0.0025610     0.0000000    -0.0025618
    -0.0025951    -0.0025618     0.0000000
 l=   2
     0.0000000    -0.0013501     0.0000000    -0.0013495    -0.0053528
    -0.0013501     0.0000000    -0.0040158    -0.0013465    -0.0013387
     0.0000000    -0.0040158     0.0000000    -0.0040181     0.0000000
    -0.0013495    -0.0013465    -0.0040181     0.0000000    -0.0013403
    -0.0053528    -0.0013387     0.0000000    -0.0013403     0.0000000
 l=   3
     0.0000000     0.0000000     0.0000000     0.0000000     0.0000000     0.0000000     0.0000000
     0.0000000     0.0000000     0.0000000     0.0000000     0.0000000     0.0000000     0.0000000
     0.0000000     0.0000000     0.0000000     0.0000000     0.0000000     0.0000000     0.0000000
     0.0000000     0.0000000     0.0000000     0.0000000     0.0000000     0.0000000     0.0000000
     0.0000000     0.0000000     0.0000000     0.0000000     0.0000000     0.0000000     0.0000000
     0.0000000     0.0000000     0.0000000     0.0000000     0.0000000     0.0000000     0.0000000
     0.0000000     0.0000000     0.0000000     0.0000000     0.0000000     0.0000000     0.0000000

 Ion:   22  E_soc:     -0.0545853
 l=   1
     0.0000000    -0.0023761    -0.0023754
    -0.0023761     0.0000000    -0.0023772
    -0.0023754    -0.0023772     0.0000000
 l=   2
     0.0000000    -0.0013579     0.0000000    -0.0013577    -0.0053642
    -0.0013579     0.0000000    -0.0040228    -0.0013583    -0.0013393
     0.0000000    -0.0040228     0.0000000    -0.0040224     0.0000000
    -0.0013577    -0.0013583    -0.0040224     0.0000000    -0.0013413
    -0.0053642    -0.0013393     0.0000000    -0.0013413     0.0000000
 l=   3
     0.0000000     0.0000000     0.0000000     0.0000000     0.0000000     0.0000000     0.0000000
     0.0000000     0.0000000     0.0000000     0.0000000     0.0000000     0.0000000     0.0000000
     0.0000000     0.0000000     0.0000000     0.0000000     0.0000000     0.0000000     0.0000000
     0.0000000     0.0000000     0.0000000     0.0000000     0.0000000     0.0000000     0.0000000
     0.0000000     0.0000000     0.0000000     0.0000000     0.0000000     0.0000000     0.0000000
     0.0000000     0.0000000     0.0000000     0.0000000     0.0000000     0.0000000     0.0000000
     0.0000000     0.0000000     0.0000000     0.0000000     0.0000000     0.0000000     0.0000000

 Ion:   23  E_soc:     -0.0556484
 l=   1
     0.0000000    -0.0025669    -0.0025699
    -0.0025669     0.0000000    -0.0025689
    -0.0025699    -0.0025689     0.0000000
 l=   2
     0.0000000    -0.0013512     0.0000000    -0.0013507    -0.0053530
    -0.0013512     0.0000000    -0.0040183    -0.0013511    -0.0013399
     0.0000000    -0.0040183     0.0000000    -0.0040154     0.0000000
    -0.0013507    -0.0013511    -0.0040154     0.0000000    -0.0013388
    -0.0053530    -0.0013399     0.0000000    -0.0013388     0.0000000
 l=   3
     0.0000000     0.0000000     0.0000000     0.0000000     0.0000000     0.0000000     0.0000000
     0.0000000     0.0000000     0.0000000     0.0000000     0.0000000     0.0000000     0.0000000
     0.0000000     0.0000000     0.0000000     0.0000000     0.0000000     0.0000000     0.0000000
     0.0000000     0.0000000     0.0000000     0.0000000     0.0000000     0.0000000     0.0000000
     0.0000000     0.0000000     0.0000000     0.0000000     0.0000000     0.0000000     0.0000000
     0.0000000     0.0000000     0.0000000     0.0000000     0.0000000     0.0000000     0.0000000
     0.0000000     0.0000000     0.0000000     0.0000000     0.0000000     0.0000000     0.0000000

 Ion:   24  E_soc:     -0.0556757
 l=   1
     0.0000000    -0.0025645    -0.0025597
    -0.0025645     0.0000000    -0.0025948
    -0.0025597    -0.0025948     0.0000000
 l=   2
     0.0000000    -0.0013466     0.0000000    -0.0013503    -0.0053565
    -0.0013466     0.0000000    -0.0040217    -0.0013501    -0.0013387
     0.0000000    -0.0040217     0.0000000    -0.0040157     0.0000000
    -0.0013503    -0.0013501    -0.0040157     0.0000000    -0.0013394
    -0.0053565    -0.0013387     0.0000000    -0.0013394     0.0000000
 l=   3
     0.0000000     0.0000000     0.0000000     0.0000000     0.0000000     0.0000000     0.0000000
     0.0000000     0.0000000     0.0000000     0.0000000     0.0000000     0.0000000     0.0000000
     0.0000000     0.0000000     0.0000000     0.0000000     0.0000000     0.0000000     0.0000000
     0.0000000     0.0000000     0.0000000     0.0000000     0.0000000     0.0000000     0.0000000
     0.0000000     0.0000000     0.0000000     0.0000000     0.0000000     0.0000000     0.0000000
     0.0000000     0.0000000     0.0000000     0.0000000     0.0000000     0.0000000     0.0000000
     0.0000000     0.0000000     0.0000000     0.0000000     0.0000000     0.0000000     0.0000000

 Ion:   25  E_soc:     -0.0556638
 l=   1
     0.0000000    -0.0025963    -0.0025604
    -0.0025963     0.0000000    -0.0025629
    -0.0025604    -0.0025629     0.0000000
 l=   2
     0.0000000    -0.0013489     0.0000000    -0.0013463    -0.0053580
    -0.0013489     0.0000000    -0.0040166    -0.0013473    -0.0013395
     0.0000000    -0.0040166     0.0000000    -0.0040159     0.0000000
    -0.0013463    -0.0013473    -0.0040159     0.0000000    -0.0013399
    -0.0053580    -0.0013395     0.0000000    -0.0013399     0.0000000
 l=   3
     0.0000000     0.0000000     0.0000000     0.0000000     0.0000000     0.0000000     0.0000000
     0.0000000     0.0000000     0.0000000     0.0000000     0.0000000     0.0000000     0.0000000
     0.0000000     0.0000000     0.0000000     0.0000000     0.0000000     0.0000000     0.0000000
     0.0000000     0.0000000     0.0000000     0.0000000     0.0000000     0.0000000     0.0000000
     0.0000000     0.0000000     0.0000000     0.0000000     0.0000000     0.0000000     0.0000000
     0.0000000     0.0000000     0.0000000     0.0000000     0.0000000     0.0000000     0.0000000
     0.0000000     0.0000000     0.0000000     0.0000000     0.0000000     0.0000000     0.0000000

 Ion:   26  E_soc:     -0.0556405
 l=   1
     0.0000000    -0.0025717    -0.0025681
    -0.0025717     0.0000000    -0.0025637
    -0.0025681    -0.0025637     0.0000000
 l=   2
     0.0000000    -0.0013518     0.0000000    -0.0013504    -0.0053539
    -0.0013518     0.0000000    -0.0040150    -0.0013492    -0.0013381
     0.0000000    -0.0040150     0.0000000    -0.0040183     0.0000000
    -0.0013504    -0.0013492    -0.0040183     0.0000000    -0.0013399
    -0.0053539    -0.0013381     0.0000000    -0.0013399     0.0000000
 l=   3
     0.0000000     0.0000000     0.0000000     0.0000000     0.0000000     0.0000000     0.0000000
     0.0000000     0.0000000     0.0000000     0.0000000     0.0000000     0.0000000     0.0000000
     0.0000000     0.0000000     0.0000000     0.0000000     0.0000000     0.0000000     0.0000000
     0.0000000     0.0000000     0.0000000     0.0000000     0.0000000     0.0000000     0.0000000
     0.0000000     0.0000000     0.0000000     0.0000000     0.0000000     0.0000000     0.0000000
     0.0000000     0.0000000     0.0000000     0.0000000     0.0000000     0.0000000     0.0000000
     0.0000000     0.0000000     0.0000000     0.0000000     0.0000000     0.0000000     0.0000000

 Ion:   27  E_soc:     -0.0556496
 l=   1
     0.0000000    -0.0025732    -0.0025645
    -0.0025732     0.0000000    -0.0025726
    -0.0025645    -0.0025726     0.0000000
 l=   2
     0.0000000    -0.0013520     0.0000000    -0.0013516    -0.0053565
    -0.0013520     0.0000000    -0.0040130    -0.0013513    -0.0013377
     0.0000000    -0.0040130     0.0000000    -0.0040136     0.0000000
    -0.0013516    -0.0013513    -0.0040136     0.0000000    -0.0013389
    -0.0053565    -0.0013377     0.0000000    -0.0013389     0.0000000
 l=   3
     0.0000000     0.0000000     0.0000000     0.0000000     0.0000000     0.0000000     0.0000000
     0.0000000     0.0000000     0.0000000     0.0000000     0.0000000     0.0000000     0.0000000
     0.0000000     0.0000000     0.0000000     0.0000000     0.0000000     0.0000000     0.0000000
     0.0000000     0.0000000     0.0000000     0.0000000     0.0000000     0.0000000     0.0000000
     0.0000000     0.0000000     0.0000000     0.0000000     0.0000000     0.0000000     0.0000000
     0.0000000     0.0000000     0.0000000     0.0000000     0.0000000     0.0000000     0.0000000
     0.0000000     0.0000000     0.0000000     0.0000000     0.0000000     0.0000000     0.0000000

 Ion:   28  E_soc:     -0.0555632
 l=   1
     0.0000000    -0.0025463    -0.0025513
    -0.0025463     0.0000000    -0.0025518
    -0.0025513    -0.0025518     0.0000000
 l=   2
     0.0000000    -0.0013512     0.0000000    -0.0013522    -0.0053600
    -0.0013512     0.0000000    -0.0040195    -0.0013508    -0.0013395
     0.0000000    -0.0040195     0.0000000    -0.0040190     0.0000000
    -0.0013522    -0.0013508    -0.0040190     0.0000000    -0.0013399
    -0.0053600    -0.0013395     0.0000000    -0.0013399     0.0000000
 l=   3
     0.0000000     0.0000000     0.0000000     0.0000000     0.0000000     0.0000000     0.0000000
     0.0000000     0.0000000     0.0000000     0.0000000     0.0000000     0.0000000     0.0000000
     0.0000000     0.0000000     0.0000000     0.0000000     0.0000000     0.0000000     0.0000000
     0.0000000     0.0000000     0.0000000     0.0000000     0.0000000     0.0000000     0.0000000
     0.0000000     0.0000000     0.0000000     0.0000000     0.0000000     0.0000000     0.0000000
     0.0000000     0.0000000     0.0000000     0.0000000     0.0000000     0.0000000     0.0000000
     0.0000000     0.0000000     0.0000000     0.0000000     0.0000000     0.0000000     0.0000000

 Ion:   29  E_soc:     -0.0546263
 l=   1
     0.0000000    -0.0023757    -0.0023770
    -0.0023757     0.0000000    -0.0023771
    -0.0023770    -0.0023771     0.0000000
 l=   2
     0.0000000    -0.0013586     0.0000000    -0.0013560    -0.0053648
    -0.0013586     0.0000000    -0.0040325    -0.0013606    -0.0013447
     0.0000000    -0.0040325     0.0000000    -0.0040225     0.0000000
    -0.0013560    -0.0013606    -0.0040225     0.0000000    -0.0013437
    -0.0053648    -0.0013447     0.0000000    -0.0013437     0.0000000
 l=   3
     0.0000000     0.0000000     0.0000000     0.0000000     0.0000000     0.0000000     0.0000000
     0.0000000     0.0000000     0.0000000     0.0000000     0.0000000     0.0000000     0.0000000
     0.0000000     0.0000000     0.0000000     0.0000000     0.0000000     0.0000000     0.0000000
     0.0000000     0.0000000     0.0000000     0.0000000     0.0000000     0.0000000     0.0000000
     0.0000000     0.0000000     0.0000000     0.0000000     0.0000000     0.0000000     0.0000000
     0.0000000     0.0000000     0.0000000     0.0000000     0.0000000     0.0000000     0.0000000
     0.0000000     0.0000000     0.0000000     0.0000000     0.0000000     0.0000000     0.0000000

 Ion:   30  E_soc:     -0.0556682
 l=   1
     0.0000000    -0.0025648    -0.0025968
    -0.0025648     0.0000000    -0.0025611
    -0.0025968    -0.0025611     0.0000000
 l=   2
     0.0000000    -0.0013484     0.0000000    -0.0013484    -0.0053523
    -0.0013484     0.0000000    -0.0040171    -0.0013468    -0.0013390
     0.0000000    -0.0040171     0.0000000    -0.0040185     0.0000000
    -0.0013484    -0.0013468    -0.0040185     0.0000000    -0.0013408
    -0.0053523    -0.0013390     0.0000000    -0.0013408     0.0000000
 l=   3
     0.0000000     0.0000000     0.0000000     0.0000000     0.0000000     0.0000000     0.0000000
     0.0000000     0.0000000     0.0000000     0.0000000     0.0000000     0.0000000     0.0000000
     0.0000000     0.0000000     0.0000000     0.0000000     0.0000000     0.0000000     0.0000000
     0.0000000     0.0000000     0.0000000     0.0000000     0.0000000     0.0000000     0.0000000
     0.0000000     0.0000000     0.0000000     0.0000000     0.0000000     0.0000000     0.0000000
     0.0000000     0.0000000     0.0000000     0.0000000     0.0000000     0.0000000     0.0000000
     0.0000000     0.0000000     0.0000000     0.0000000     0.0000000     0.0000000     0.0000000

 Ion:   31  E_soc:     -0.0556559
 l=   1
     0.0000000    -0.0025625    -0.0025613
    -0.0025625     0.0000000    -0.0025968
    -0.0025613    -0.0025968     0.0000000
 l=   2
     0.0000000    -0.0013474     0.0000000    -0.0013484    -0.0053565
    -0.0013474     0.0000000    -0.0040174    -0.0013480    -0.0013384
     0.0000000    -0.0040174     0.0000000    -0.0040142     0.0000000
    -0.0013484    -0.0013480    -0.0040142     0.0000000    -0.0013371
    -0.0053565    -0.0013384     0.0000000    -0.0013371     0.0000000
 l=   3
     0.0000000     0.0000000     0.0000000     0.0000000     0.0000000     0.0000000     0.0000000
     0.0000000     0.0000000     0.0000000     0.0000000     0.0000000     0.0000000     0.0000000
     0.0000000     0.0000000     0.0000000     0.0000000     0.0000000     0.0000000     0.0000000
     0.0000000     0.0000000     0.0000000     0.0000000     0.0000000     0.0000000     0.0000000
     0.0000000     0.0000000     0.0000000     0.0000000     0.0000000     0.0000000     0.0000000
     0.0000000     0.0000000     0.0000000     0.0000000     0.0000000     0.0000000     0.0000000
     0.0000000     0.0000000     0.0000000     0.0000000     0.0000000     0.0000000     0.0000000

 Ion:   32  E_soc:     -0.0556564
 l=   1
     0.0000000    -0.0025650    -0.0025725
    -0.0025650     0.0000000    -0.0025729
    -0.0025725    -0.0025729     0.0000000
 l=   2
     0.0000000    -0.0013512     0.0000000    -0.0013520    -0.0053536
    -0.0013512     0.0000000    -0.0040187    -0.0013496    -0.0013384
     0.0000000    -0.0040187     0.0000000    -0.0040142     0.0000000
    -0.0013520    -0.0013496    -0.0040142     0.0000000    -0.0013400
    -0.0053536    -0.0013384     0.0000000    -0.0013400     0.0000000
 l=   3
     0.0000000     0.0000000     0.0000000     0.0000000     0.0000000     0.0000000     0.0000000
     0.0000000     0.0000000     0.0000000     0.0000000     0.0000000     0.0000000     0.0000000
     0.0000000     0.0000000     0.0000000     0.0000000     0.0000000     0.0000000     0.0000000
     0.0000000     0.0000000     0.0000000     0.0000000     0.0000000     0.0000000     0.0000000
     0.0000000     0.0000000     0.0000000     0.0000000     0.0000000     0.0000000     0.0000000
     0.0000000     0.0000000     0.0000000     0.0000000     0.0000000     0.0000000     0.0000000
     0.0000000     0.0000000     0.0000000     0.0000000     0.0000000     0.0000000     0.0000000

 Ion:   33  E_soc:     -0.0504336
 l=   1
     0.0000000    -0.0014177    -0.0014173
    -0.0014177     0.0000000    -0.0014171
    -0.0014173    -0.0014171     0.0000000
 l=   2
     0.0000000    -0.0013633     0.0000000    -0.0013634    -0.0056251
    -0.0013633     0.0000000    -0.0042187    -0.0013634    -0.0014062
     0.0000000    -0.0042187     0.0000000    -0.0042184     0.0000000
    -0.0013634    -0.0013634    -0.0042184     0.0000000    -0.0014061
    -0.0056251    -0.0014062     0.0000000    -0.0014061     0.0000000
 l=   3
     0.0000000     0.0000000     0.0000000     0.0000000     0.0000000     0.0000000     0.0000000
     0.0000000     0.0000000     0.0000000     0.0000000     0.0000000     0.0000000     0.0000000
     0.0000000     0.0000000     0.0000000     0.0000000     0.0000000     0.0000000     0.0000000
     0.0000000     0.0000000     0.0000000     0.0000000     0.0000000     0.0000000     0.0000000
     0.0000000     0.0000000     0.0000000     0.0000000     0.0000000     0.0000000     0.0000000
     0.0000000     0.0000000     0.0000000     0.0000000     0.0000000     0.0000000     0.0000000
     0.0000000     0.0000000     0.0000000     0.0000000     0.0000000     0.0000000     0.0000000

 Ion:   34  E_soc:     -0.1858127
 l=   1
     0.0000000    -0.0308872    -0.0308727
    -0.0308872     0.0000000    -0.0309524
    -0.0308727    -0.0309524     0.0000000
 l=   2
     0.0000000    -0.0000299     0.0000000    -0.0000296    -0.0000346
    -0.0000299     0.0000000    -0.0000254    -0.0000291    -0.0000087
     0.0000000    -0.0000254     0.0000000    -0.0000273     0.0000000
    -0.0000296    -0.0000291    -0.0000273     0.0000000    -0.0000096
    -0.0000346    -0.0000087     0.0000000    -0.0000096     0.0000000
 l=   3
     0.0000000     0.0000000     0.0000000     0.0000000     0.0000000     0.0000000     0.0000000
     0.0000000     0.0000000     0.0000000     0.0000000     0.0000000     0.0000000     0.0000000
     0.0000000     0.0000000     0.0000000     0.0000000     0.0000000     0.0000000     0.0000000
     0.0000000     0.0000000     0.0000000     0.0000000     0.0000000     0.0000000     0.0000000
     0.0000000     0.0000000     0.0000000     0.0000000     0.0000000     0.0000000     0.0000000
     0.0000000     0.0000000     0.0000000     0.0000000     0.0000000     0.0000000     0.0000000
     0.0000000     0.0000000     0.0000000     0.0000000     0.0000000     0.0000000     0.0000000

 Ion:   35  E_soc:     -0.1886168
 l=   1
     0.0000000    -0.0312746    -0.0314288
    -0.0312746     0.0000000    -0.0314355
    -0.0314288    -0.0314355     0.0000000
 l=   2
     0.0000000    -0.0000264     0.0000000    -0.0000268    -0.0000301
    -0.0000264     0.0000000    -0.0000223    -0.0000264    -0.0000074
     0.0000000    -0.0000223     0.0000000    -0.0000227     0.0000000
    -0.0000268    -0.0000264    -0.0000227     0.0000000    -0.0000074
    -0.0000301    -0.0000074     0.0000000    -0.0000074     0.0000000
 l=   3
     0.0000000     0.0000000     0.0000000     0.0000000     0.0000000     0.0000000     0.0000000
     0.0000000     0.0000000     0.0000000     0.0000000     0.0000000     0.0000000     0.0000000
     0.0000000     0.0000000     0.0000000     0.0000000     0.0000000     0.0000000     0.0000000
     0.0000000     0.0000000     0.0000000     0.0000000     0.0000000     0.0000000     0.0000000
     0.0000000     0.0000000     0.0000000     0.0000000     0.0000000     0.0000000     0.0000000
     0.0000000     0.0000000     0.0000000     0.0000000     0.0000000     0.0000000     0.0000000
     0.0000000     0.0000000     0.0000000     0.0000000     0.0000000     0.0000000     0.0000000

 Ion:   36  E_soc:     -0.1859961
 l=   1
     0.0000000    -0.0309360    -0.0309481
    -0.0309360     0.0000000    -0.0309244
    -0.0309481    -0.0309244     0.0000000
 l=   2
     0.0000000    -0.0000293     0.0000000    -0.0000292    -0.0000341
    -0.0000293     0.0000000    -0.0000254    -0.0000292    -0.0000085
     0.0000000    -0.0000254     0.0000000    -0.0000254     0.0000000
    -0.0000292    -0.0000292    -0.0000254     0.0000000    -0.0000085
    -0.0000341    -0.0000085     0.0000000    -0.0000085     0.0000000
 l=   3
     0.0000000     0.0000000     0.0000000     0.0000000     0.0000000     0.0000000     0.0000000
     0.0000000     0.0000000     0.0000000     0.0000000     0.0000000     0.0000000     0.0000000
     0.0000000     0.0000000     0.0000000     0.0000000     0.0000000     0.0000000     0.0000000
     0.0000000     0.0000000     0.0000000     0.0000000     0.0000000     0.0000000     0.0000000
     0.0000000     0.0000000     0.0000000     0.0000000     0.0000000     0.0000000     0.0000000
     0.0000000     0.0000000     0.0000000     0.0000000     0.0000000     0.0000000     0.0000000
     0.0000000     0.0000000     0.0000000     0.0000000     0.0000000     0.0000000     0.0000000

 Ion:   37  E_soc:     -0.1858474
 l=   1
     0.0000000    -0.0308891    -0.0309448
    -0.0308891     0.0000000    -0.0308960
    -0.0309448    -0.0308960     0.0000000
 l=   2
     0.0000000    -0.0000292     0.0000000    -0.0000296    -0.0000367
    -0.0000292     0.0000000    -0.0000255    -0.0000299    -0.0000084
     0.0000000    -0.0000255     0.0000000    -0.0000260     0.0000000
    -0.0000296    -0.0000299    -0.0000260     0.0000000    -0.0000086
    -0.0000367    -0.0000084     0.0000000    -0.0000086     0.0000000
 l=   3
     0.0000000     0.0000000     0.0000000     0.0000000     0.0000000     0.0000000     0.0000000
     0.0000000     0.0000000     0.0000000     0.0000000     0.0000000     0.0000000     0.0000000
     0.0000000     0.0000000     0.0000000     0.0000000     0.0000000     0.0000000     0.0000000
     0.0000000     0.0000000     0.0000000     0.0000000     0.0000000     0.0000000     0.0000000
     0.0000000     0.0000000     0.0000000     0.0000000     0.0000000     0.0000000     0.0000000
     0.0000000     0.0000000     0.0000000     0.0000000     0.0000000     0.0000000     0.0000000
     0.0000000     0.0000000     0.0000000     0.0000000     0.0000000     0.0000000     0.0000000

 Ion:   38  E_soc:     -0.1858333
 l=   1
     0.0000000    -0.0308969    -0.0308923
    -0.0308969     0.0000000    -0.0309337
    -0.0308923    -0.0309337     0.0000000
 l=   2
     0.0000000    -0.0000300     0.0000000    -0.0000296    -0.0000345
    -0.0000300     0.0000000    -0.0000254    -0.0000290    -0.0000085
     0.0000000    -0.0000254     0.0000000    -0.0000271     0.0000000
    -0.0000296    -0.0000290    -0.0000271     0.0000000    -0.0000096
    -0.0000345    -0.0000085     0.0000000    -0.0000096     0.0000000
 l=   3
     0.0000000     0.0000000     0.0000000     0.0000000     0.0000000     0.0000000     0.0000000
     0.0000000     0.0000000     0.0000000     0.0000000     0.0000000     0.0000000     0.0000000
     0.0000000     0.0000000     0.0000000     0.0000000     0.0000000     0.0000000     0.0000000
     0.0000000     0.0000000     0.0000000     0.0000000     0.0000000     0.0000000     0.0000000
     0.0000000     0.0000000     0.0000000     0.0000000     0.0000000     0.0000000     0.0000000
     0.0000000     0.0000000     0.0000000     0.0000000     0.0000000     0.0000000     0.0000000
     0.0000000     0.0000000     0.0000000     0.0000000     0.0000000     0.0000000     0.0000000

 Ion:   39  E_soc:     -0.1885887
 l=   1
     0.0000000    -0.0312537    -0.0314334
    -0.0312537     0.0000000    -0.0314378
    -0.0314334    -0.0314378     0.0000000
 l=   2
     0.0000000    -0.0000265     0.0000000    -0.0000267    -0.0000300
    -0.0000265     0.0000000    -0.0000223    -0.0000265    -0.0000074
     0.0000000    -0.0000223     0.0000000    -0.0000227     0.0000000
    -0.0000267    -0.0000265    -0.0000227     0.0000000    -0.0000074
    -0.0000300    -0.0000074     0.0000000    -0.0000074     0.0000000
 l=   3
     0.0000000     0.0000000     0.0000000     0.0000000     0.0000000     0.0000000     0.0000000
     0.0000000     0.0000000     0.0000000     0.0000000     0.0000000     0.0000000     0.0000000
     0.0000000     0.0000000     0.0000000     0.0000000     0.0000000     0.0000000     0.0000000
     0.0000000     0.0000000     0.0000000     0.0000000     0.0000000     0.0000000     0.0000000
     0.0000000     0.0000000     0.0000000     0.0000000     0.0000000     0.0000000     0.0000000
     0.0000000     0.0000000     0.0000000     0.0000000     0.0000000     0.0000000     0.0000000
     0.0000000     0.0000000     0.0000000     0.0000000     0.0000000     0.0000000     0.0000000

 Ion:   40  E_soc:     -0.1859751
 l=   1
     0.0000000    -0.0309402    -0.0309298
    -0.0309402     0.0000000    -0.0309285
    -0.0309298    -0.0309285     0.0000000
 l=   2
     0.0000000    -0.0000292     0.0000000    -0.0000292    -0.0000338
    -0.0000292     0.0000000    -0.0000253    -0.0000293    -0.0000085
     0.0000000    -0.0000253     0.0000000    -0.0000253     0.0000000
    -0.0000292    -0.0000293    -0.0000253     0.0000000    -0.0000086
    -0.0000338    -0.0000085     0.0000000    -0.0000086     0.0000000
 l=   3
     0.0000000     0.0000000     0.0000000     0.0000000     0.0000000     0.0000000     0.0000000
     0.0000000     0.0000000     0.0000000     0.0000000     0.0000000     0.0000000     0.0000000
     0.0000000     0.0000000     0.0000000     0.0000000     0.0000000     0.0000000     0.0000000
     0.0000000     0.0000000     0.0000000     0.0000000     0.0000000     0.0000000     0.0000000
     0.0000000     0.0000000     0.0000000     0.0000000     0.0000000     0.0000000     0.0000000
     0.0000000     0.0000000     0.0000000     0.0000000     0.0000000     0.0000000     0.0000000
     0.0000000     0.0000000     0.0000000     0.0000000     0.0000000     0.0000000     0.0000000

 Ion:   41  E_soc:     -0.1858193
 l=   1
     0.0000000    -0.0308871    -0.0309411
    -0.0308871     0.0000000    -0.0308869
    -0.0309411    -0.0308869     0.0000000
 l=   2
     0.0000000    -0.0000291     0.0000000    -0.0000298    -0.0000370
    -0.0000291     0.0000000    -0.0000256    -0.0000300    -0.0000084
     0.0000000    -0.0000256     0.0000000    -0.0000261     0.0000000
    -0.0000298    -0.0000300    -0.0000261     0.0000000    -0.0000086
    -0.0000370    -0.0000084     0.0000000    -0.0000086     0.0000000
 l=   3
     0.0000000     0.0000000     0.0000000     0.0000000     0.0000000     0.0000000     0.0000000
     0.0000000     0.0000000     0.0000000     0.0000000     0.0000000     0.0000000     0.0000000
     0.0000000     0.0000000     0.0000000     0.0000000     0.0000000     0.0000000     0.0000000
     0.0000000     0.0000000     0.0000000     0.0000000     0.0000000     0.0000000     0.0000000
     0.0000000     0.0000000     0.0000000     0.0000000     0.0000000     0.0000000     0.0000000
     0.0000000     0.0000000     0.0000000     0.0000000     0.0000000     0.0000000     0.0000000
     0.0000000     0.0000000     0.0000000     0.0000000     0.0000000     0.0000000     0.0000000

 Ion:   42  E_soc:     -0.1858768
 l=   1
     0.0000000    -0.0309210    -0.0309070
    -0.0309210     0.0000000    -0.0309252
    -0.0309070    -0.0309252     0.0000000
 l=   2
     0.0000000    -0.0000288     0.0000000    -0.0000287    -0.0000330
    -0.0000288     0.0000000    -0.0000247    -0.0000287    -0.0000083
     0.0000000    -0.0000247     0.0000000    -0.0000248     0.0000000
    -0.0000287    -0.0000287    -0.0000248     0.0000000    -0.0000082
    -0.0000330    -0.0000083     0.0000000    -0.0000082     0.0000000
 l=   3
     0.0000000     0.0000000     0.0000000     0.0000000     0.0000000     0.0000000     0.0000000
     0.0000000     0.0000000     0.0000000     0.0000000     0.0000000     0.0000000     0.0000000
     0.0000000     0.0000000     0.0000000     0.0000000     0.0000000     0.0000000     0.0000000
     0.0000000     0.0000000     0.0000000     0.0000000     0.0000000     0.0000000     0.0000000
     0.0000000     0.0000000     0.0000000     0.0000000     0.0000000     0.0000000     0.0000000
     0.0000000     0.0000000     0.0000000     0.0000000     0.0000000     0.0000000     0.0000000
     0.0000000     0.0000000     0.0000000     0.0000000     0.0000000     0.0000000     0.0000000

 Ion:   43  E_soc:     -0.1858823
 l=   1
     0.0000000    -0.0309213    -0.0309061
    -0.0309213     0.0000000    -0.0309186
    -0.0309061    -0.0309186     0.0000000
 l=   2
     0.0000000    -0.0000302     0.0000000    -0.0000303    -0.0000347
    -0.0000302     0.0000000    -0.0000260    -0.0000302    -0.0000087
     0.0000000    -0.0000260     0.0000000    -0.0000261     0.0000000
    -0.0000303    -0.0000302    -0.0000261     0.0000000    -0.0000087
    -0.0000347    -0.0000087     0.0000000    -0.0000087     0.0000000
 l=   3
     0.0000000     0.0000000     0.0000000     0.0000000     0.0000000     0.0000000     0.0000000
     0.0000000     0.0000000     0.0000000     0.0000000     0.0000000     0.0000000     0.0000000
     0.0000000     0.0000000     0.0000000     0.0000000     0.0000000     0.0000000     0.0000000
     0.0000000     0.0000000     0.0000000     0.0000000     0.0000000     0.0000000     0.0000000
     0.0000000     0.0000000     0.0000000     0.0000000     0.0000000     0.0000000     0.0000000
     0.0000000     0.0000000     0.0000000     0.0000000     0.0000000     0.0000000     0.0000000
     0.0000000     0.0000000     0.0000000     0.0000000     0.0000000     0.0000000     0.0000000

 Ion:   44  E_soc:     -0.1860168
 l=   1
     0.0000000    -0.0309349    -0.0309436
    -0.0309349     0.0000000    -0.0309347
    -0.0309436    -0.0309347     0.0000000
 l=   2
     0.0000000    -0.0000303     0.0000000    -0.0000303    -0.0000348
    -0.0000303     0.0000000    -0.0000262    -0.0000303    -0.0000087
     0.0000000    -0.0000262     0.0000000    -0.0000260     0.0000000
    -0.0000303    -0.0000303    -0.0000260     0.0000000    -0.0000087
    -0.0000348    -0.0000087     0.0000000    -0.0000087     0.0000000
 l=   3
     0.0000000     0.0000000     0.0000000     0.0000000     0.0000000     0.0000000     0.0000000
     0.0000000     0.0000000     0.0000000     0.0000000     0.0000000     0.0000000     0.0000000
     0.0000000     0.0000000     0.0000000     0.0000000     0.0000000     0.0000000     0.0000000
     0.0000000     0.0000000     0.0000000     0.0000000     0.0000000     0.0000000     0.0000000
     0.0000000     0.0000000     0.0000000     0.0000000     0.0000000     0.0000000     0.0000000
     0.0000000     0.0000000     0.0000000     0.0000000     0.0000000     0.0000000     0.0000000
     0.0000000     0.0000000     0.0000000     0.0000000     0.0000000     0.0000000     0.0000000

 Ion:   45  E_soc:     -0.1858980
 l=   1
     0.0000000    -0.0309129    -0.0309204
    -0.0309129     0.0000000    -0.0309301
    -0.0309204    -0.0309301     0.0000000
 l=   2
     0.0000000    -0.0000288     0.0000000    -0.0000287    -0.0000331
    -0.0000288     0.0000000    -0.0000249    -0.0000288    -0.0000083
     0.0000000    -0.0000249     0.0000000    -0.0000249     0.0000000
    -0.0000287    -0.0000288    -0.0000249     0.0000000    -0.0000082
    -0.0000331    -0.0000083     0.0000000    -0.0000082     0.0000000
 l=   3
     0.0000000     0.0000000     0.0000000     0.0000000     0.0000000     0.0000000     0.0000000
     0.0000000     0.0000000     0.0000000     0.0000000     0.0000000     0.0000000     0.0000000
     0.0000000     0.0000000     0.0000000     0.0000000     0.0000000     0.0000000     0.0000000
     0.0000000     0.0000000     0.0000000     0.0000000     0.0000000     0.0000000     0.0000000
     0.0000000     0.0000000     0.0000000     0.0000000     0.0000000     0.0000000     0.0000000
     0.0000000     0.0000000     0.0000000     0.0000000     0.0000000     0.0000000     0.0000000
     0.0000000     0.0000000     0.0000000     0.0000000     0.0000000     0.0000000     0.0000000

 Ion:   46  E_soc:     -0.1859164
 l=   1
     0.0000000    -0.0309232    -0.0309231
    -0.0309232     0.0000000    -0.0309170
    -0.0309231    -0.0309170     0.0000000
 l=   2
     0.0000000    -0.0000302     0.0000000    -0.0000303    -0.0000347
    -0.0000302     0.0000000    -0.0000260    -0.0000302    -0.0000088
     0.0000000    -0.0000260     0.0000000    -0.0000261     0.0000000
    -0.0000303    -0.0000302    -0.0000261     0.0000000    -0.0000086
    -0.0000347    -0.0000088     0.0000000    -0.0000086     0.0000000
 l=   3
     0.0000000     0.0000000     0.0000000     0.0000000     0.0000000     0.0000000     0.0000000
     0.0000000     0.0000000     0.0000000     0.0000000     0.0000000     0.0000000     0.0000000
     0.0000000     0.0000000     0.0000000     0.0000000     0.0000000     0.0000000     0.0000000
     0.0000000     0.0000000     0.0000000     0.0000000     0.0000000     0.0000000     0.0000000
     0.0000000     0.0000000     0.0000000     0.0000000     0.0000000     0.0000000     0.0000000
     0.0000000     0.0000000     0.0000000     0.0000000     0.0000000     0.0000000     0.0000000
     0.0000000     0.0000000     0.0000000     0.0000000     0.0000000     0.0000000     0.0000000

 Ion:   47  E_soc:     -0.1859371
 l=   1
     0.0000000    -0.0309332    -0.0309327
    -0.0309332     0.0000000    -0.0309174
    -0.0309327    -0.0309174     0.0000000
 l=   2
     0.0000000    -0.0000286     0.0000000    -0.0000287    -0.0000329
    -0.0000286     0.0000000    -0.0000248    -0.0000287    -0.0000084
     0.0000000    -0.0000248     0.0000000    -0.0000248     0.0000000
    -0.0000287    -0.0000287    -0.0000248     0.0000000    -0.0000083
    -0.0000329    -0.0000084     0.0000000    -0.0000083     0.0000000
 l=   3
     0.0000000     0.0000000     0.0000000     0.0000000     0.0000000     0.0000000     0.0000000
     0.0000000     0.0000000     0.0000000     0.0000000     0.0000000     0.0000000     0.0000000
     0.0000000     0.0000000     0.0000000     0.0000000     0.0000000     0.0000000     0.0000000
     0.0000000     0.0000000     0.0000000     0.0000000     0.0000000     0.0000000     0.0000000
     0.0000000     0.0000000     0.0000000     0.0000000     0.0000000     0.0000000     0.0000000
     0.0000000     0.0000000     0.0000000     0.0000000     0.0000000     0.0000000     0.0000000
     0.0000000     0.0000000     0.0000000     0.0000000     0.0000000     0.0000000     0.0000000

 Ion:   48  E_soc:     -0.1859337
 l=   1
     0.0000000    -0.0309336    -0.0309274
    -0.0309336     0.0000000    -0.0309207
    -0.0309274    -0.0309207     0.0000000
 l=   2
     0.0000000    -0.0000287     0.0000000    -0.0000287    -0.0000331
    -0.0000287     0.0000000    -0.0000248    -0.0000286    -0.0000083
     0.0000000    -0.0000248     0.0000000    -0.0000248     0.0000000
    -0.0000287    -0.0000286    -0.0000248     0.0000000    -0.0000083
    -0.0000331    -0.0000083     0.0000000    -0.0000083     0.0000000
 l=   3
     0.0000000     0.0000000     0.0000000     0.0000000     0.0000000     0.0000000     0.0000000
     0.0000000     0.0000000     0.0000000     0.0000000     0.0000000     0.0000000     0.0000000
     0.0000000     0.0000000     0.0000000     0.0000000     0.0000000     0.0000000     0.0000000
     0.0000000     0.0000000     0.0000000     0.0000000     0.0000000     0.0000000     0.0000000
     0.0000000     0.0000000     0.0000000     0.0000000     0.0000000     0.0000000     0.0000000
     0.0000000     0.0000000     0.0000000     0.0000000     0.0000000     0.0000000     0.0000000
     0.0000000     0.0000000     0.0000000     0.0000000     0.0000000     0.0000000     0.0000000

 Ion:   49  E_soc:     -0.1859499
 l=   1
     0.0000000    -0.0309231    -0.0309353
    -0.0309231     0.0000000    -0.0309216
    -0.0309353    -0.0309216     0.0000000
 l=   2
     0.0000000    -0.0000302     0.0000000    -0.0000302    -0.0000350
    -0.0000302     0.0000000    -0.0000260    -0.0000302    -0.0000087
     0.0000000    -0.0000260     0.0000000    -0.0000260     0.0000000
    -0.0000302    -0.0000302    -0.0000260     0.0000000    -0.0000086
    -0.0000350    -0.0000087     0.0000000    -0.0000086     0.0000000
 l=   3
     0.0000000     0.0000000     0.0000000     0.0000000     0.0000000     0.0000000     0.0000000
     0.0000000     0.0000000     0.0000000     0.0000000     0.0000000     0.0000000     0.0000000
     0.0000000     0.0000000     0.0000000     0.0000000     0.0000000     0.0000000     0.0000000
     0.0000000     0.0000000     0.0000000     0.0000000     0.0000000     0.0000000     0.0000000
     0.0000000     0.0000000     0.0000000     0.0000000     0.0000000     0.0000000     0.0000000
     0.0000000     0.0000000     0.0000000     0.0000000     0.0000000     0.0000000     0.0000000
     0.0000000     0.0000000     0.0000000     0.0000000     0.0000000     0.0000000     0.0000000

 Ion:   50  E_soc:     -0.1857869
 l=   1
     0.0000000    -0.0308767    -0.0308879
    -0.0308767     0.0000000    -0.0309350
    -0.0308879    -0.0309350     0.0000000
 l=   2
     0.0000000    -0.0000299     0.0000000    -0.0000291    -0.0000340
    -0.0000299     0.0000000    -0.0000258    -0.0000296    -0.0000087
     0.0000000    -0.0000258     0.0000000    -0.0000278     0.0000000
    -0.0000291    -0.0000296    -0.0000278     0.0000000    -0.0000089
    -0.0000340    -0.0000087     0.0000000    -0.0000089     0.0000000
 l=   3
     0.0000000     0.0000000     0.0000000     0.0000000     0.0000000     0.0000000     0.0000000
     0.0000000     0.0000000     0.0000000     0.0000000     0.0000000     0.0000000     0.0000000
     0.0000000     0.0000000     0.0000000     0.0000000     0.0000000     0.0000000     0.0000000
     0.0000000     0.0000000     0.0000000     0.0000000     0.0000000     0.0000000     0.0000000
     0.0000000     0.0000000     0.0000000     0.0000000     0.0000000     0.0000000     0.0000000
     0.0000000     0.0000000     0.0000000     0.0000000     0.0000000     0.0000000     0.0000000
     0.0000000     0.0000000     0.0000000     0.0000000     0.0000000     0.0000000     0.0000000

 Ion:   51  E_soc:     -0.1858019
 l=   1
     0.0000000    -0.0308787    -0.0308836
    -0.0308787     0.0000000    -0.0309445
    -0.0308836    -0.0309445     0.0000000
 l=   2
     0.0000000    -0.0000299     0.0000000    -0.0000291    -0.0000340
    -0.0000299     0.0000000    -0.0000258    -0.0000297    -0.0000086
     0.0000000    -0.0000258     0.0000000    -0.0000281     0.0000000
    -0.0000291    -0.0000297    -0.0000281     0.0000000    -0.0000089
    -0.0000340    -0.0000086     0.0000000    -0.0000089     0.0000000
 l=   3
     0.0000000     0.0000000     0.0000000     0.0000000     0.0000000     0.0000000     0.0000000
     0.0000000     0.0000000     0.0000000     0.0000000     0.0000000     0.0000000     0.0000000
     0.0000000     0.0000000     0.0000000     0.0000000     0.0000000     0.0000000     0.0000000
     0.0000000     0.0000000     0.0000000     0.0000000     0.0000000     0.0000000     0.0000000
     0.0000000     0.0000000     0.0000000     0.0000000     0.0000000     0.0000000     0.0000000
     0.0000000     0.0000000     0.0000000     0.0000000     0.0000000     0.0000000     0.0000000
     0.0000000     0.0000000     0.0000000     0.0000000     0.0000000     0.0000000     0.0000000

 Ion:   52  E_soc:     -0.1859872
 l=   1
     0.0000000    -0.0309247    -0.0309498
    -0.0309247     0.0000000    -0.0309298
    -0.0309498    -0.0309298     0.0000000
 l=   2
     0.0000000    -0.0000292     0.0000000    -0.0000293    -0.0000339
    -0.0000292     0.0000000    -0.0000254    -0.0000293    -0.0000085
     0.0000000    -0.0000254     0.0000000    -0.0000255     0.0000000
    -0.0000293    -0.0000293    -0.0000255     0.0000000    -0.0000084
    -0.0000339    -0.0000085     0.0000000    -0.0000084     0.0000000
 l=   3
     0.0000000     0.0000000     0.0000000     0.0000000     0.0000000     0.0000000     0.0000000
     0.0000000     0.0000000     0.0000000     0.0000000     0.0000000     0.0000000     0.0000000
     0.0000000     0.0000000     0.0000000     0.0000000     0.0000000     0.0000000     0.0000000
     0.0000000     0.0000000     0.0000000     0.0000000     0.0000000     0.0000000     0.0000000
     0.0000000     0.0000000     0.0000000     0.0000000     0.0000000     0.0000000     0.0000000
     0.0000000     0.0000000     0.0000000     0.0000000     0.0000000     0.0000000     0.0000000
     0.0000000     0.0000000     0.0000000     0.0000000     0.0000000     0.0000000     0.0000000

 Ion:   53  E_soc:     -0.1859752
 l=   1
     0.0000000    -0.0309300    -0.0309487
    -0.0309300     0.0000000    -0.0309193
    -0.0309487    -0.0309193     0.0000000
 l=   2
     0.0000000    -0.0000293     0.0000000    -0.0000292    -0.0000339
    -0.0000293     0.0000000    -0.0000256    -0.0000292    -0.0000084
     0.0000000    -0.0000256     0.0000000    -0.0000256     0.0000000
    -0.0000292    -0.0000292    -0.0000256     0.0000000    -0.0000085
    -0.0000339    -0.0000084     0.0000000    -0.0000085     0.0000000
 l=   3
     0.0000000     0.0000000     0.0000000     0.0000000     0.0000000     0.0000000     0.0000000
     0.0000000     0.0000000     0.0000000     0.0000000     0.0000000     0.0000000     0.0000000
     0.0000000     0.0000000     0.0000000     0.0000000     0.0000000     0.0000000     0.0000000
     0.0000000     0.0000000     0.0000000     0.0000000     0.0000000     0.0000000     0.0000000
     0.0000000     0.0000000     0.0000000     0.0000000     0.0000000     0.0000000     0.0000000
     0.0000000     0.0000000     0.0000000     0.0000000     0.0000000     0.0000000     0.0000000
     0.0000000     0.0000000     0.0000000     0.0000000     0.0000000     0.0000000     0.0000000

 Ion:   54  E_soc:     -0.1885955
 l=   1
     0.0000000    -0.0314298    -0.0312646
    -0.0314298     0.0000000    -0.0314340
    -0.0312646    -0.0314340     0.0000000
 l=   2
     0.0000000    -0.0000264     0.0000000    -0.0000265    -0.0000295
    -0.0000264     0.0000000    -0.0000223    -0.0000268    -0.0000078
     0.0000000    -0.0000223     0.0000000    -0.0000225     0.0000000
    -0.0000265    -0.0000268    -0.0000225     0.0000000    -0.0000077
    -0.0000295    -0.0000078     0.0000000    -0.0000077     0.0000000
 l=   3
     0.0000000     0.0000000     0.0000000     0.0000000     0.0000000     0.0000000     0.0000000
     0.0000000     0.0000000     0.0000000     0.0000000     0.0000000     0.0000000     0.0000000
     0.0000000     0.0000000     0.0000000     0.0000000     0.0000000     0.0000000     0.0000000
     0.0000000     0.0000000     0.0000000     0.0000000     0.0000000     0.0000000     0.0000000
     0.0000000     0.0000000     0.0000000     0.0000000     0.0000000     0.0000000     0.0000000
     0.0000000     0.0000000     0.0000000     0.0000000     0.0000000     0.0000000     0.0000000
     0.0000000     0.0000000     0.0000000     0.0000000     0.0000000     0.0000000     0.0000000

 Ion:   55  E_soc:     -0.1885675
 l=   1
     0.0000000    -0.0314226    -0.0312651
    -0.0314226     0.0000000    -0.0314267
    -0.0312651    -0.0314267     0.0000000
 l=   2
     0.0000000    -0.0000264     0.0000000    -0.0000264    -0.0000297
    -0.0000264     0.0000000    -0.0000224    -0.0000266    -0.0000077
     0.0000000    -0.0000224     0.0000000    -0.0000224     0.0000000
    -0.0000264    -0.0000266    -0.0000224     0.0000000    -0.0000077
    -0.0000297    -0.0000077     0.0000000    -0.0000077     0.0000000
 l=   3
     0.0000000     0.0000000     0.0000000     0.0000000     0.0000000     0.0000000     0.0000000
     0.0000000     0.0000000     0.0000000     0.0000000     0.0000000     0.0000000     0.0000000
     0.0000000     0.0000000     0.0000000     0.0000000     0.0000000     0.0000000     0.0000000
     0.0000000     0.0000000     0.0000000     0.0000000     0.0000000     0.0000000     0.0000000
     0.0000000     0.0000000     0.0000000     0.0000000     0.0000000     0.0000000     0.0000000
     0.0000000     0.0000000     0.0000000     0.0000000     0.0000000     0.0000000     0.0000000
     0.0000000     0.0000000     0.0000000     0.0000000     0.0000000     0.0000000     0.0000000

 Ion:   56  E_soc:     -0.1858151
 l=   1
     0.0000000    -0.0309501    -0.0308817
    -0.0309501     0.0000000    -0.0308814
    -0.0308817    -0.0308814     0.0000000
 l=   2
     0.0000000    -0.0000291     0.0000000    -0.0000300    -0.0000339
    -0.0000291     0.0000000    -0.0000282    -0.0000296    -0.0000090
     0.0000000    -0.0000282     0.0000000    -0.0000259     0.0000000
    -0.0000300    -0.0000296    -0.0000259     0.0000000    -0.0000087
    -0.0000339    -0.0000090     0.0000000    -0.0000087     0.0000000
 l=   3
     0.0000000     0.0000000     0.0000000     0.0000000     0.0000000     0.0000000     0.0000000
     0.0000000     0.0000000     0.0000000     0.0000000     0.0000000     0.0000000     0.0000000
     0.0000000     0.0000000     0.0000000     0.0000000     0.0000000     0.0000000     0.0000000
     0.0000000     0.0000000     0.0000000     0.0000000     0.0000000     0.0000000     0.0000000
     0.0000000     0.0000000     0.0000000     0.0000000     0.0000000     0.0000000     0.0000000
     0.0000000     0.0000000     0.0000000     0.0000000     0.0000000     0.0000000     0.0000000
     0.0000000     0.0000000     0.0000000     0.0000000     0.0000000     0.0000000     0.0000000

 Ion:   57  E_soc:     -0.1857831
 l=   1
     0.0000000    -0.0309476    -0.0308740
    -0.0309476     0.0000000    -0.0308756
    -0.0308740    -0.0308756     0.0000000
 l=   2
     0.0000000    -0.0000291     0.0000000    -0.0000300    -0.0000340
    -0.0000291     0.0000000    -0.0000281    -0.0000296    -0.0000089
     0.0000000    -0.0000281     0.0000000    -0.0000258     0.0000000
    -0.0000300    -0.0000296    -0.0000258     0.0000000    -0.0000088
    -0.0000340    -0.0000089     0.0000000    -0.0000088     0.0000000
 l=   3
     0.0000000     0.0000000     0.0000000     0.0000000     0.0000000     0.0000000     0.0000000
     0.0000000     0.0000000     0.0000000     0.0000000     0.0000000     0.0000000     0.0000000
     0.0000000     0.0000000     0.0000000     0.0000000     0.0000000     0.0000000     0.0000000
     0.0000000     0.0000000     0.0000000     0.0000000     0.0000000     0.0000000     0.0000000
     0.0000000     0.0000000     0.0000000     0.0000000     0.0000000     0.0000000     0.0000000
     0.0000000     0.0000000     0.0000000     0.0000000     0.0000000     0.0000000     0.0000000
     0.0000000     0.0000000     0.0000000     0.0000000     0.0000000     0.0000000     0.0000000

 Ion:   58  E_soc:     -0.1859861
 l=   1
     0.0000000    -0.0309286    -0.0309417
    -0.0309286     0.0000000    -0.0309335
    -0.0309417    -0.0309335     0.0000000
 l=   2
     0.0000000    -0.0000292     0.0000000    -0.0000294    -0.0000337
    -0.0000292     0.0000000    -0.0000253    -0.0000293    -0.0000084
     0.0000000    -0.0000253     0.0000000    -0.0000253     0.0000000
    -0.0000294    -0.0000293    -0.0000253     0.0000000    -0.0000084
    -0.0000337    -0.0000084     0.0000000    -0.0000084     0.0000000
 l=   3
     0.0000000     0.0000000     0.0000000     0.0000000     0.0000000     0.0000000     0.0000000
     0.0000000     0.0000000     0.0000000     0.0000000     0.0000000     0.0000000     0.0000000
     0.0000000     0.0000000     0.0000000     0.0000000     0.0000000     0.0000000     0.0000000
     0.0000000     0.0000000     0.0000000     0.0000000     0.0000000     0.0000000     0.0000000
     0.0000000     0.0000000     0.0000000     0.0000000     0.0000000     0.0000000     0.0000000
     0.0000000     0.0000000     0.0000000     0.0000000     0.0000000     0.0000000     0.0000000
     0.0000000     0.0000000     0.0000000     0.0000000     0.0000000     0.0000000     0.0000000

 Ion:   59  E_soc:     -0.1858153
 l=   1
     0.0000000    -0.0308803    -0.0309430
    -0.0308803     0.0000000    -0.0308900
    -0.0309430    -0.0308900     0.0000000
 l=   2
     0.0000000    -0.0000296     0.0000000    -0.0000291    -0.0000370
    -0.0000296     0.0000000    -0.0000261    -0.0000299    -0.0000086
     0.0000000    -0.0000261     0.0000000    -0.0000257     0.0000000
    -0.0000291    -0.0000299    -0.0000257     0.0000000    -0.0000085
    -0.0000370    -0.0000086     0.0000000    -0.0000085     0.0000000
 l=   3
     0.0000000     0.0000000     0.0000000     0.0000000     0.0000000     0.0000000     0.0000000
     0.0000000     0.0000000     0.0000000     0.0000000     0.0000000     0.0000000     0.0000000
     0.0000000     0.0000000     0.0000000     0.0000000     0.0000000     0.0000000     0.0000000
     0.0000000     0.0000000     0.0000000     0.0000000     0.0000000     0.0000000     0.0000000
     0.0000000     0.0000000     0.0000000     0.0000000     0.0000000     0.0000000     0.0000000
     0.0000000     0.0000000     0.0000000     0.0000000     0.0000000     0.0000000     0.0000000
     0.0000000     0.0000000     0.0000000     0.0000000     0.0000000     0.0000000     0.0000000

 Ion:   60  E_soc:     -0.1859339
 l=   1
     0.0000000    -0.0309173    -0.0309281
    -0.0309173     0.0000000    -0.0309321
    -0.0309281    -0.0309321     0.0000000
 l=   2
     0.0000000    -0.0000293     0.0000000    -0.0000292    -0.0000339
    -0.0000293     0.0000000    -0.0000255    -0.0000292    -0.0000086
     0.0000000    -0.0000255     0.0000000    -0.0000253     0.0000000
    -0.0000292    -0.0000292    -0.0000253     0.0000000    -0.0000085
    -0.0000339    -0.0000086     0.0000000    -0.0000085     0.0000000
 l=   3
     0.0000000     0.0000000     0.0000000     0.0000000     0.0000000     0.0000000     0.0000000
     0.0000000     0.0000000     0.0000000     0.0000000     0.0000000     0.0000000     0.0000000
     0.0000000     0.0000000     0.0000000     0.0000000     0.0000000     0.0000000     0.0000000
     0.0000000     0.0000000     0.0000000     0.0000000     0.0000000     0.0000000     0.0000000
     0.0000000     0.0000000     0.0000000     0.0000000     0.0000000     0.0000000     0.0000000
     0.0000000     0.0000000     0.0000000     0.0000000     0.0000000     0.0000000     0.0000000
     0.0000000     0.0000000     0.0000000     0.0000000     0.0000000     0.0000000     0.0000000

 Ion:   61  E_soc:     -0.1858288
 l=   1
     0.0000000    -0.0308858    -0.0309474
    -0.0308858     0.0000000    -0.0308871
    -0.0309474    -0.0308871     0.0000000
 l=   2
     0.0000000    -0.0000297     0.0000000    -0.0000290    -0.0000368
    -0.0000297     0.0000000    -0.0000260    -0.0000300    -0.0000085
     0.0000000    -0.0000260     0.0000000    -0.0000255     0.0000000
    -0.0000290    -0.0000300    -0.0000255     0.0000000    -0.0000085
    -0.0000368    -0.0000085     0.0000000    -0.0000085     0.0000000
 l=   3
     0.0000000     0.0000000     0.0000000     0.0000000     0.0000000     0.0000000     0.0000000
     0.0000000     0.0000000     0.0000000     0.0000000     0.0000000     0.0000000     0.0000000
     0.0000000     0.0000000     0.0000000     0.0000000     0.0000000     0.0000000     0.0000000
     0.0000000     0.0000000     0.0000000     0.0000000     0.0000000     0.0000000     0.0000000
     0.0000000     0.0000000     0.0000000     0.0000000     0.0000000     0.0000000     0.0000000
     0.0000000     0.0000000     0.0000000     0.0000000     0.0000000     0.0000000     0.0000000
     0.0000000     0.0000000     0.0000000     0.0000000     0.0000000     0.0000000     0.0000000

 Ion:   62  E_soc:     -0.1858301
 l=   1
     0.0000000    -0.0309426    -0.0308873
    -0.0309426     0.0000000    -0.0308910
    -0.0308873    -0.0308910     0.0000000
 l=   2
     0.0000000    -0.0000297     0.0000000    -0.0000300    -0.0000348
    -0.0000297     0.0000000    -0.0000272    -0.0000291    -0.0000095
     0.0000000    -0.0000272     0.0000000    -0.0000253     0.0000000
    -0.0000300    -0.0000291    -0.0000253     0.0000000    -0.0000086
    -0.0000348    -0.0000095     0.0000000    -0.0000086     0.0000000
 l=   3
     0.0000000     0.0000000     0.0000000     0.0000000     0.0000000     0.0000000     0.0000000
     0.0000000     0.0000000     0.0000000     0.0000000     0.0000000     0.0000000     0.0000000
     0.0000000     0.0000000     0.0000000     0.0000000     0.0000000     0.0000000     0.0000000
     0.0000000     0.0000000     0.0000000     0.0000000     0.0000000     0.0000000     0.0000000
     0.0000000     0.0000000     0.0000000     0.0000000     0.0000000     0.0000000     0.0000000
     0.0000000     0.0000000     0.0000000     0.0000000     0.0000000     0.0000000     0.0000000
     0.0000000     0.0000000     0.0000000     0.0000000     0.0000000     0.0000000     0.0000000

 Ion:   63  E_soc:     -0.1885984
 l=   1
     0.0000000    -0.0314297    -0.0314324
    -0.0314297     0.0000000    -0.0312679
    -0.0314324    -0.0312679     0.0000000
 l=   2
     0.0000000    -0.0000267     0.0000000    -0.0000264    -0.0000301
    -0.0000267     0.0000000    -0.0000228    -0.0000264    -0.0000074
     0.0000000    -0.0000228     0.0000000    -0.0000221     0.0000000
    -0.0000264    -0.0000264    -0.0000221     0.0000000    -0.0000075
    -0.0000301    -0.0000074     0.0000000    -0.0000075     0.0000000
 l=   3
     0.0000000     0.0000000     0.0000000     0.0000000     0.0000000     0.0000000     0.0000000
     0.0000000     0.0000000     0.0000000     0.0000000     0.0000000     0.0000000     0.0000000
     0.0000000     0.0000000     0.0000000     0.0000000     0.0000000     0.0000000     0.0000000
     0.0000000     0.0000000     0.0000000     0.0000000     0.0000000     0.0000000     0.0000000
     0.0000000     0.0000000     0.0000000     0.0000000     0.0000000     0.0000000     0.0000000
     0.0000000     0.0000000     0.0000000     0.0000000     0.0000000     0.0000000     0.0000000
     0.0000000     0.0000000     0.0000000     0.0000000     0.0000000     0.0000000     0.0000000

 Ion:   64  E_soc:     -0.1858229
 l=   1
     0.0000000    -0.0309457    -0.0308848
    -0.0309457     0.0000000    -0.0308866
    -0.0308848    -0.0308866     0.0000000
 l=   2
     0.0000000    -0.0000297     0.0000000    -0.0000300    -0.0000347
    -0.0000297     0.0000000    -0.0000273    -0.0000291    -0.0000097
     0.0000000    -0.0000273     0.0000000    -0.0000254     0.0000000
    -0.0000300    -0.0000291    -0.0000254     0.0000000    -0.0000086
    -0.0000347    -0.0000097     0.0000000    -0.0000086     0.0000000
 l=   3
     0.0000000     0.0000000     0.0000000     0.0000000     0.0000000     0.0000000     0.0000000
     0.0000000     0.0000000     0.0000000     0.0000000     0.0000000     0.0000000     0.0000000
     0.0000000     0.0000000     0.0000000     0.0000000     0.0000000     0.0000000     0.0000000
     0.0000000     0.0000000     0.0000000     0.0000000     0.0000000     0.0000000     0.0000000
     0.0000000     0.0000000     0.0000000     0.0000000     0.0000000     0.0000000     0.0000000
     0.0000000     0.0000000     0.0000000     0.0000000     0.0000000     0.0000000     0.0000000
     0.0000000     0.0000000     0.0000000     0.0000000     0.0000000     0.0000000     0.0000000

 Ion:   65  E_soc:     -0.1885564
 l=   1
     0.0000000    -0.0314328    -0.0314219
    -0.0314328     0.0000000    -0.0312539
    -0.0314219    -0.0312539     0.0000000
 l=   2
     0.0000000    -0.0000267     0.0000000    -0.0000264    -0.0000302
    -0.0000267     0.0000000    -0.0000228    -0.0000265    -0.0000073
     0.0000000    -0.0000228     0.0000000    -0.0000223     0.0000000
    -0.0000264    -0.0000265    -0.0000223     0.0000000    -0.0000074
    -0.0000302    -0.0000073     0.0000000    -0.0000074     0.0000000
 l=   3
     0.0000000     0.0000000     0.0000000     0.0000000     0.0000000     0.0000000     0.0000000
     0.0000000     0.0000000     0.0000000     0.0000000     0.0000000     0.0000000     0.0000000
     0.0000000     0.0000000     0.0000000     0.0000000     0.0000000     0.0000000     0.0000000
     0.0000000     0.0000000     0.0000000     0.0000000     0.0000000     0.0000000     0.0000000
     0.0000000     0.0000000     0.0000000     0.0000000     0.0000000     0.0000000     0.0000000
     0.0000000     0.0000000     0.0000000     0.0000000     0.0000000     0.0000000     0.0000000
     0.0000000     0.0000000     0.0000000     0.0000000     0.0000000     0.0000000     0.0000000



 total charge

# of ion       s       p       d       tot
------------------------------------------
    1        0.408   0.282   9.583  10.274
    2        0.417   0.295   9.582  10.294
    3        0.417   0.295   9.582  10.294
    4        0.416   0.296   9.583  10.294
    5        0.417   0.295   9.582  10.294
    6        0.416   0.296   9.583  10.294
    7        0.416   0.296   9.583  10.294
    8        0.414   0.293   9.583  10.290
    9        0.417   0.295   9.582  10.294
   10        0.408   0.282   9.583  10.274
   11        0.416   0.296   9.583  10.294
   12        0.417   0.295   9.582  10.294
   13        0.416   0.296   9.583  10.294
   14        0.417   0.295   9.582  10.294
   15        0.414   0.293   9.583  10.290
   16        0.416   0.296   9.583  10.294
   17        0.416   0.296   9.583  10.294
   18        0.417   0.295   9.582  10.294
   19        0.414   0.293   9.583  10.290
   20        0.416   0.296   9.583  10.294
   21        0.417   0.295   9.582  10.294
   22        0.408   0.282   9.584  10.274
   23        0.416   0.296   9.583  10.294
   24        0.417   0.295   9.582  10.294
   25        0.417   0.295   9.582  10.294
   26        0.416   0.296   9.583  10.294
   27        0.416   0.296   9.583  10.294
   28        0.414   0.293   9.583  10.290
   29        0.408   0.282   9.584  10.274
   30        0.417   0.295   9.582  10.294
   31        0.417   0.295   9.582  10.294
   32        0.416   0.296   9.583  10.294
   33        0.724   0.155   9.550  10.429
   34        1.284   2.227   0.017   3.527
   35        1.295   2.200   0.017   3.512
   36        1.284   2.225   0.016   3.525
   37        1.284   2.227   0.017   3.527
   38        1.284   2.227   0.017   3.527
   39        1.295   2.200   0.017   3.512
   40        1.284   2.225   0.016   3.525
   41        1.284   2.227   0.017   3.527
   42        1.284   2.223   0.016   3.523
   43        1.284   2.223   0.017   3.524
   44        1.284   2.224   0.017   3.524
   45        1.284   2.223   0.016   3.523
   46        1.284   2.223   0.017   3.524
   47        1.284   2.223   0.016   3.523
   48        1.284   2.223   0.016   3.523
   49        1.284   2.223   0.017   3.524
   50        1.284   2.227   0.017   3.527
   51        1.284   2.227   0.017   3.527
   52        1.284   2.225   0.016   3.525
   53        1.284   2.225   0.016   3.525
   54        1.295   2.200   0.017   3.512
   55        1.295   2.200   0.017   3.512
   56        1.284   2.227   0.017   3.527
   57        1.284   2.227   0.017   3.527
   58        1.284   2.225   0.016   3.525
   59        1.284   2.227   0.017   3.527
   60        1.284   2.225   0.016   3.525
   61        1.284   2.227   0.017   3.527
   62        1.284   2.227   0.017   3.527
   63        1.295   2.200   0.017   3.512
   64        1.284   2.227   0.017   3.527
   65        1.295   2.200   0.017   3.512
--------------------------------------------------
tot         55.147  80.595 316.730 452.471



 magnetization (x)

# of ion       s       p       d       tot
------------------------------------------
    1       -0.005  -0.004   0.002  -0.006
    2       -0.005  -0.003   0.002  -0.006
    3       -0.005  -0.003   0.002  -0.006
    4       -0.004  -0.003   0.002  -0.006
    5       -0.005  -0.003   0.002  -0.006
    6       -0.004  -0.003   0.002  -0.006
    7       -0.004  -0.003   0.002  -0.006
    8       -0.005  -0.003   0.002  -0.006
    9       -0.005  -0.003   0.002  -0.006
   10       -0.005  -0.004   0.002  -0.006
   11       -0.004  -0.003   0.002  -0.006
   12       -0.005  -0.003   0.002  -0.006
   13       -0.004  -0.003   0.002  -0.006
   14       -0.005  -0.003   0.002  -0.006
   15       -0.005  -0.003   0.002  -0.006
   16       -0.004  -0.003   0.002  -0.006
   17       -0.004  -0.003   0.002  -0.006
   18       -0.005  -0.003   0.002  -0.006
   19       -0.005  -0.003   0.002  -0.006
   20       -0.004  -0.003   0.002  -0.006
   21       -0.005  -0.003   0.002  -0.006
   22       -0.005  -0.004   0.002  -0.006
   23       -0.004  -0.003   0.002  -0.006
   24       -0.005  -0.003   0.002  -0.006
   25       -0.005  -0.003   0.002  -0.006
   26       -0.004  -0.003   0.002  -0.006
   27       -0.004  -0.003   0.002  -0.006
   28       -0.005  -0.003   0.002  -0.006
   29       -0.005  -0.004   0.002  -0.006
   30       -0.005  -0.003   0.002  -0.006
   31       -0.005  -0.003   0.002  -0.006
   32       -0.004  -0.003   0.002  -0.006
   33        0.021  -0.003   0.002   0.019
   34        0.008   0.023  -0.000   0.030
   35        0.008   0.026  -0.000   0.033
   36        0.008   0.022  -0.000   0.030
   37        0.008   0.023  -0.000   0.030
   38        0.008   0.023  -0.000   0.030
   39        0.008   0.026  -0.000   0.033
   40        0.008   0.022  -0.000   0.030
   41        0.008   0.023  -0.000   0.030
   42        0.008   0.023  -0.000   0.030
   43        0.008   0.022  -0.000   0.030
   44        0.008   0.023  -0.000   0.030
   45        0.008   0.023  -0.000   0.030
   46        0.008   0.023  -0.000   0.030
   47        0.008   0.023  -0.000   0.030
   48        0.008   0.022  -0.000   0.030
   49        0.008   0.023  -0.000   0.030
   50        0.008   0.023  -0.000   0.030
   51        0.008   0.023  -0.000   0.030
   52        0.008   0.022  -0.000   0.030
   53        0.008   0.022  -0.000   0.030
   54        0.008   0.026  -0.000   0.033
   55        0.008   0.026  -0.000   0.033
   56        0.008   0.023  -0.000   0.030
   57        0.008   0.023  -0.000   0.030
   58        0.008   0.022  -0.000   0.030
   59        0.008   0.023  -0.000   0.030
   60        0.008   0.022  -0.000   0.030
   61        0.008   0.023  -0.000   0.030
   62        0.008   0.023  -0.000   0.030
   63        0.008   0.026  -0.000   0.033
   64        0.008   0.023  -0.000   0.030
   65        0.008   0.026  -0.000   0.033
--------------------------------------------------
tot          0.123   0.629   0.061   0.812



 magnetization (y)

# of ion       s       p       d       tot
------------------------------------------
    1       -0.005  -0.004   0.002  -0.006
    2       -0.005  -0.003   0.002  -0.006
    3       -0.005  -0.003   0.002  -0.006
    4       -0.004  -0.003   0.002  -0.006
    5       -0.005  -0.003   0.002  -0.006
    6       -0.004  -0.003   0.002  -0.006
    7       -0.004  -0.003   0.002  -0.006
    8       -0.005  -0.003   0.002  -0.006
    9       -0.005  -0.003   0.002  -0.006
   10       -0.005  -0.004   0.002  -0.006
   11       -0.004  -0.003   0.002  -0.006
   12       -0.005  -0.003   0.002  -0.006
   13       -0.004  -0.003   0.002  -0.006
   14       -0.005  -0.003   0.002  -0.006
   15       -0.005  -0.003   0.002  -0.006
   16       -0.004  -0.003   0.002  -0.006
   17       -0.004  -0.003   0.002  -0.006
   18       -0.005  -0.003   0.002  -0.006
   19       -0.005  -0.003   0.002  -0.006
   20       -0.004  -0.003   0.002  -0.006
   21       -0.005  -0.003   0.002  -0.006
   22       -0.005  -0.004   0.002  -0.006
   23       -0.004  -0.003   0.002  -0.006
   24       -0.005  -0.003   0.002  -0.006
   25       -0.005  -0.003   0.002  -0.006
   26       -0.004  -0.003   0.002  -0.006
   27       -0.004  -0.003   0.002  -0.006
   28       -0.005  -0.003   0.002  -0.006
   29       -0.005  -0.004   0.002  -0.006
   30       -0.005  -0.003   0.002  -0.006
   31       -0.005  -0.003   0.002  -0.006
   32       -0.004  -0.003   0.002  -0.006
   33        0.021  -0.003   0.002   0.019
   34        0.008   0.023  -0.000   0.030
   35        0.008   0.026  -0.000   0.033
   36        0.008   0.022  -0.000   0.030
   37        0.008   0.023  -0.000   0.030
   38        0.008   0.023  -0.000   0.030
   39        0.008   0.026  -0.000   0.033
   40        0.008   0.022  -0.000   0.030
   41        0.008   0.023  -0.000   0.030
   42        0.008   0.023  -0.000   0.030
   43        0.008   0.022  -0.000   0.030
   44        0.008   0.023  -0.000   0.030
   45        0.008   0.023  -0.000   0.030
   46        0.008   0.023  -0.000   0.030
   47        0.008   0.023  -0.000   0.030
   48        0.008   0.022  -0.000   0.030
   49        0.008   0.023  -0.000   0.030
   50        0.008   0.023  -0.000   0.030
   51        0.008   0.023  -0.000   0.030
   52        0.008   0.022  -0.000   0.030
   53        0.008   0.022  -0.000   0.030
   54        0.008   0.026  -0.000   0.033
   55        0.008   0.026  -0.000   0.033
   56        0.008   0.023  -0.000   0.030
   57        0.008   0.023  -0.000   0.030
   58        0.008   0.022  -0.000   0.030
   59        0.008   0.023  -0.000   0.030
   60        0.008   0.022  -0.000   0.030
   61        0.008   0.023  -0.000   0.030
   62        0.008   0.023  -0.000   0.030
   63        0.008   0.026  -0.000   0.033
   64        0.008   0.023  -0.000   0.030
   65        0.008   0.026  -0.000   0.033
--------------------------------------------------
tot          0.123   0.629   0.061   0.812



 magnetization (z)

# of ion       s       p       d       tot
------------------------------------------
    1       -0.005  -0.004   0.002  -0.006
    2       -0.005  -0.003   0.002  -0.006
    3       -0.005  -0.003   0.002  -0.006
    4       -0.004  -0.003   0.002  -0.006
    5       -0.005  -0.003   0.002  -0.006
    6       -0.004  -0.003   0.002  -0.006
    7       -0.004  -0.003   0.002  -0.006
    8       -0.005  -0.003   0.002  -0.006
    9       -0.005  -0.003   0.002  -0.006
   10       -0.005  -0.004   0.002  -0.006
   11       -0.004  -0.003   0.002  -0.006
   12       -0.005  -0.003   0.002  -0.006
   13       -0.004  -0.003   0.002  -0.006
   14       -0.005  -0.003   0.002  -0.006
   15       -0.005  -0.003   0.002  -0.006
   16       -0.004  -0.003   0.002  -0.006
   17       -0.004  -0.003   0.002  -0.006
   18       -0.005  -0.003   0.002  -0.006
   19       -0.005  -0.003   0.002  -0.006
   20       -0.004  -0.003   0.002  -0.006
   21       -0.005  -0.003   0.002  -0.006
   22       -0.005  -0.004   0.002  -0.006
   23       -0.004  -0.003   0.002  -0.006
   24       -0.005  -0.003   0.002  -0.006
   25       -0.005  -0.003   0.002  -0.006
   26       -0.004  -0.003   0.002  -0.006
   27       -0.004  -0.003   0.002  -0.006
   28       -0.005  -0.003   0.002  -0.006
   29       -0.005  -0.004   0.002  -0.006
   30       -0.005  -0.003   0.002  -0.006
   31       -0.005  -0.003   0.002  -0.006
   32       -0.004  -0.003   0.002  -0.006
   33        0.021  -0.003   0.002   0.019
   34        0.008   0.023  -0.000   0.030
   35        0.008   0.026  -0.000   0.033
   36        0.008   0.022  -0.000   0.030
   37        0.008   0.023  -0.000   0.030
   38        0.008   0.023  -0.000   0.030
   39        0.008   0.026  -0.000   0.033
   40        0.008   0.022  -0.000   0.030
   41        0.008   0.023  -0.000   0.030
   42        0.008   0.023  -0.000   0.030
   43        0.008   0.023  -0.000   0.030
   44        0.008   0.023  -0.000   0.030
   45        0.008   0.022  -0.000   0.030
   46        0.008   0.023  -0.000   0.030
   47        0.008   0.023  -0.000   0.030
   48        0.008   0.022  -0.000   0.030
   49        0.008   0.023  -0.000   0.030
   50        0.008   0.023  -0.000   0.030
   51        0.008   0.023  -0.000   0.030
   52        0.008   0.022  -0.000   0.030
   53        0.008   0.022  -0.000   0.030
   54        0.008   0.026  -0.000   0.033
   55        0.008   0.026  -0.000   0.033
   56        0.008   0.023  -0.000   0.030
   57        0.008   0.023  -0.000   0.030
   58        0.008   0.022  -0.000   0.030
   59        0.008   0.023  -0.000   0.030
   60        0.008   0.022  -0.000   0.030
   61        0.008   0.023  -0.000   0.030
   62        0.008   0.023  -0.000   0.030
   63        0.008   0.026  -0.000   0.033
   64        0.008   0.023  -0.000   0.030
   65        0.008   0.026  -0.000   0.033
--------------------------------------------------
tot          0.123   0.629   0.061   0.812


 total amount of memory used by VASP MPI-rank0   132210. kBytes
=======================================================================

   base                                    :      30000. kBytes
   nonl-proj                               :      10593. kBytes
   fftplans                                :       7537. kBytes
   grid                                    :      15925. kBytes
   one-center                              :        311. kBytes
   HF                                      :        129. kBytes
   nonlr-proj                              :      10576. kBytes
   wavefun                                 :      15261. kBytes
   fock_wrk                                :      41878. kBytes

  
  
 General timing and accounting informations for this job:
 ========================================================
  
                  Total CPU time used (sec):      842.468
                            User time (sec):      816.675
                          System time (sec):       25.793
                         Elapsed time (sec):      884.364
  
                   Maximum memory used (kb):      883484.
                   Average memory used (kb):          N/A
  
                          Minor page faults:       246205
                          Major page faults:          227
                 Voluntary context switches:         6736
