 vasp.6.5.1 10Mar25 (build Nov  5 2025 10:40:17) complex                         
 executed on        HPECrayEX_GCC date 2025.12.19  09:32:14
 running 1152 mpi-ranks, with    1 threads/rank, on    4 nodes
 distrk:  each k-point on  288 cores,    4 groups
 distr:  one band on NCORE=   4 cores,   72 groups


--------------------------------------------------------------------------------------------------------


 INCAR:
   AEXX = 0.25
   ENCUT = 450
   ICORELEVEL = 0
   NSW = 0
   LSORBIT = True
   EDIFF = 1e-06
   EDIFFG = -0.01
   ALGO = All
   ADDGRID = True
   HFSCREEN = 0.2
   IBRION = -1
   ICHARG = 1
   ISIF = 2
   ISYM = 0
   ISMEAR = 0
   LASPH = True
   LHFCALC = True
   LORBIT = 11
   LREAL = False
   LVHAR = True
   LWAVE = True
   NEDOS = 2000
   NELM = 6
   PREC = Accurate
   PRECFOCK = Fast
   SIGMA = 0.05
   NELECT = 588
   NCORE = 4
   KPAR = 4

 POTCAR:    PAW_PBE Cd 06Sep2000                  
 POTCAR:    PAW_PBE Te 08Apr2002                  
 -----------------------------------------------------------------------------
|                                                                             |
|           W    W    AA    RRRRR   N    N  II  N    N   GGGG   !!!           |
|           W    W   A  A   R    R  NN   N  II  NN   N  G    G  !!!           |
|           W    W  A    A  R    R  N N  N  II  N N  N  G       !!!           |
|           W WW W  AAAAAA  RRRRR   N  N N  II  N  N N  G  GGG   !            |
|           WW  WW  A    A  R   R   N   NN  II  N   NN  G    G                |
|           W    W  A    A  R    R  N    N  II  N    N   GGGG   !!!           |
|                                                                             |
|     You requested a magnetic or noncollinear calculation, but did not       |
|     specify the initial magnetic moment with the MAGMOM tag. Note that      |
|     a default of 1 will be used for all atoms. This ferromagnetic setup     |
|     may break the symmetry of the crystal, in particular it may rule        |
|     out finding an antiferromagnetic solution. Thence, we recommend         |
|     setting the initial magnetic moment manually or verifying carefully     |
|     that this magnetic setup is desired.                                    |
|                                                                             |
 -----------------------------------------------------------------------------

 POTCAR:    PAW_PBE Cd 06Sep2000                  
   VRHFIN =Cd : s2 d10                                                                              
   LEXCH  = PE                                                                                      
   EATOM  =  1293.1815 eV,   95.0462 Ry                                                             
                                                                                                    
   TITEL  = PAW_PBE Cd 06Sep2000                                                                    
   LULTRA =        F    use ultrasoft PP ?                                                          
   IUNSCR =        1    unscreen: 0-lin 1-nonlin 2-no                                               
   RPACOR =    2.000    partial core radius                                                         
   POMASS =  112.411; ZVAL   =   12.000    mass and valenz                                          
   RCORE  =    2.300    outmost cutoff radius                                                       
   RWIGS  =    2.980; RWIGS  =    1.577    wigner-seitz radius (au A)                               
   ENMAX  =  274.336; ENMIN  =  205.752 eV                                                          
   RCLOC  =    2.054    cutoff for local pot                                                        
   LCOR   =        T    correct aug charges                                                         
   LPAW   =        T    paw PP                                                                      
   EAUG   =  456.106                                                                                
   DEXC   =    0.000                                                                                
   RMAX   =    2.358    core radius for proj-oper                                                   
   RAUG   =    1.300    factor for augmentation sphere                                              
   RDEP   =    2.450    radius for radial grids                                                     
   RDEPT  =    1.955    core radius for aug-charge                                                  
                                                                                                    
   Atomic configuration                                                                             
   12 entries                                                                                       
     n  l   j            E        occ.                                                              
     1  0  0.50    -26519.7817   2.0000                                                             
     2  0  0.50     -3936.9612   2.0000                                                             
     2  1  1.50     -3532.2230   6.0000                                                             
     3  0  0.50      -733.7908   2.0000                                                             
     3  1  1.50      -601.0792   6.0000                                                             
     3  2  2.50      -393.5307  10.0000                                                             
     4  0  0.50      -105.8977   2.0000                                                             
     4  1  1.50       -66.9488   6.0000                                                             
     4  2  2.50       -11.7331  10.0000                                                             
     5  0  0.50        -5.6592   2.0000                                                             
     5  1  0.50        -1.3606   0.0000                                                             
     4  3  2.50        -1.3606   0.0000                                                             
   Description                                                                                      
     l       E           TYP  RCUT    TYP  RCUT                                                     
     2    -11.7331479     23  2.300                                                                 
     2    -13.0937305     23  2.300                                                                 
     0     -5.6591502     23  2.300                                                                 
     0     -1.5561433     23  2.300                                                                 
     1     -2.7211652     23  2.300                                                                 
     1      8.3548275     23  2.300                                                                 
  local pseudopotential read in
  partial core-charges read in
  partial kinetic energy density read in
  atomic valenz-charges read in
  non local Contribution for L=           2  read in
    real space projection operators read in
  non local Contribution for L=           2  read in
    real space projection operators read in
  non local Contribution for L=           0  read in
    real space projection operators read in
  non local Contribution for L=           0  read in
    real space projection operators read in
  non local Contribution for L=           1  read in
    real space projection operators read in
  non local Contribution for L=           1  read in
    real space projection operators read in
    PAW grid and wavefunctions read in

   number of l-projection  operators is LMAX  =           6
   number of lm-projection operators is LMMAX =          18

 POTCAR:    PAW_PBE Te 08Apr2002                  
   VRHFIN =Te: s2p4                                                                                 
   LEXCH  = PE                                                                                      
   EATOM  =   223.2721 eV,   16.4100 Ry                                                             
                                                                                                    
   TITEL  = PAW_PBE Te 08Apr2002                                                                    
   LULTRA =        F    use ultrasoft PP ?                                                          
   IUNSCR =        1    unscreen: 0-lin 1-nonlin 2-no                                               
   RPACOR =    2.200    partial core radius                                                         
   POMASS =  127.600; ZVAL   =    6.000    mass and valenz                                          
   RCORE  =    2.300    outmost cutoff radius                                                       
   RWIGS  =    2.900; RWIGS  =    1.535    wigner-seitz radius (au A)                               
   ENMAX  =  174.982; ENMIN  =  131.236 eV                                                          
   ICORE  =        3    local potential                                                             
   LCOR   =        T    correct aug charges                                                         
   LPAW   =        T    paw PP                                                                      
   EAUG   =  368.792                                                                                
   DEXC   =    0.000                                                                                
   RMAX   =    2.345    core radius for proj-oper                                                   
   RAUG   =    1.300    factor for augmentation sphere                                              
   RDEP   =    2.397    radius for radial grids                                                     
   RDEPT  =    2.174    core radius for aug-charge                                                  
                                                                                                    
   Atomic configuration                                                                             
   13 entries                                                                                       
     n  l   j            E        occ.                                                              
     1  0  0.50    -31621.2075   2.0000                                                             
     2  0  0.50     -4848.7941   2.0000                                                             
     2  1  1.50     -4352.1960   6.0000                                                             
     3  0  0.50      -964.9612   2.0000                                                             
     3  1  1.50      -803.6179   6.0000                                                             
     3  2  2.50      -559.8710  10.0000                                                             
     4  0  0.50      -164.3522   2.0000                                                             
     4  1  1.50      -114.3756   6.0000                                                             
     4  2  2.50       -41.6483  10.0000                                                             
     5  0  0.50       -15.1072   2.0000                                                             
     5  1  0.50        -5.9526   4.0000                                                             
     5  2  1.50        -5.4423   0.0000                                                             
     4  3  2.50        -5.4423   0.0000                                                             
   Description                                                                                      
     l       E           TYP  RCUT    TYP  RCUT                                                     
     0    -15.1072389     23  2.300                                                                 
     0    -16.4678215     23  2.300                                                                 
     1     -5.9526306     23  2.300                                                                 
     1     -2.4873968     23  2.300                                                                 
     2     -5.4423304     23  2.300                                                                 
     3     -1.3605826     23  2.300                                                                 
  local pseudopotential read in
  partial core-charges read in
  partial kinetic energy density read in
  atomic valenz-charges read in
  non local Contribution for L=           0  read in
    real space projection operators read in
  non local Contribution for L=           0  read in
    real space projection operators read in
  non local Contribution for L=           1  read in
    real space projection operators read in
  non local Contribution for L=           1  read in
    real space projection operators read in
  non local Contribution for L=           2  read in
    real space projection operators read in
    PAW grid and wavefunctions read in

   number of l-projection  operators is LMAX  =           5
   number of lm-projection operators is LMMAX =          13

 -----------------------------------------------------------------------------
|                                                                             |
|               ----> ADVICE to this user running VASP <----                  |
|                                                                             |
|     You have a (more or less) 'large supercell' and for larger cells it     |
|     might be more efficient to use real-space projection operators.         |
|     Therefore, try LREAL= Auto in the INCAR file.                           |
|     Mind: For very accurate calculation, you might also keep the            |
|     reciprocal projection scheme (i.e. LREAL=.FALSE.).                      |
|                                                                             |
 -----------------------------------------------------------------------------

  PAW_PBE Cd 06Sep2000                  :
 energy of atom  1       EATOM=-1293.1815
 kinetic energy error for atom=    0.0084 (will be added to EATOM!!)
  PAW_PBE Te 08Apr2002                  :
 energy of atom  2       EATOM= -223.2721
 kinetic energy error for atom=    0.0008 (will be added to EATOM!!)


 POSCAR: Cd33 Te32
  positions in direct lattice
  No initial velocities read in


 exchange-correlation table for PE
   RHO(1)=    0.500       N(1)  =     2000
   RHO(2)=  100.500       N(2)  =     4000



--------------------------------------------------------------------------------------------------------


 ion  position               nearest neighbor table
   1  0.004  0.996  0.004-  44 2.79  35 2.93  54 2.93  65 2.93  33 2.94
   2  0.001  0.999  0.497-  55 2.82  34 2.82  64 2.82  45 2.84
   3  0.001  0.503  0.001-  63 2.82  56 2.82  37 2.82  42 2.84
   4  1.000  0.501  0.499-  57 2.82  62 2.82  36 2.82  43 2.84
   5  0.497  0.999  0.001-  39 2.82  50 2.82  61 2.82  48 2.84
   6  0.499  0.000  0.499-  38 2.82  51 2.82  60 2.82  49 2.84
   7  0.499  0.501  1.000-  41 2.82  59 2.82  52 2.82  46 2.84
   8  0.501  0.499  0.501-  47 2.82  40 2.83  53 2.83  58 2.83
   9  0.001  0.251  0.253-  54 2.82  34 2.82  62 2.82  42 2.84
  10  0.004  0.254  0.746-  43 2.79  35 2.93  55 2.93  63 2.93  33 2.94
  11  1.000  0.749  0.251-  56 2.82  64 2.82  36 2.82  44 2.84
  12  0.001  0.747  0.749-  65 2.82  57 2.82  37 2.82  45 2.84
  13  0.499  0.250  0.251-  38 2.82  50 2.82  58 2.82  46 2.84
  14  0.497  0.251  0.749-  39 2.82  51 2.82  59 2.82  47 2.84
  15  0.501  0.751  0.249-  48 2.82  40 2.83  52 2.83  60 2.83
  16  0.499  0.749  0.750-  41 2.82  61 2.82  53 2.82  49 2.84
  17  0.251  0.000  0.251-  34 2.82  50 2.82  60 2.82  44 2.84
  18  0.253  0.999  0.749-  35 2.82  51 2.82  61 2.82  45 2.84
  19  0.249  0.499  0.249-  42 2.82  36 2.83  52 2.83  58 2.83
  20  0.251  0.501  0.750-  37 2.82  59 2.82  53 2.82  43 2.84
  21  0.749  0.999  0.253-  54 2.82  38 2.82  64 2.82  48 2.84
  22  0.746  0.996  0.746-  49 2.79  39 2.93  55 2.93  65 2.93  33 2.94
  23  0.750  0.501  0.251-  56 2.82  62 2.82  40 2.82  46 2.84
  24  0.749  0.503  0.749-  63 2.82  57 2.82  41 2.82  47 2.84
  25  0.253  0.251  0.001-  35 2.82  50 2.82  59 2.82  42 2.84
  26  0.251  0.250  0.499-  34 2.82  51 2.82  58 2.82  43 2.84
  27  0.251  0.749  1.000-  37 2.82  61 2.82  52 2.82  44 2.84
  28  0.249  0.751  0.501-  45 2.82  36 2.83  53 2.83  60 2.83
  29  0.746  0.254  0.004-  46 2.79  39 2.93  54 2.93  63 2.93  33 2.94
  30  0.749  0.251  0.497-  55 2.82  38 2.82  62 2.82  47 2.84
  31  0.749  0.747  0.001-  65 2.82  56 2.82  41 2.82  48 2.84
  32  0.750  0.749  0.499-  57 2.82  64 2.82  40 2.82  49 2.84
  33  0.875  0.125  0.875-   1 2.94  10 2.94  22 2.94  29 2.94  35 3.37  39 3.37  54 3.37  55 3.37
                            63 3.37  65 3.37
  34  0.127  0.125  0.375-  17 2.82  26 2.82   2 2.82   9 2.82
  35  0.133  0.125  0.875-  18 2.82  25 2.82  10 2.93   1 2.93  33 3.37
  36  0.126  0.625  0.375-   4 2.82  11 2.82  19 2.83  28 2.83
  37  0.127  0.625  0.875-  20 2.82  27 2.82   3 2.82  12 2.82
  38  0.623  0.125  0.375-  13 2.82   6 2.82  21 2.82  30 2.82
  39  0.617  0.125  0.875-  14 2.82   5 2.82  22 2.93  29 2.93  33 3.37
  40  0.624  0.625  0.375-  23 2.82  32 2.82   8 2.83  15 2.83
  41  0.623  0.625  0.875-   7 2.82  16 2.82  31 2.82  24 2.82
  42  0.125  0.375  0.125-  19 2.82   9 2.84  25 2.84   3 2.84
  43  0.127  0.377  0.623-  10 2.79   4 2.84  26 2.84  20 2.84
  44  0.127  0.873  0.127-   1 2.79  11 2.84  17 2.84  27 2.84
  45  0.125  0.875  0.625-  28 2.82  18 2.84   2 2.84  12 2.84
  46  0.623  0.377  0.127-  29 2.79  13 2.84  23 2.84   7 2.84
  47  0.625  0.375  0.625-   8 2.82  14 2.84  24 2.84  30 2.84
  48  0.625  0.875  0.125-  15 2.82  21 2.84   5 2.84  31 2.84
  49  0.623  0.873  0.623-  22 2.79  32 2.84   6 2.84  16 2.84
  50  0.375  0.125  0.127-  17 2.82  13 2.82   5 2.82  25 2.82
  51  0.375  0.125  0.623-   6 2.82  26 2.82  18 2.82  14 2.82
  52  0.375  0.625  0.126-   7 2.82  27 2.82  19 2.83  15 2.83
  53  0.375  0.625  0.624-  16 2.82  20 2.82   8 2.83  28 2.83
  54  0.875  0.125  0.133-   9 2.82  21 2.82   1 2.93  29 2.93  33 3.37
  55  0.875  0.125  0.617-  30 2.82   2 2.82  22 2.93  10 2.93  33 3.37
  56  0.875  0.625  0.127-  11 2.82  23 2.82   3 2.82  31 2.82
  57  0.875  0.625  0.623-   4 2.82  32 2.82  12 2.82  24 2.82
  58  0.375  0.376  0.375-  26 2.82  13 2.82  19 2.83   8 2.83
  59  0.375  0.377  0.875-   7 2.82  20 2.82  14 2.82  25 2.82
  60  0.375  0.874  0.375-   6 2.82  17 2.82  15 2.83  28 2.83
  61  0.375  0.873  0.875-  16 2.82  27 2.82   5 2.82  18 2.82
  62  0.875  0.377  0.375-   4 2.82  23 2.82   9 2.82  30 2.82
  63  0.875  0.383  0.875-  24 2.82   3 2.82  10 2.93  29 2.93  33 3.37
  64  0.875  0.873  0.375-  11 2.82  32 2.82   2 2.82  21 2.82
  65  0.875  0.867  0.875-  12 2.82  31 2.82   1 2.93  22 2.93  33 3.37


IMPORTANT INFORMATION: All symmetrisations will be switched off!
NOSYMM: (Re-)initialisation of all symmetry stuff for point group C_1.


----------------------------------------------------------------------------------------

                                     Primitive cell                                     

  volume of cell :    2241.2856

  direct lattice vectors                    reciprocal lattice vectors
    13.086768000  0.000000000  0.000000000     0.076413061  0.000000000  0.000000000
     0.000000000 13.086768000  0.000000000     0.000000000  0.076413061  0.000000000
     0.000000000  0.000000000 13.086768000     0.000000000  0.000000000  0.076413061

  length of vectors
    13.086768000 13.086768000 13.086768000     0.076413061  0.076413061  0.076413061

  position of ions in fractional coordinates (direct lattice)
     0.004485000  0.995515000  0.004485000
     0.001247000  0.998753000  0.496959000
     0.001247000  0.503041000  0.001247000
     0.999625000  0.501218000  0.498782000
     0.496959000  0.998753000  0.001247000
     0.498781000  0.000375000  0.498781000
     0.498781000  0.501219000  0.999625000
     0.500528000  0.499472000  0.500528000
     0.001247000  0.251247000  0.253040000
     0.004486000  0.254485000  0.745515000
     0.999625000  0.748782000  0.251218000
     0.001247000  0.746959000  0.748753000
     0.498782000  0.249625000  0.251219000
     0.496960000  0.251247000  0.748753000
     0.500528000  0.750528000  0.249472000
     0.498781000  0.748781000  0.750375000
     0.251219000  0.000375000  0.251219000
     0.253040000  0.998753000  0.748753000
     0.249472000  0.499472000  0.249472000
     0.251219000  0.501219000  0.750375000
     0.748753000  0.998753000  0.253040000
     0.745514000  0.995515000  0.745515000
     0.750375000  0.501219000  0.251219000
     0.748753000  0.503040000  0.748753000
     0.253040000  0.251247000  0.001247000
     0.251219000  0.249625000  0.498781000
     0.251219000  0.748781000  0.999625000
     0.249472000  0.750528000  0.500528000
     0.745514000  0.254485000  0.004485000
     0.748753000  0.251247000  0.496960000
     0.748753000  0.746959000  0.001247000
     0.750375000  0.748782000  0.498782000
     0.875000000  0.125000000  0.875000000
     0.126656000  0.125000000  0.375000000
     0.132779000  0.125000000  0.875000000
     0.125892000  0.625000000  0.375000000
     0.126656000  0.625000000  0.875000000
     0.623344000  0.125000000  0.375000000
     0.617221000  0.125000000  0.875000000
     0.624108000  0.625000000  0.375000000
     0.623344000  0.625000000  0.875000000
     0.124848000  0.374848000  0.124848000
     0.127488000  0.377488000  0.622512000
     0.127488000  0.872512000  0.127488000
     0.124848000  0.875152000  0.625152000
     0.622512000  0.377488000  0.127488000
     0.625152000  0.374848000  0.625152000
     0.625152000  0.875152000  0.124848000
     0.622512000  0.872512000  0.622512000
     0.375000000  0.125000000  0.126656000
     0.375000000  0.125000000  0.623344000
     0.375000000  0.625000000  0.125892000
     0.375000000  0.625000000  0.624108000
     0.875000000  0.125000000  0.132779000
     0.875000000  0.125000000  0.617221000
     0.875000000  0.625000000  0.126656000
     0.875000000  0.625000000  0.623344000
     0.375000000  0.375892000  0.375000000
     0.375000000  0.376656000  0.875000000
     0.375000000  0.874108000  0.375000000
     0.375000000  0.873344000  0.875000000
     0.875000000  0.376656000  0.375000000
     0.875000000  0.382779000  0.875000000
     0.875000000  0.873344000  0.375000000
     0.875000000  0.867221000  0.875000000

  ion indices of the primitive-cell ions
   primitive index   ion index
                 1           1
                 2           2
                 3           3
                 4           4
                 5           5
                 6           6
                 7           7
                 8           8
                 9           9
                10          10
                11          11
                12          12
                13          13
                14          14
                15          15
                16          16
                17          17
                18          18
                19          19
                20          20
                21          21
                22          22
                23          23
                24          24
                25          25
                26          26
                27          27
                28          28
                29          29
                30          30
                31          31
                32          32
                33          33
                34          34
                35          35
                36          36
                37          37
                38          38
                39          39
                40          40
                41          41
                42          42
                43          43
                44          44
                45          45
                46          46
                47          47
                48          48
                49          49
                50          50
                51          51
                52          52
                53          53
                54          54
                55          55
                56          56
                57          57
                58          58
                59          59
                60          60
                61          61
                62          62
                63          63
                64          64
                65          65

----------------------------------------------------------------------------------------



 KPOINTS: Automatically generated mesh            

Read explicit list of k-points.

 Found      8 k-points:

 Following reciprocal coordinates:
            Coordinates               Weight
  0.000000  0.000000  0.000000      0.125000
  0.500000  0.000000  0.000000      0.125000
  0.000000  0.500000  0.000000      0.125000
  0.500000  0.500000  0.000000      0.125000
  0.000000  0.000000  0.500000      0.125000
  0.500000  0.000000  0.500000      0.125000
  0.000000  0.500000  0.500000      0.125000
  0.500000  0.500000  0.500000      0.125000

 Following cartesian coordinates:
            Coordinates               Weight
  0.000000  0.000000  0.000000      0.125000
  0.038207  0.000000  0.000000      0.125000
  0.000000  0.038207  0.000000      0.125000
  0.038207  0.038207  0.000000      0.125000
  0.000000  0.000000  0.038207      0.125000
  0.038207  0.000000  0.038207      0.125000
  0.000000  0.038207  0.038207      0.125000
  0.038207  0.038207  0.038207      0.125000

 
 Subroutine IBZKPT_HF returns following result:
 ==============================================
 
 Found      8 k-points in 1st BZ
 the following      8 k-points will be used (e.g. in the exchange kernel)
 Following reciprocal coordinates:   # in IRBZ
  0.000000  0.000000  0.000000    0.12500000   1 t-inv F
  0.500000  0.000000  0.000000    0.12500000   2 t-inv F
  0.000000  0.500000  0.000000    0.12500000   3 t-inv F
  0.500000  0.500000  0.000000    0.12500000   4 t-inv F
  0.000000  0.000000  0.500000    0.12500000   5 t-inv F
  0.500000  0.000000  0.500000    0.12500000   6 t-inv F
  0.000000  0.500000  0.500000    0.12500000   7 t-inv F
  0.500000  0.500000  0.500000    0.12500000   8 t-inv F


--------------------------------------------------------------------------------------------------------




 Dimension of arrays:
   k-points           NKPTS =      8   k-points in BZ     NKDIM =      8   number of bands    NBANDS=    792
   number of dos      NEDOS =   2000   number of ions     NIONS =     65
   non local maximal  LDIM  =      6   non local SUM 2l+1 LMDIM =     18
   total plane-waves  NPLWV = 884736
   max r-space proj   IRMAX =      1   max aug-charges    IRDMAX= 183854
   dimension x,y,z NGX =    96 NGY =   96 NGZ =   96
   dimension x,y,z NGXF=   192 NGYF=  192 NGZF=  192
   support grid    NGXF=   384 NGYF=  384 NGZF=  384
   ions per type =              33  32
   NGX,Y,Z   is equivalent  to a cutoff of  12.20, 12.20, 12.20 a.u.
   NGXF,Y,Z  is equivalent  to a cutoff of  24.39, 24.39, 24.39 a.u.

 SYSTEM =  unknown system                          
 POSCAR =  Cd33 Te32                               

 Startparameter for this run:
   NWRITE =      2    write-flag & timer
   PREC   = accura    normal or accurate (medium, high low for compatibility)
   ISTART =      0    job   : 0-new  1-cont  2-samecut
   ICHARG =      1    charge: 1-file 2-atom 10-const
   ISPIN  =      1    spin polarized calculation?
   LNONCOLLINEAR =      T non collinear calculations
   LSORBIT =      T    spin-orbit coupling
   INIWAV =      1    electr: 0-lowe 1-rand  2-diag
   LASPH  =      T    aspherical Exc in radial PAW
 Electronic Relaxation 1
   ENCUT  =  450.0 eV  33.07 Ry    5.75 a.u.  22.64 22.64 22.64*2*pi/ulx,y,z
   ENINI  =  450.0     initial cutoff
   ENAUG  =  456.1 eV  augmentation charge cutoff
   NELM   =      6;   NELMIN=  2; NELMDL= -5     # of ELM steps 
   EDIFF  = 0.1E-05   stopping-criterion for ELM
   LREAL  =      F    real-space projection
   NLSPLINE    = F    spline interpolate recip. space projectors
   LCOMPAT=      F    compatible to vasp.4.4
   GGA_COMPAT  = T    GGA compatible to vasp.4.4-vasp.4.6
   LMAXPAW     = -100 max onsite density
   LMAXMIX     =    2 max onsite mixed and CHGCAR
   VOSKOWN=      0    Vosko Wilk Nusair interpolation
   ROPT   =    0.00000   0.00000
 Ionic relaxation
   EDIFFG = -.1E-01   stopping-criterion for IOM
   NSW    =      0    number of steps for IOM
   NBLOCK =      1;   KBLOCK =      1    inner block; outer block 
   IBRION =     -1    ionic relax: 0-MD 1-quasi-New 2-CG
   NFREE  =      0    steps in history (QN), initial steepest desc. (CG)
   ISIF   =      2    stress and relaxation
   IWAVPR =     10    prediction:  0-non 1-charg 2-wave 3-comb
   ISYM   =      0    0-nonsym 1-usesym 2-fastsym
   LCORR  =      T    Harris-Foulkes like correction to forces

   POTIM  = 0.5000    time-step for ionic-motion
   TEIN   =    0.0    initial temperature
   TEBEG  =    0.0;   TEEND  =   0.0 temperature during run
   SMASS  =  -3.00    Nose mass-parameter (am)
   estimated Nose-frequenzy (Omega)   =  0.10E-29 period in steps = 0.13E+47 mass=  -0.391E-26a.u.
   SCALEE = 1.0000    scale energy and forces
   NPACO  =    256;   APACO  = 10.0  distance and # of slots for P.C.
   PSTRESS=    0.0 pullay stress

  Mass of Ions in am
   POMASS = 112.41127.60
  Ionic Valenz
   ZVAL   =  12.00  6.00
  Atomic Wigner-Seitz radii
   RWIGS  =  -1.00 -1.00
  virtual crystal weights 
   VCA    =   1.00  1.00
   NELECT =     588.0000    total number of electrons
   NUPDOWN=      -1.0000    fix difference up-down

 DOS related values:
   EMIN   =  10.00;   EMAX   =-10.00  energy-range for DOS
   EFERMI =   0.00;   METHOD = LEGACY      
   ISMEAR =     0;   SIGMA  =   0.05  broadening in eV -4-tet -1-fermi 0-gaus
   EFERMI_NEDOS =   21; number of points for ismear=-14 and -15

 Electronic relaxation 2 (details)
   IALGO  =     58    algorithm
   LDIAG  =      T    sub-space diagonalisation (order eigenvalues)
   LSUBROT=      F    optimize rotation matrix (better conditioning)
   LROBUST=      F    robust break criterion during scf (extrapolated energy error)
   ISEARCH=      0    line search for conjugate gradient (0, 1=use gradient)
   TURBO    =      0    0=normal 1=particle mesh
   IRESTART =      0    0=no restart 2=restart with 2 vectors
   NREBOOT  =      0    no. of reboots
   NMIN     =      0    reboot dimension
   EREF     =   0.00    reference energy to select bands
   IMIX   =      4    mixing-type and parameters
     AMIX     =   0.40;   BMIX     =  1.00
     AMIX_MAG =   1.60;   BMIX_MAG =  1.00
     AMIN     =   0.10
     WC   =   100.;   INIMIX=   1;  MIXPRE=   1;  MAXMIX= -45

 Intra band minimization:
   WEIMIN = 0.0000     energy-eigenvalue tresh-hold
   EBREAK =  0.32E-09  absolut break condition
   DEPER  =   0.30     relativ break condition  

   TIME   =   0.40     timestep for ELM

  volume/ion in A,a.u.               =      34.48       232.69
  Fermi-wavevector in a.u.,A,eV,Ry     =   1.048017  1.980464 14.943809  1.098339
  Thomas-Fermi vector in A             =   2.182921

 Write flags
   LWAVE        =      T    write WAVECAR
   LDOWNSAMPLE  =      F    k-point downsampling of WAVECAR
   LCHARG       =      T    write CHGCAR
   LVTOT        =      F    write LOCPOT, total local potential
   LVHAR        =      T    write LOCPOT, Hartree potential only
   WRT_POTENTIAL=  hartree ionic  ! write potential to hdf5 file
   LELF         =      F    write electronic localiz. function (ELF)
   LORBIT       =     11    0 simple, 1 ext, 2 COOP (PROOUT), +10 PAW based schemes


 Python interface
   PLUGINS active      =      F    recompile with -DPLUGINS to activate

 Dipole corrections
   LMONO      =      F    monopole corrections only (constant potential shift)
   LDIPOL     =      F    correct potential (dipole corrections)
   IDIPOL     =      0    1-x, 2-y, 3-z, 4-all directions 
   EPSILON    =  1.0000000 bulk dielectric constant
   LVACPOTAV  =      F  vacuum potentials using an averaging scheme for the charge density
   VACPOTFLAT =  0.1000000 required flatness to determine vacuum potential

Coulomb truncation method
  LTRUNCATE          =      F  Coulomb kernel truncation to be used


 Exchange correlation treatment:
   GGA     = PE    functional components
   XC_C    = 1    coefficients multiplying the functional components
   LIBXC   =     F    Libxc                    
   VOSKOWN =     0    Vosko Wilk Nusair interpolation
   EXXOEP  =     0    0=HF, 1=EXX-LHF (local Hartree Fock) 2=EXX OEP
   LHFCALC =     T    Hartree Fock is set to
   LSYMGRAD=     F    symmetrize gradient (conserves proper symmetry)
   PRECFOCK=fast      Normal, Fast or Accurate (Low or Medium for compatibility)
   LRHFCALC=     F    long range Hartree Fock
   LRSCOR  =     F    long range correlation only (use DFT for short range part)
   LTHOMAS =     F    Thomas Fermi screening in HF
   LMODELHF=     F    short range full HF, long range fraction AEXX
   FOCKCORR=     1    mode to apply convergence corrections
   LFOCKACE=     T    use Adeptively-Compressed-Exchange operator
   ENCUT4O =  -1.0   cutoff for four orbital integrals eV
   LMAXFOCK=     4    L truncation for augmentation on plane wave grid
   LMAXFOCKAE=  -1    L truncation for all-electron charge restoration on plane wave grid
   NMAXFOCKAE=   1    number of basis functions for all-electron charge restoration
   LFOCKAEDFT=     F  apply the AE augmentation even for DFT
   NKREDX  =     1    reduce k-point grid by
   NKREDY  =     1    reduce k-point grid by
   NKREDZ  =     1    reduce k-point grid by
   SHIFTRED=     F    shift reduced grid of Gamma
   HFKIDENT=     F    idential grid for each k-point
   ODDONLY =     F    use only odd q-grid points
   EVENONLY=     F    use only even q-grid points
   HFALPHA =   -1.0000 decay constant for conv. correction
   MCALPHA =    0.0000 extent of test-charge in conv. correction in multipole expansion
   AEXX    =    0.2500 exact exchange contribution
   HFSCREEN=    0.2000 screening length (either q_TF or 0.3 A-1)
   HFSCREENC=   0.2000 screening length for correlation (either q_TF or 0.3 A-1)
   HFRCUT  =    0.0000 spherical cutoff for potential kernel
   ALDAX   =    0.7500 LDA exchange part
   AGGAX   =    0.7500 GGA exchange part
   AMGGAX  =    0.7500 meta-GGA exchange part
   ALDAC   =    1.0000 LDA correlation
   AGGAC   =    1.0000 GGA correlation
   AMGGAC  =    1.0000 meta-GGA correlation
   ENCUTFOCK=  -1.0 apply spherical cutoff to Coloumb kernel
   NBANDSGWLOW=     1    first orbital included in HF term
   NBLOCK_FOCK=    64    blocking factor in FOCK_ACC

 Parameters of functionals:
   PE:
     No parameter

 Van der Waals corrections
   IVDW    =     0    specifies the selected vdW correction

 Linear response parameters
   LEPSILON=     F    determine dielectric tensor
   LRPA    =     F    only Hartree local field effects (RPA)
   LNABLA  =     F    use nabla operator in PAW spheres
   LVEL    =     F    velocity operator in full k-point grid
   CSHIFT  =0.1000    complex shift for real part using Kramers Kronig
   OMEGAMAX=  -1.0    maximum frequency
   DEG_THRESHOLD= 0.2000000E-02 threshold for treating states as degnerate
   RTIME   =   -0.100 relaxation time in fs
  (WPLASMAI=    0.000 imaginary part of plasma frequency in eV, 0.658/RTIME)
   DFIELD  = 0.0000000 0.0000000 0.0000000 field for delta impulse in time

  Optional k-point grid parameters
   LKPOINTS_OPT  =     F    use optional k-point grid
   KPOINTS_OPT_MODE=     1    mode for optional k-point grid

 Orbital magnetization related:
   ORBITALMAG=     F  switch on orbital magnetization
   LCHIMAG   =     F  perturbation theory with respect to B field
   DQ        =  0.001000  dq finite difference perturbation B field
   LLRAUG    =     F  two centre corrections for induced B field
   LBONE     =     F  B-component reconstruction in AE one-centre
   LVGVCALC  =     T  calculate vGv susceptibility
   LVGVAPPL  =     F  apply vGv susceptibility instead of pGv for G=0

 Random number generation:
   RANDOM_GENERATOR = DEFAULT
   PCG_SEED         = not used


--------------------------------------------------------------------------------------------------------


 Static calculation
 charge density and potential will be updated during run
 non collinear spin polarized calculation
 Conjugate gradient for all bands (Freysoldt, et al. PRB 79, 241103 (2009))
 preconditioned conjugated gradient                                        
 perform sub-space diagonalisation
    before iterative eigenvector-optimisation
 modified Broyden-mixing scheme, WC =      100.0
 initial mixing is a Kerker type mixing with AMIX =  0.4000 and BMIX =      1.0000
 Hartree-type preconditioning will be used
 using additional bands          498
 reciprocal scheme for non local part
 use partial core corrections
 no Harris-corrections to forces 
 use gradient corrections 
 use of overlap-Matrix (Vanderbilt PP)
 Gauss-broadening in eV      SIGMA  =   0.05


--------------------------------------------------------------------------------------------------------


  energy-cutoff  :      450.00
  volume of cell :     2241.29
      direct lattice vectors                 reciprocal lattice vectors
    13.086768000  0.000000000  0.000000000     0.076413061  0.000000000  0.000000000
     0.000000000 13.086768000  0.000000000     0.000000000  0.076413061  0.000000000
     0.000000000  0.000000000 13.086768000     0.000000000  0.000000000  0.076413061

  length of vectors
    13.086768000 13.086768000 13.086768000     0.076413061  0.076413061  0.076413061



 k-points in units of 2pi/SCALE and weight: Automatically generated mesh            
   0.00000000  0.00000000  0.00000000       0.125
   0.03820653  0.00000000  0.00000000       0.125
   0.00000000  0.03820653  0.00000000       0.125
   0.03820653  0.03820653  0.00000000       0.125
   0.00000000  0.00000000  0.03820653       0.125
   0.03820653  0.00000000  0.03820653       0.125
   0.00000000  0.03820653  0.03820653       0.125
   0.03820653  0.03820653  0.03820653       0.125

 k-points in reciprocal lattice and weights: Automatically generated mesh            
   0.00000000  0.00000000  0.00000000       0.125
   0.50000000  0.00000000  0.00000000       0.125
   0.00000000  0.50000000  0.00000000       0.125
   0.50000000  0.50000000  0.00000000       0.125
   0.00000000  0.00000000  0.50000000       0.125
   0.50000000  0.00000000  0.50000000       0.125
   0.00000000  0.50000000  0.50000000       0.125
   0.50000000  0.50000000  0.50000000       0.125

 position of ions in fractional coordinates (direct lattice) 
   0.00448500  0.99551500  0.00448500
   0.00124700  0.99875300  0.49695900
   0.00124700  0.50304100  0.00124700
   0.99962500  0.50121800  0.49878200
   0.49695900  0.99875300  0.00124700
   0.49878100  0.00037500  0.49878100
   0.49878100  0.50121900  0.99962500
   0.50052800  0.49947200  0.50052800
   0.00124700  0.25124700  0.25304000
   0.00448600  0.25448500  0.74551500
   0.99962500  0.74878200  0.25121800
   0.00124700  0.74695900  0.74875300
   0.49878200  0.24962500  0.25121900
   0.49696000  0.25124700  0.74875300
   0.50052800  0.75052800  0.24947200
   0.49878100  0.74878100  0.75037500
   0.25121900  0.00037500  0.25121900
   0.25304000  0.99875300  0.74875300
   0.24947200  0.49947200  0.24947200
   0.25121900  0.50121900  0.75037500
   0.74875300  0.99875300  0.25304000
   0.74551400  0.99551500  0.74551500
   0.75037500  0.50121900  0.25121900
   0.74875300  0.50304000  0.74875300
   0.25304000  0.25124700  0.00124700
   0.25121900  0.24962500  0.49878100
   0.25121900  0.74878100  0.99962500
   0.24947200  0.75052800  0.50052800
   0.74551400  0.25448500  0.00448500
   0.74875300  0.25124700  0.49696000
   0.74875300  0.74695900  0.00124700
   0.75037500  0.74878200  0.49878200
   0.87500000  0.12500000  0.87500000
   0.12665600  0.12500000  0.37500000
   0.13277900  0.12500000  0.87500000
   0.12589200  0.62500000  0.37500000
   0.12665600  0.62500000  0.87500000
   0.62334400  0.12500000  0.37500000
   0.61722100  0.12500000  0.87500000
   0.62410800  0.62500000  0.37500000
   0.62334400  0.62500000  0.87500000
   0.12484800  0.37484800  0.12484800
   0.12748800  0.37748800  0.62251200
   0.12748800  0.87251200  0.12748800
   0.12484800  0.87515200  0.62515200
   0.62251200  0.37748800  0.12748800
   0.62515200  0.37484800  0.62515200
   0.62515200  0.87515200  0.12484800
   0.62251200  0.87251200  0.62251200
   0.37500000  0.12500000  0.12665600
   0.37500000  0.12500000  0.62334400
   0.37500000  0.62500000  0.12589200
   0.37500000  0.62500000  0.62410800
   0.87500000  0.12500000  0.13277900
   0.87500000  0.12500000  0.61722100
   0.87500000  0.62500000  0.12665600
   0.87500000  0.62500000  0.62334400
   0.37500000  0.37589200  0.37500000
   0.37500000  0.37665600  0.87500000
   0.37500000  0.87410800  0.37500000
   0.37500000  0.87334400  0.87500000
   0.87500000  0.37665600  0.37500000
   0.87500000  0.38277900  0.87500000
   0.87500000  0.87334400  0.37500000
   0.87500000  0.86722100  0.87500000

 position of ions in cartesian coordinates  (Angst):
   0.05869415 13.02807385  0.05869415
   0.01631920 13.07044880  6.50358714
   0.01631920  6.58318086  0.01631920
  13.08186046  6.55932368  6.52744432
   6.50358714 13.07044880  0.01631920
   6.52743123  0.00490754  6.52743123
   6.52743123  6.55933677 13.08186046
   6.55029381  6.53647419  6.55029381
   0.01631920  3.28801120  3.31147577
   0.05870724  3.33038615  9.75638185
  13.08186046  9.79913632  3.28763168
   0.01631920  9.77527914  9.79875680
   6.52744432  3.26678446  3.28764477
   6.50360023  3.28801120  9.79875680
   6.55029381  9.82198581  3.26478219
   6.52743123  9.79912323  9.81998354
   3.28764477  0.00490754  3.28764477
   3.31147577 13.07044880  9.79875680
   3.26478219  6.53647419  3.26478219
   3.28764477  6.55933677  9.81998354
   9.79875680 13.07044880  3.31147577
   9.75636876 13.02807385  9.75638185
   9.81998354  6.55933677  3.28764477
   9.79875680  6.58316777  9.79875680
   3.31147577  3.28801120  0.01631920
   3.28764477  3.26678446  6.52743123
   3.28764477  9.79912323 13.08186046
   3.26478219  9.82198581  6.55029381
   9.75636876  3.33038615  0.05869415
   9.79875680  3.28801120  6.50360023
   9.79875680  9.77527914  0.01631920
   9.81998354  9.79913632  6.52744432
  11.45092200  1.63584600 11.45092200
   1.65751769  1.63584600  4.90753800
   1.73764797  1.63584600 11.45092200
   1.64751940  8.17923000  4.90753800
   1.65751769  8.17923000 11.45092200
   8.15755831  1.63584600  4.90753800
   8.07742803  1.63584600 11.45092200
   8.16755660  8.17923000  4.90753800
   8.15755831  8.17923000 11.45092200
   1.63385681  4.90554881  1.63385681
   1.66840588  4.94009788  8.14667012
   1.66840588 11.41836212  1.66840588
   1.63385681 11.45291119  8.18121919
   8.14667012  4.94009788  1.66840588
   8.18121919  4.90554881  8.18121919
   8.18121919 11.45291119  1.63385681
   8.14667012 11.41836212  8.14667012
   4.90753800  1.63584600  1.65751769
   4.90753800  1.63584600  8.15755831
   4.90753800  8.17923000  1.64751940
   4.90753800  8.17923000  8.16755660
  11.45092200  1.63584600  1.73764797
  11.45092200  1.63584600  8.07742803
  11.45092200  8.17923000  1.65751769
  11.45092200  8.17923000  8.15755831
   4.90753800  4.91921140  4.90753800
   4.90753800  4.92920969 11.45092200
   4.90753800 11.43924860  4.90753800
   4.90753800 11.42925031 11.45092200
  11.45092200  4.92920969  4.90753800
  11.45092200  5.00933997 11.45092200
  11.45092200 11.42925031  4.90753800
  11.45092200 11.34912003 11.45092200

 Euler angles ALPHA=     0.0000000  BETA=     0.0000000

 transformation matrix from SAXIS to cartesian coordinates
 ---------------------------------------------------------
     1.0000000 m_x    -0.0000000 m_y     0.0000000 m_z
     0.0000000 m_x     1.0000000 m_y     0.0000000 m_z
    -0.0000000 m_x     0.0000000 m_y     1.0000000 m_z

 transformation matrix from cartesian coordinates to SAXIS
 ---------------------------------------------------------
     1.0000000 m_x     0.0000000 m_y    -0.0000000 m_z
    -0.0000000 m_x     1.0000000 m_y     0.0000000 m_z
     0.0000000 m_x     0.0000000 m_y     1.0000000 m_z




--------------------------------------------------------------------------------------------------------


 k-point     1 :   0.0000 0.0000 0.0000  plane waves:   97002
 k-point     2 :   0.5000 0.0000 0.0000  plane waves:   97356
 k-point     3 :   0.0000 0.5000 0.0000  plane waves:   97356
 k-point     4 :   0.5000 0.5000 0.0000  plane waves:   96960
 k-point     5 :   0.0000 0.0000 0.5000  plane waves:   97356
 k-point     6 :   0.5000 0.0000 0.5000  plane waves:   96960
 k-point     7 :   0.0000 0.5000 0.5000  plane waves:   96960
 k-point     8 :   0.5000 0.5000 0.5000  plane waves:   96832

 maximum and minimum number of plane-waves per node :     24376    24184

 maximum number of plane-waves:     97356
 maximum index in each direction: 
   IXMAX=   22   IYMAX=   22   IZMAX=   22
   IXMIN=  -23   IYMIN=  -23   IZMIN=  -23


 parallel 3D FFT for wavefunctions:
    minimum data exchange during FFTs selected (reduces bandwidth)
 parallel 3D FFT for charge:
    minimum data exchange during FFTs selected (reduces bandwidth)


 FFT grid for exact exchange (Hartree Fock) 
  NGX = 48; NGY = 48; NGZ = 48


 Radii for the augmentation spheres in the non-local exchange
 for species   1 augmentation radius   1.444 (default was   1.070)
       energy cutoff for augmentation   1800.0
 for species   2 augmentation radius   1.606 (default was   1.190)
       energy cutoff for augmentation   1800.0

 real space projection operators:
  total allocation   :       9375.20 KBytes
  max/ min on nodes  :       2371.68       2281.25

 Maximum index for augmentation-charges in exchange          207
  SETUP_FOCK is finished

 total amount of memory used by VASP MPI-rank0   237951. kBytes
=======================================================================

   base                                    :      30000. kBytes
   nonl-proj                               :      40930. kBytes
   fftplans                                :      19052. kBytes
   grid                                    :      37158. kBytes
   one-center                              :       1057. kBytes
   HF                                      :        129. kBytes
   nonlr-proj                              :       3791. kBytes
   wavefun                                 :     105834. kBytes

     INWAV:  cpu time      0.0001: real time      0.0004
 Broyden mixing: mesh for mixing (old mesh)
   NGX = 45   NGY = 45   NGZ = 45
  (NGX  =192   NGY  =192   NGZ  =192)
  gives a total of  91125 points

 initial charge density was supplied:
 charge density of overlapping atoms calculated
 number of electron     588.0000000 magnetization      65.0000000     65.0000000     65.0000000
 keeping initial charge density in first step


--------------------------------------------------------------------------------------------------------


 Maximum index for augmentation-charges         3093 (set IRDMAX)


--------------------------------------------------------------------------------------------------------


 First call to EWALD:  gamma=   0.135
 Maximum number of real-space cells   3x   3x   3
 Maximum number of reciprocal cells   3x   3x   3

    FEWALD:  cpu time      0.0598: real time      0.0606


--------------------------------------- Ionic step        1  -------------------------------------------




--------------------------------------- Iteration      1(   1)  ---------------------------------------


    POTLOK:  cpu time      0.3095: real time      0.3163
    SETDIJ:  cpu time      0.5231: real time      0.5292
    TRIAL :  cpu time      8.0186: real time      8.1079
    CORREC:  cpu time      0.0092: real time      0.0093
    --------------------------------------------
      LOOP:  cpu time      8.9597: real time      9.0630

 eigenvalue-minimisations  : 12672
 total energy-change (2. order) :-0.6571325E+05  (-0.2680713E+05)
 number of electron     588.0000000 magnetization      65.0000000     65.0000000     65.0000000
 augmentation part      588.0000000 magnetization      65.0000000     65.0000000     65.0000000

 Free energy of the ion-electron system (eV)
  ---------------------------------------------------
  alpha Z        PSCENC =      1642.45118531
  Ewald energy   TEWEN  =    -33940.17512409
  -Hartree energ DENC   =    -17077.89199325
  -exchange      EXHF   =         0.00000000
  -V(xc)+E(xc)   XCENC  =      -705.19542617
  PAW double counting   =     46123.44547363  -111597.00895027
  entropy T*S    EENTRO =        -0.02774632
  eigenvalues    EBANDS =        91.72534364
  atomic energy  EATOM  =     49749.42546354
  ---------------------------------------------------
  free energy    TOTEN  =    -65713.25177398 eV

  energy without entropy =   -65713.22402765  energy(sigma->0) =   -65713.23790082
  exchange ACFDT corr.  =         0.00000000  see jH, gK, PRB 81, 115126


--------------------------------------------------------------------------------------------------------




--------------------------------------- Iteration      1(   2)  ---------------------------------------


    TRIAL :  cpu time      8.9908: real time      9.0837
    CORREC:  cpu time      0.0018: real time      0.0018
    --------------------------------------------
      LOOP:  cpu time      9.0554: real time      9.1613

 eigenvalue-minimisations  : 14400
 total energy-change (2. order) :-0.3528053E+04  (-0.3425362E+04)
 number of electron     588.0000000 magnetization      65.0000000     65.0000000     65.0000000
 augmentation part      588.0000000 magnetization      65.0000000     65.0000000     65.0000000

 Free energy of the ion-electron system (eV)
  ---------------------------------------------------
  alpha Z        PSCENC =      1642.45118531
  Ewald energy   TEWEN  =    -33940.17512409
  -Hartree energ DENC   =    -17077.89199325
  -exchange      EXHF   =         0.00000000
  -V(xc)+E(xc)   XCENC  =      -705.19542617
  PAW double counting   =     46123.44547363  -111597.00895027
  entropy T*S    EENTRO =        -0.00801889
  eigenvalues    EBANDS =     -3436.34765644
  atomic energy  EATOM  =     49749.42546354
  ---------------------------------------------------
  free energy    TOTEN  =    -69241.30504663 eV

  energy without entropy =   -69241.29702773  energy(sigma->0) =   -69241.30103718
  exchange ACFDT corr.  =         0.00000000  see jH, gK, PRB 81, 115126


--------------------------------------------------------------------------------------------------------




--------------------------------------- Iteration      1(   3)  ---------------------------------------


    TRIAL :  cpu time      9.2583: real time      9.3507
    CORREC:  cpu time      0.0020: real time      0.0021
    --------------------------------------------
      LOOP:  cpu time      9.3263: real time      9.4224

 eigenvalue-minimisations  : 14688
 total energy-change (2. order) :-0.2072112E+03  (-0.2057660E+03)
 number of electron     588.0000000 magnetization      65.0000000     65.0000000     65.0000000
 augmentation part      588.0000000 magnetization      65.0000000     65.0000000     65.0000000

 Free energy of the ion-electron system (eV)
  ---------------------------------------------------
  alpha Z        PSCENC =      1642.45118531
  Ewald energy   TEWEN  =    -33940.17512409
  -Hartree energ DENC   =    -17077.89199325
  -exchange      EXHF   =         0.00000000
  -V(xc)+E(xc)   XCENC  =      -705.19542617
  PAW double counting   =     46123.44547363  -111597.00895027
  entropy T*S    EENTRO =        -0.01569264
  eigenvalues    EBANDS =     -3643.55116461
  atomic energy  EATOM  =     49749.42546354
  ---------------------------------------------------
  free energy    TOTEN  =    -69448.51622854 eV

  energy without entropy =   -69448.50053590  energy(sigma->0) =   -69448.50838222
  exchange ACFDT corr.  =         0.00000000  see jH, gK, PRB 81, 115126


--------------------------------------------------------------------------------------------------------




--------------------------------------- Iteration      1(   4)  ---------------------------------------


    TRIAL :  cpu time     10.2589: real time     10.3644
    CORREC:  cpu time      0.0019: real time      0.0020
    --------------------------------------------
      LOOP:  cpu time     10.3151: real time     10.4303

 eigenvalue-minimisations  : 16200
 total energy-change (2. order) :-0.6411569E+01  (-0.6403626E+01)
 number of electron     588.0000000 magnetization      65.0000000     65.0000000     65.0000000
 augmentation part      588.0000000 magnetization      65.0000000     65.0000000     65.0000000

 Free energy of the ion-electron system (eV)
  ---------------------------------------------------
  alpha Z        PSCENC =      1642.45118531
  Ewald energy   TEWEN  =    -33940.17512409
  -Hartree energ DENC   =    -17077.89199325
  -exchange      EXHF   =         0.00000000
  -V(xc)+E(xc)   XCENC  =      -705.19542617
  PAW double counting   =     46123.44547363  -111597.00895027
  entropy T*S    EENTRO =        -0.01440273
  eigenvalues    EBANDS =     -3649.96402303
  atomic energy  EATOM  =     49749.42546354
  ---------------------------------------------------
  free energy    TOTEN  =    -69454.92779706 eV

  energy without entropy =   -69454.91339433  energy(sigma->0) =   -69454.92059569
  exchange ACFDT corr.  =         0.00000000  see jH, gK, PRB 81, 115126


--------------------------------------------------------------------------------------------------------




--------------------------------------- Iteration      1(   5)  ---------------------------------------


    POTLOK:  cpu time      0.2390: real time      0.2414
    SETDIJ:  cpu time      0.7532: real time      0.7609
    TRIAL :  cpu time    293.2520: real time    296.1424
    CORREC:  cpu time      0.0043: real time      0.0044



 total charge

# of ion       s       p       d       tot
------------------------------------------
    1        0.370   0.244   9.556  10.170
    2        0.385   0.261   9.561  10.207
    3        0.385   0.261   9.561  10.207
    4        0.383   0.261   9.561  10.205
    5        0.385   0.261   9.561  10.207
    6        0.383   0.261   9.561  10.205
    7        0.383   0.261   9.561  10.205
    8        0.382   0.258   9.561  10.201
    9        0.385   0.261   9.561  10.207
   10        0.370   0.244   9.556  10.170
   11        0.383   0.261   9.561  10.205
   12        0.385   0.261   9.561  10.207
   13        0.383   0.261   9.561  10.205
   14        0.385   0.261   9.561  10.207
   15        0.382   0.258   9.561  10.201
   16        0.383   0.261   9.561  10.205
   17        0.383   0.261   9.561  10.205
   18        0.385   0.261   9.561  10.207
   19        0.382   0.258   9.561  10.201
   20        0.383   0.261   9.561  10.205
   21        0.385   0.261   9.561  10.207
   22        0.370   0.244   9.556  10.170
   23        0.383   0.261   9.561  10.205
   24        0.385   0.261   9.561  10.207
   25        0.385   0.261   9.561  10.207
   26        0.383   0.261   9.561  10.205
   27        0.383   0.261   9.561  10.205
   28        0.382   0.258   9.561  10.201
   29        0.370   0.244   9.556  10.170
   30        0.385   0.261   9.561  10.207
   31        0.385   0.261   9.561  10.207
   32        0.383   0.261   9.561  10.205
   33        0.684   0.138   9.537  10.359
   34        1.313   2.383   0.020   3.715
   35        1.325   2.357   0.020   3.702
   36        1.314   2.382   0.019   3.715
   37        1.313   2.383   0.020   3.715
   38        1.313   2.383   0.020   3.715
   39        1.325   2.357   0.020   3.702
   40        1.314   2.383   0.019   3.715
   41        1.313   2.383   0.020   3.715
   42        1.314   2.380   0.018   3.713
   43        1.312   2.374   0.019   3.706
   44        1.312   2.374   0.019   3.706
   45        1.314   2.380   0.018   3.712
   46        1.312   2.374   0.019   3.706
   47        1.314   2.380   0.018   3.712
   48        1.314   2.380   0.018   3.713
   49        1.312   2.374   0.019   3.706
   50        1.313   2.383   0.020   3.715
   51        1.313   2.383   0.020   3.715
   52        1.314   2.382   0.019   3.715
   53        1.314   2.383   0.019   3.715
   54        1.325   2.357   0.020   3.702
   55        1.325   2.357   0.020   3.702
   56        1.313   2.383   0.020   3.715
   57        1.313   2.383   0.020   3.715
   58        1.314   2.383   0.019   3.715
   59        1.313   2.383   0.020   3.715
   60        1.314   2.382   0.019   3.715
   61        1.313   2.383   0.020   3.715
   62        1.313   2.383   0.020   3.715
   63        1.325   2.357   0.020   3.702
   64        1.313   2.383   0.020   3.715
   65        1.325   2.357   0.020   3.702
--------------------------------------------------
tot         55.005  84.453 316.081 455.539



 magnetization (x)

# of ion       s       p       d       tot
------------------------------------------
    1       -0.005  -0.003   0.005  -0.002
    2       -0.005  -0.003   0.005  -0.003
    3       -0.005  -0.003   0.005  -0.003
    4       -0.004  -0.003   0.005  -0.003
    5       -0.005  -0.003   0.005  -0.003
    6       -0.004  -0.003   0.005  -0.003
    7       -0.004  -0.003   0.005  -0.003
    8       -0.004  -0.003   0.005  -0.003
    9       -0.005  -0.003   0.005  -0.003
   10       -0.005  -0.003   0.005  -0.002
   11       -0.004  -0.003   0.005  -0.003
   12       -0.005  -0.003   0.005  -0.003
   13       -0.004  -0.003   0.005  -0.003
   14       -0.005  -0.003   0.005  -0.003
   15       -0.004  -0.003   0.005  -0.003
   16       -0.004  -0.003   0.005  -0.003
   17       -0.004  -0.003   0.005  -0.003
   18       -0.004  -0.003   0.005  -0.003
   19       -0.004  -0.003   0.005  -0.003
   20       -0.004  -0.003   0.005  -0.003
   21       -0.005  -0.003   0.005  -0.003
   22       -0.005  -0.003   0.005  -0.003
   23       -0.004  -0.003   0.005  -0.003
   24       -0.005  -0.003   0.005  -0.003
   25       -0.005  -0.003   0.005  -0.003
   26       -0.004  -0.003   0.005  -0.003
   27       -0.004  -0.003   0.005  -0.003
   28       -0.004  -0.003   0.005  -0.003
   29       -0.005  -0.003   0.005  -0.002
   30       -0.005  -0.003   0.005  -0.003
   31       -0.005  -0.003   0.005  -0.003
   32       -0.004  -0.003   0.005  -0.003
   33        0.032  -0.003   0.003   0.032
   34        0.009   0.031  -0.000   0.039
   35        0.009   0.035  -0.000   0.044
   36        0.009   0.030  -0.000   0.039
   37        0.009   0.031  -0.000   0.039
   38        0.009   0.031  -0.000   0.039
   39        0.009   0.035  -0.000   0.044
   40        0.009   0.030  -0.000   0.039
   41        0.009   0.031  -0.000   0.039
   42        0.009   0.030  -0.000   0.039
   43        0.010   0.031  -0.000   0.040
   44        0.009   0.031  -0.000   0.040
   45        0.009   0.030  -0.000   0.039
   46        0.009   0.031  -0.000   0.040
   47        0.009   0.030  -0.000   0.039
   48        0.009   0.030  -0.000   0.039
   49        0.010   0.031  -0.000   0.040
   50        0.009   0.031  -0.000   0.039
   51        0.009   0.031  -0.000   0.039
   52        0.009   0.030  -0.000   0.039
   53        0.009   0.030  -0.000   0.039
   54        0.009   0.035  -0.000   0.044
   55        0.009   0.035  -0.000   0.044
   56        0.009   0.031  -0.000   0.039
   57        0.009   0.031  -0.000   0.039
   58        0.009   0.030  -0.000   0.039
   59        0.009   0.031  -0.000   0.039
   60        0.009   0.030  -0.000   0.039
   61        0.009   0.031  -0.000   0.039
   62        0.009   0.031  -0.000   0.039
   63        0.009   0.035  -0.000   0.044
   64        0.009   0.031  -0.000   0.039
   65        0.009   0.035  -0.000   0.044
--------------------------------------------------
tot          0.178   0.894   0.144   1.216



 magnetization (y)

# of ion       s       p       d       tot
------------------------------------------
    1       -0.005  -0.003   0.005  -0.002
    2       -0.005  -0.003   0.005  -0.003
    3       -0.005  -0.003   0.005  -0.003
    4       -0.004  -0.003   0.005  -0.003
    5       -0.005  -0.003   0.005  -0.003
    6       -0.004  -0.003   0.005  -0.003
    7       -0.004  -0.003   0.005  -0.003
    8       -0.004  -0.003   0.005  -0.003
    9       -0.005  -0.003   0.005  -0.003
   10       -0.005  -0.003   0.005  -0.002
   11       -0.004  -0.003   0.005  -0.003
   12       -0.005  -0.003   0.005  -0.003
   13       -0.004  -0.003   0.005  -0.003
   14       -0.005  -0.003   0.005  -0.003
   15       -0.004  -0.003   0.005  -0.003
   16       -0.004  -0.003   0.005  -0.003
   17       -0.004  -0.003   0.005  -0.003
   18       -0.005  -0.003   0.005  -0.003
   19       -0.004  -0.003   0.005  -0.003
   20       -0.004  -0.003   0.005  -0.003
   21       -0.005  -0.003   0.005  -0.003
   22       -0.005  -0.003   0.005  -0.003
   23       -0.004  -0.003   0.005  -0.003
   24       -0.004  -0.003   0.005  -0.003
   25       -0.005  -0.003   0.005  -0.003
   26       -0.004  -0.003   0.005  -0.003
   27       -0.004  -0.003   0.005  -0.003
   28       -0.004  -0.003   0.005  -0.003
   29       -0.005  -0.003   0.005  -0.002
   30       -0.005  -0.003   0.005  -0.003
   31       -0.005  -0.003   0.005  -0.003
   32       -0.004  -0.003   0.005  -0.003
   33        0.032  -0.003   0.003   0.032
   34        0.009   0.031  -0.000   0.039
   35        0.009   0.035  -0.000   0.044
   36        0.009   0.030  -0.000   0.039
   37        0.009   0.031  -0.000   0.039
   38        0.009   0.031  -0.000   0.039
   39        0.009   0.035  -0.000   0.044
   40        0.009   0.030  -0.000   0.039
   41        0.009   0.031  -0.000   0.039
   42        0.009   0.030  -0.000   0.039
   43        0.010   0.031  -0.000   0.040
   44        0.010   0.031  -0.000   0.040
   45        0.009   0.030  -0.000   0.039
   46        0.010   0.031  -0.000   0.040
   47        0.009   0.030  -0.000   0.039
   48        0.009   0.030  -0.000   0.039
   49        0.009   0.031  -0.000   0.040
   50        0.009   0.031  -0.000   0.039
   51        0.009   0.031  -0.000   0.039
   52        0.009   0.030  -0.000   0.039
   53        0.009   0.030  -0.000   0.039
   54        0.009   0.035  -0.000   0.044
   55        0.009   0.035  -0.000   0.044
   56        0.009   0.031  -0.000   0.039
   57        0.009   0.031  -0.000   0.039
   58        0.009   0.030  -0.000   0.039
   59        0.009   0.031  -0.000   0.039
   60        0.009   0.030  -0.000   0.039
   61        0.009   0.031  -0.000   0.039
   62        0.009   0.031  -0.000   0.039
   63        0.009   0.035  -0.000   0.044
   64        0.009   0.031  -0.000   0.039
   65        0.009   0.035  -0.000   0.044
--------------------------------------------------
tot          0.178   0.894   0.144   1.216



 magnetization (z)

# of ion       s       p       d       tot
------------------------------------------
    1       -0.005  -0.003   0.005  -0.002
    2       -0.005  -0.003   0.005  -0.003
    3       -0.005  -0.003   0.005  -0.003
    4       -0.004  -0.003   0.005  -0.003
    5       -0.005  -0.003   0.005  -0.003
    6       -0.004  -0.003   0.005  -0.003
    7       -0.004  -0.003   0.005  -0.003
    8       -0.004  -0.003   0.005  -0.003
    9       -0.005  -0.003   0.005  -0.003
   10       -0.005  -0.003   0.005  -0.002
   11       -0.004  -0.003   0.005  -0.003
   12       -0.005  -0.003   0.005  -0.003
   13       -0.004  -0.003   0.005  -0.003
   14       -0.005  -0.003   0.005  -0.003
   15       -0.004  -0.003   0.005  -0.003
   16       -0.004  -0.003   0.005  -0.003
   17       -0.004  -0.003   0.005  -0.003
   18       -0.005  -0.003   0.005  -0.003
   19       -0.004  -0.003   0.005  -0.003
   20       -0.004  -0.003   0.005  -0.003
   21       -0.004  -0.003   0.005  -0.003
   22       -0.005  -0.003   0.005  -0.003
   23       -0.004  -0.003   0.005  -0.003
   24       -0.005  -0.003   0.005  -0.003
   25       -0.005  -0.003   0.005  -0.003
   26       -0.004  -0.003   0.005  -0.003
   27       -0.004  -0.003   0.005  -0.003
   28       -0.004  -0.003   0.005  -0.003
   29       -0.005  -0.003   0.005  -0.002
   30       -0.005  -0.003   0.005  -0.003
   31       -0.005  -0.003   0.005  -0.003
   32       -0.004  -0.003   0.005  -0.003
   33        0.032  -0.003   0.003   0.032
   34        0.009   0.031  -0.000   0.039
   35        0.009   0.035  -0.000   0.044
   36        0.009   0.030  -0.000   0.039
   37        0.009   0.031  -0.000   0.039
   38        0.009   0.031  -0.000   0.039
   39        0.009   0.035  -0.000   0.044
   40        0.009   0.030  -0.000   0.039
   41        0.009   0.031  -0.000   0.039
   42        0.009   0.030  -0.000   0.039
   43        0.010   0.031  -0.000   0.040
   44        0.010   0.031  -0.000   0.040
   45        0.009   0.030  -0.000   0.039
   46        0.010   0.031  -0.000   0.040
   47        0.009   0.030  -0.000   0.039
   48        0.009   0.030  -0.000   0.039
   49        0.010   0.031  -0.000   0.040
   50        0.009   0.031  -0.000   0.039
   51        0.009   0.031  -0.000   0.039
   52        0.009   0.030  -0.000   0.039
   53        0.009   0.030  -0.000   0.039
   54        0.009   0.035  -0.000   0.044
   55        0.009   0.035  -0.000   0.044
   56        0.009   0.031  -0.000   0.039
   57        0.009   0.031  -0.000   0.039
   58        0.009   0.030  -0.000   0.039
   59        0.009   0.031  -0.000   0.039
   60        0.009   0.030  -0.000   0.039
   61        0.009   0.031  -0.000   0.039
   62        0.009   0.031  -0.000   0.039
   63        0.009   0.035  -0.000   0.044
   64        0.009   0.031  -0.000   0.039
   65        0.009   0.035  -0.000   0.044
--------------------------------------------------
tot          0.178   0.894   0.144   1.216

    CHARGE:  cpu time      1.6300: real time      1.6459
    --------------------------------------------
      LOOP:  cpu time    295.9751: real time    298.8950

 eigenvalue-minimisations  : 12672
 total energy-change (2. order) : 0.6927798E+05  (-0.3673556E+02)
 number of electron     588.0000006 magnetization       0.1782222      0.1782420      0.1782219
 augmentation part      151.8663867 magnetization       0.4911716      0.4912456      0.4913861

 Free energy of the ion-electron system (eV)
  ---------------------------------------------------
  alpha Z        PSCENC =      1642.45118531
  Ewald energy   TEWEN  =    -33940.17512409
  -Hartree energ DENC   =    -17077.89199325
  -exchange      EXHF   =      1181.82062502
  -V(xc)+E(xc)   XCENC  =      -617.56595420
  PAW double counting   =     46020.13618676   -43994.38423556
  entropy T*S    EENTRO =        -0.00646213
  eigenvalues    EBANDS =     -3140.75434907
  atomic energy  EATOM  =     49749.42546354
  ---------------------------------------------------
  free energy    TOTEN  =      -176.94465767 eV

  energy without entropy =     -176.93819554  energy(sigma->0) =     -176.94142661
  exchange ACFDT corr.  =        -0.02572541  see jH, gK, PRB 81, 115126


--------------------------------------------------------------------------------------------------------




--------------------------------------- Iteration      1(   6)  ---------------------------------------


    POTLOK:  cpu time      0.2374: real time      0.2398
    SETDIJ:  cpu time      0.7611: real time      0.7686
    TRIAL :  cpu time    293.2328: real time    296.1302
    CORREC:  cpu time    288.1405: real time    291.0420
    EDDIAG:  cpu time    287.9190: real time    290.9047
    CHARGE:  cpu time      1.4617: real time      1.4753
    --------------------------------------------
      LOOP:  cpu time    871.8402: real time    880.6537

 eigenvalue-minimisations  :     0
 total energy-change (2. order) :-0.7129508E+01  (-0.1028029E+02)
 number of electron     588.0000006 magnetization       0.1062625      0.1062574      0.1062679
 augmentation part      154.8559038 magnetization       0.2317679      0.2319346      0.2320022

 Free energy of the ion-electron system (eV)
  ---------------------------------------------------
  alpha Z        PSCENC =      1642.45118531
  Ewald energy   TEWEN  =    -33940.17512409
  -Hartree energ DENC   =    -16895.86356880
  -exchange      EXHF   =      1143.28930944
  -V(xc)+E(xc)   XCENC  =      -624.74278819
  PAW double counting   =    114324.52974560  -112246.74410338
  entropy T*S    EENTRO =        -0.00646213
  eigenvalues    EBANDS =     -3342.24917540
  atomic energy  EATOM  =     49749.42546354
  ---------------------------------------------------
  free energy    TOTEN  =      -184.07416559 eV

  energy without entropy =     -184.06770346  energy(sigma->0) =     -184.07093453
  exchange ACFDT corr.  =        -0.01394947  see jH, gK, PRB 81, 115126


--------------------------------------------------------------------------------------------------------


  average scaling for gradient   0.9654


 average (electrostatic) potential at core
  the test charge radii are     1.0698  1.1897
  (the norm of the test charge is              1.0000)
       1 -32.8434       2 -32.7528       3 -32.7532       4 -32.7998       5 -32.7531
       6 -32.7997       7 -32.7988       8 -32.7946       9 -32.7526      10 -32.8442
      11 -32.7999      12 -32.7537      13 -32.7999      14 -32.7532      15 -32.7949
      16 -32.8000      17 -32.7989      18 -32.7547      19 -32.7956      20 -32.7987
      21 -32.7538      22 -32.8426      23 -32.7992      24 -32.7546      25 -32.7534
      26 -32.8007      27 -32.7993      28 -32.7949      29 -32.8435      30 -32.7534
      31 -32.7525      32 -32.7995      33 -32.1588      34 -86.9792      35 -86.8908
      36 -86.9913      37 -86.9805      38 -86.9791      39 -86.8907      40 -86.9910
      41 -86.9793      42 -86.9444      43 -87.0678      44 -87.0667      45 -86.9443
      46 -87.0670      47 -86.9442      48 -86.9431      49 -87.0672      50 -86.9800
      51 -86.9797      52 -86.9910      53 -86.9907      54 -86.8892      55 -86.8907
      56 -86.9796      57 -86.9804      58 -86.9924      59 -86.9782      60 -86.9907
      61 -86.9801      62 -86.9789      63 -86.8908      64 -86.9789      65 -86.8903



 E-fermi :   3.3425     XC(G=0):  -7.0327     alpha+bet : -7.2837

 WARNING: Could not determine fundamental gap because eigenvalues are not
     sorted.

 Fermi energy:         3.3425147124

 k-point     1 :       0.0000    0.0000    0.0000
  band No.  band energies     occupation 
      1     -10.1501      1.00000
      2     -10.1190      1.00000
      3      -9.9480      1.00000
      4      -9.9476      1.00000
      5      -9.9470      1.00000
      6      -9.9238      1.00000
      7      -9.9234      1.00000
      8      -9.9106      1.00000
      9      -9.9100      1.00000
     10      -9.9096      1.00000
     11      -9.8901      1.00000
     12      -9.8874      1.00000
     13      -9.8871      1.00000
     14      -9.8596      1.00000
     15      -9.8546      1.00000
     16      -9.8456      1.00000
     17      -9.8450      1.00000
     18      -9.8411      1.00000
     19      -9.8374      1.00000
     20      -9.8352      1.00000
     21      -9.8334      1.00000
     22      -9.8332      1.00000
     23      -9.8322      1.00000
     24      -9.8304      1.00000
     25      -9.8231      1.00000
     26      -9.8218      1.00000
     27      -9.8148      1.00000
     28      -9.8058      1.00000
     29      -9.8052      1.00000
     30      -9.8025      1.00000
     31      -9.7987      1.00000
     32      -9.7923      1.00000
     33      -9.7922      1.00000
     34      -9.7897      1.00000
     35      -9.7866      1.00000
     36      -9.7838      1.00000
     37      -9.7773      1.00000
     38      -9.7756      1.00000
     39      -9.7709      1.00000
     40      -9.7625      1.00000
     41      -9.7625      1.00000
     42      -9.7529      1.00000
     43      -9.7488      1.00000
     44      -9.7416      1.00000
     45      -9.7415      1.00000
     46      -9.7362      1.00000
     47      -9.7197      1.00000
     48      -9.7171      1.00000
     49      -9.7145      1.00000
     50      -9.7079      1.00000
     51      -9.7066      1.00000
     52      -9.7041      1.00000
     53      -9.7035      1.00000
     54      -9.6900      1.00000
     55      -9.6875      1.00000
     56      -9.6820      1.00000
     57      -9.6769      1.00000
     58      -9.6681      1.00000
     59      -9.6656      1.00000
     60      -9.6437      1.00000
     61      -9.6426      1.00000
     62      -9.6343      1.00000
     63      -9.6274      1.00000
     64      -9.6267      1.00000
     65      -8.3391      1.00000
     66      -8.3365      1.00000
     67      -8.3358      1.00000
     68      -8.3328      1.00000
     69      -8.3269      1.00000
     70      -8.3243      1.00000
     71      -8.3078      1.00000
     72      -8.3028      1.00000
     73      -8.2791      1.00000
     74      -8.2771      1.00000
     75      -8.2768      1.00000
     76      -8.2751      1.00000
     77      -8.2747      1.00000
     78      -8.2740      1.00000
     79      -8.2735      1.00000
     80      -8.2721      1.00000
     81      -8.2635      1.00000
     82      -8.2632      1.00000
     83      -8.2619      1.00000
     84      -8.2618      1.00000
     85      -8.2602      1.00000
     86      -8.2594      1.00000
     87      -8.2588      1.00000
     88      -8.2573      1.00000
     89      -8.2536      1.00000
     90      -8.2534      1.00000
     91      -8.2533      1.00000
     92      -8.2525      1.00000
     93      -8.2521      1.00000
     94      -8.2515      1.00000
     95      -8.2512      1.00000
     96      -8.2500      1.00000
     97      -8.2447      1.00000
     98      -8.2440      1.00000
     99      -8.2439      1.00000
    100      -8.2433      1.00000
    101      -8.2379      1.00000
    102      -8.2377      1.00000
    103      -8.2373      1.00000
    104      -8.2362      1.00000
    105      -8.2360      1.00000
    106      -8.2359      1.00000
    107      -8.2347      1.00000
    108      -8.2344      1.00000
    109      -8.2329      1.00000
    110      -8.2327      1.00000
    111      -8.2312      1.00000
    112      -8.2310      1.00000
    113      -8.2212      1.00000
    114      -8.2211      1.00000
    115      -8.2196      1.00000
    116      -8.2192      1.00000
    117      -8.2165      1.00000
    118      -8.2164      1.00000
    119      -8.2158      1.00000
    120      -8.2156      1.00000
    121      -8.2083      1.00000
    122      -8.2082      1.00000
    123      -8.2080      1.00000
    124      -8.2079      1.00000
    125      -8.1913      1.00000
    126      -8.1912      1.00000
    127      -8.1897      1.00000
    128      -8.1895      1.00000
    129      -8.1786      1.00000
    130      -8.1766      1.00000
    131      -8.1544      1.00000
    132      -8.1527      1.00000
    133      -8.1490      1.00000
    134      -8.1488      1.00000
    135      -8.1483      1.00000
    136      -8.1482      1.00000
    137      -8.1435      1.00000
    138      -8.1428      1.00000
    139      -8.1422      1.00000
    140      -8.1418      1.00000
    141      -8.1388      1.00000
    142      -8.1384      1.00000
    143      -8.1372      1.00000
    144      -8.1371      1.00000
    145      -8.1368      1.00000
    146      -8.1366      1.00000
    147      -8.1301      1.00000
    148      -8.1295      1.00000
    149      -8.1234      1.00000
    150      -8.1213      1.00000
    151      -8.1181      1.00000
    152      -8.1180      1.00000
    153      -8.1179      1.00000
    154      -8.1177      1.00000
    155      -8.1163      1.00000
    156      -8.1162      1.00000
    157      -8.1155      1.00000
    158      -8.1154      1.00000
    159      -8.1115      1.00000
    160      -8.1114      1.00000
    161      -8.0075      1.00000
    162      -8.0062      1.00000
    163      -7.9986      1.00000
    164      -7.9955      1.00000
    165      -7.9948      1.00000
    166      -7.9938      1.00000
    167      -7.9929      1.00000
    168      -7.9921      1.00000
    169      -7.9858      1.00000
    170      -7.9854      1.00000
    171      -7.9842      1.00000
    172      -7.9839      1.00000
    173      -7.9474      1.00000
    174      -7.9462      1.00000
    175      -7.9270      1.00000
    176      -7.9260      1.00000
    177      -7.9120      1.00000
    178      -7.9114      1.00000
    179      -7.9108      1.00000
    180      -7.9104      1.00000
    181      -7.9013      1.00000
    182      -7.9011      1.00000
    183      -7.9011      1.00000
    184      -7.9008      1.00000
    185      -7.8905      1.00000
    186      -7.8894      1.00000
    187      -7.8371      1.00000
    188      -7.8356      1.00000
    189      -7.8354      1.00000
    190      -7.8340      1.00000
    191      -7.8060      1.00000
    192      -7.8058      1.00000
    193      -7.8013      1.00000
    194      -7.7999      1.00000
    195      -7.7991      1.00000
    196      -7.7978      1.00000
    197      -7.6965      1.00000
    198      -7.6936      1.00000
    199      -7.6384      1.00000
    200      -7.6348      1.00000
    201      -7.6194      1.00000
    202      -7.6174      1.00000
    203      -7.6021      1.00000
    204      -7.6018      1.00000
    205      -7.6008      1.00000
    206      -7.6003      1.00000
    207      -7.5915      1.00000
    208      -7.5899      1.00000
    209      -7.5895      1.00000
    210      -7.5884      1.00000
    211      -7.5849      1.00000
    212      -7.5847      1.00000
    213      -7.5846      1.00000
    214      -7.5844      1.00000
    215      -7.5827      1.00000
    216      -7.5823      1.00000
    217      -7.5823      1.00000
    218      -7.5818      1.00000
    219      -7.5671      1.00000
    220      -7.5670      1.00000
    221      -7.5668      1.00000
    222      -7.5660      1.00000
    223      -7.5656      1.00000
    224      -7.5654      1.00000
    225      -7.5586      1.00000
    226      -7.5566      1.00000
    227      -7.5538      1.00000
    228      -7.5537      1.00000
    229      -7.5531      1.00000
    230      -7.5529      1.00000
    231      -7.5458      1.00000
    232      -7.5457      1.00000
    233      -7.5437      1.00000
    234      -7.5431      1.00000
    235      -7.5430      1.00000
    236      -7.5424      1.00000
    237      -7.5419      1.00000
    238      -7.5418      1.00000
    239      -7.5387      1.00000
    240      -7.5381      1.00000
    241      -7.5378      1.00000
    242      -7.5376      1.00000
    243      -7.5376      1.00000
    244      -7.5373      1.00000
    245      -7.5296      1.00000
    246      -7.5293      1.00000
    247      -7.5285      1.00000
    248      -7.5278      1.00000
    249      -7.5249      1.00000
    250      -7.5241      1.00000
    251      -7.5189      1.00000
    252      -7.5187      1.00000
    253      -7.5177      1.00000
    254      -7.5174      1.00000
    255      -7.5164      1.00000
    256      -7.5155      1.00000
    257      -7.5152      1.00000
    258      -7.5143      1.00000
    259      -7.5092      1.00000
    260      -7.5074      1.00000
    261      -7.5053      1.00000
    262      -7.5049      1.00000
    263      -7.5042      1.00000
    264      -7.5040      1.00000
    265      -7.5036      1.00000
    266      -7.5027      1.00000
    267      -7.4940      1.00000
    268      -7.4936      1.00000
    269      -7.4933      1.00000
    270      -7.4921      1.00000
    271      -7.4920      1.00000
    272      -7.4918      1.00000
    273      -7.4874      1.00000
    274      -7.4873      1.00000
    275      -7.4870      1.00000
    276      -7.4868      1.00000
    277      -7.4826      1.00000
    278      -7.4826      1.00000
    279      -7.4713      1.00000
    280      -7.4709      1.00000
    281      -7.4708      1.00000
    282      -7.4704      1.00000
    283      -7.4660      1.00000
    284      -7.4651      1.00000
    285      -7.4645      1.00000
    286      -7.4635      1.00000
    287      -7.4629      1.00000
    288      -7.4626      1.00000
    289      -7.4616      1.00000
    290      -7.4614      1.00000
    291      -7.4612      1.00000
    292      -7.4608      1.00000
    293      -7.4604      1.00000
    294      -7.4602      1.00000
    295      -7.4517      1.00000
    296      -7.4508      1.00000
    297      -7.4482      1.00000
    298      -7.4477      1.00000
    299      -7.4472      1.00000
    300      -7.4466      1.00000
    301      -7.4465      1.00000
    302      -7.4465      1.00000
    303      -7.4431      1.00000
    304      -7.4423      1.00000
    305      -7.4421      1.00000
    306      -7.4413      1.00000
    307      -7.4347      1.00000
    308      -7.4338      1.00000
    309      -7.4332      1.00000
    310      -7.4329      1.00000
    311      -7.4326      1.00000
    312      -7.4314      1.00000
    313      -7.4309      1.00000
    314      -7.4307      1.00000
    315      -7.4306      1.00000
    316      -7.4299      1.00000
    317      -7.4296      1.00000
    318      -7.4289      1.00000
    319      -7.4256      1.00000
    320      -7.4246      1.00000
    321      -7.4237      1.00000
    322      -7.4228      1.00000
    323      -7.3843      1.00000
    324      -7.3830      1.00000
    325      -7.3823      1.00000
    326      -7.3814      1.00000
    327      -7.3804      1.00000
    328      -7.3783      1.00000
    329      -7.3715      1.00000
    330      -7.3709      1.00000
    331      -7.3702      1.00000
    332      -7.3697      1.00000
    333      -7.3669      1.00000
    334      -7.3668      1.00000
    335      -7.3136      1.00000
    336      -7.3099      1.00000
    337      -7.3097      1.00000
    338      -7.3054      1.00000
    339      -7.2558      1.00000
    340      -7.2535      1.00000
    341      -7.2325      1.00000
    342      -7.2311      1.00000
    343      -7.2289      1.00000
    344      -7.2276      1.00000
    345      -7.2176      1.00000
    346      -7.2138      1.00000
    347      -7.2001      1.00000
    348      -7.1999      1.00000
    349      -7.1990      1.00000
    350      -7.1989      1.00000
    351      -7.1117      1.00000
    352      -7.1108      1.00000
    353      -7.1056      1.00000
    354      -7.1048      1.00000
    355      -7.0983      1.00000
    356      -7.0893      1.00000
    357      -7.0862      1.00000
    358      -7.0842      1.00000
    359      -7.0832      1.00000
    360      -7.0816      1.00000
    361      -7.0784      1.00000
    362      -7.0743      1.00000
    363      -7.0739      1.00000
    364      -7.0730      1.00000
    365      -7.0680      1.00000
    366      -7.0640      1.00000
    367      -7.0636      1.00000
    368      -7.0625      1.00000
    369      -7.0623      1.00000
    370      -7.0600      1.00000
    371      -6.9404      1.00000
    372      -6.9391      1.00000
    373      -6.9287      1.00000
    374      -6.9267      1.00000
    375      -6.9257      1.00000
    376      -6.9195      1.00000
    377      -6.9172      1.00000
    378      -6.9166      1.00000
    379      -6.9151      1.00000
    380      -6.9138      1.00000
    381      -6.9070      1.00000
    382      -6.9064      1.00000
    383      -6.8317      1.00000
    384      -6.8303      1.00000
    385      -6.8233      1.00000
    386      -6.8212      1.00000
    387      -6.7935      1.00000
    388      -6.7864      1.00000
    389      -6.6997      1.00000
    390      -6.6925      1.00000
    391      -6.6557      1.00000
    392      -6.6523      1.00000
    393      -6.6420      1.00000
    394      -6.6408      1.00000
    395      -3.2811      1.00000
    396      -3.2726      1.00000
    397      -2.8883      1.00000
    398      -2.8880      1.00000
    399      -2.8877      1.00000
    400      -2.8768      1.00000
    401      -2.8764      1.00000
    402      -2.8762      1.00000
    403      -2.8060      1.00000
    404      -2.8047      1.00000
    405      -2.8030      1.00000
    406      -2.7923      1.00000
    407      -2.7900      1.00000
    408      -2.7883      1.00000
    409      -2.7584      1.00000
    410      -2.7528      1.00000
    411      -2.7339      1.00000
    412      -2.7314      1.00000
    413      -2.7261      1.00000
    414      -2.7254      1.00000
    415      -2.5081      1.00000
    416      -2.5075      1.00000
    417      -2.5021      1.00000
    418      -2.4974      1.00000
    419      -2.4894      1.00000
    420      -2.4841      1.00000
    421      -2.4689      1.00000
    422      -2.4675      1.00000
    423      -2.2256      1.00000
    424      -2.2253      1.00000
    425      -2.2250      1.00000
    426      -2.2233      1.00000
    427      -2.2214      1.00000
    428      -2.2191      1.00000
    429      -2.2038      1.00000
    430      -2.2011      1.00000
    431      -2.2009      1.00000
    432      -2.1981      1.00000
    433      -2.1246      1.00000
    434      -2.1209      1.00000
    435      -2.0331      1.00000
    436      -2.0328      1.00000
    437      -2.0304      1.00000
    438      -2.0303      1.00000
    439      -2.0257      1.00000
    440      -2.0242      1.00000
    441      -2.0226      1.00000
    442      -2.0199      1.00000
    443      -2.0129      1.00000
    444      -2.0092      1.00000
    445      -1.2169      1.00000
    446      -1.2116      1.00000
    447      -1.0264      1.00000
    448      -1.0259      1.00000
    449      -1.0257      1.00000
    450      -1.0257      1.00000
    451      -1.0209      1.00000
    452      -1.0199      1.00000
    453      -1.0104      1.00000
    454      -1.0103      1.00000
    455      -1.0082      1.00000
    456      -1.0081      1.00000
    457      -0.9840      1.00000
    458      -0.9821      1.00000
    459      -0.9671      1.00000
    460      -0.9639      1.00000
    461      -0.9588      1.00000
    462      -0.9563      1.00000
    463      -0.8149      1.00000
    464      -0.8103      1.00000
    465      -0.6721      1.00000
    466      -0.6670      1.00000
    467      -0.6280      1.00000
    468      -0.6275      1.00000
    469      -0.6258      1.00000
    470      -0.6256      1.00000
    471      -0.5820      1.00000
    472      -0.5796      1.00000
    473      -0.5777      1.00000
    474      -0.5755      1.00000
    475      -0.5415      1.00000
    476      -0.5407      1.00000
    477      -0.5396      1.00000
    478      -0.5338      1.00000
    479      -0.5184      1.00000
    480      -0.5151      1.00000
    481      -0.5097      1.00000
    482      -0.5083      1.00000
    483      -0.4461      1.00000
    484      -0.4460      1.00000
    485      -0.4394      1.00000
    486      -0.4393      1.00000
    487      -0.4213      1.00000
    488      -0.4197      1.00000
    489      -0.4178      1.00000
    490      -0.4153      1.00000
    491      -0.4006      1.00000
    492      -0.3987      1.00000
    493      -0.3723      1.00000
    494      -0.3688      1.00000
    495      -0.3668      1.00000
    496      -0.3625      1.00000
    497      -0.3618      1.00000
    498      -0.3617      1.00000
    499      -0.3377      1.00000
    500      -0.3346      1.00000
    501      -0.3213      1.00000
    502      -0.3201      1.00000
    503      -0.3201      1.00000
    504      -0.3195      1.00000
    505      -0.3072      1.00000
    506      -0.3068      1.00000
    507      -0.3029      1.00000
    508      -0.3000      1.00000
    509      -0.2939      1.00000
    510      -0.2903      1.00000
    511      -0.0213      1.00000
    512      -0.0203      1.00000
    513      -0.0127      1.00000
    514      -0.0097      1.00000
    515       0.0259      1.00000
    516       0.0334      1.00000
    517       0.4277      1.00000
    518       0.4374      1.00000
    519       0.4674      1.00000
    520       0.4733      1.00000
    521       0.4769      1.00000
    522       0.4850      1.00000
    523       0.4881      1.00000
    524       0.4909      1.00000
    525       0.5024      1.00000
    526       0.5026      1.00000
    527       0.5119      1.00000
    528       0.5121      1.00000
    529       0.7071      1.00000
    530       0.7200      1.00000
    531       0.7227      1.00000
    532       0.7289      1.00000
    533       0.7361      1.00000
    534       0.7398      1.00000
    535       0.7430      1.00000
    536       0.7544      1.00000
    537       0.8276      1.00000
    538       0.8294      1.00000
    539       0.8382      1.00000
    540       0.8403      1.00000
    541       0.8450      1.00000
    542       0.8502      1.00000
    543       0.8566      1.00000
    544       0.8643      1.00000
    545       0.8691      1.00000
    546       0.8692      1.00000
    547       0.8881      1.00000
    548       0.8966      1.00000
    549       0.9497      1.00000
    550       0.9518      1.00000
    551       0.9554      1.00000
    552       0.9576      1.00000
    553       0.9665      1.00000
    554       0.9695      1.00000
    555       0.9712      1.00000
    556       0.9813      1.00000
    557       0.9833      1.00000
    558       0.9858      1.00000
    559       0.9876      1.00000
    560       0.9898      1.00000
    561       0.9901      1.00000
    562       0.9923      1.00000
    563       0.9989      1.00000
    564       0.9997      1.00000
    565       1.0063      1.00000
    566       1.0073      1.00000
    567       1.0082      1.00000
    568       1.0193      1.00000
    569       1.0231      1.00000
    570       1.0232      1.00000
    571       1.0460      1.00000
    572       1.0461      1.00000
    573       1.2182      1.00000
    574       1.2365      1.00000
    575       1.2378      1.00000
    576       1.2498      1.00000
    577       1.2524      1.00000
    578       1.2597      1.00000
    579       1.2694      1.00000
    580       1.2755      1.00000
    581       1.2835      1.00000
    582       1.2927      1.00000
    583       2.0522      1.00000
    584       2.0726      1.00000
    585       2.0919      1.00000
    586       2.1102      1.00000
    587       2.6621      1.00000
    588       2.6890      1.00000
    589       3.5472      0.58029
    590       3.5612      0.00000
    591       4.1646      0.00000
    592       4.1657      0.00000
    593       4.1664      0.00000
    594       4.2702      0.00000
    595       4.1379      0.00000
    596       4.1387      0.00000
    597       4.1397      0.00000
    598       4.2455      0.00000
    599       5.0070      0.00000
    600       4.9896      0.00000
    601       5.1110      0.00000
    602       5.1329      0.00000
    603       5.1357      0.00000
    604       5.2586      0.00000
    605       5.2618      0.00000
    606       5.2646      0.00000
    607       5.3413      0.00000
    608       4.9512      0.00000
    609       4.9520      0.00000
    610       5.3384      0.00000
    611       5.5103      0.00000
    612       5.5106      0.00000
    613       5.5286      0.00000
    614       5.5444      0.00000
    615       5.5607      0.00000
    616       5.1221      0.00000
    617       5.1404      0.00000
    618       5.1499      0.00000
    619       5.5570      0.00000
    620       5.5249      0.00000
    621       5.4964      0.00000
    622       5.5807      0.00000
    623       5.6176      0.00000
    624       5.5463      0.00000
    625       5.4754      0.00000
    626       5.4887      0.00000
    627       5.4824      0.00000
    628       5.4922      0.00000
    629       5.5864      0.00000
    630       5.4694      0.00000
    631       5.5948      0.00000
    632       5.7306      0.00000
    633       5.7319      0.00000
    634       5.7351      0.00000
    635       5.7492      0.00000
    636       5.7506      0.00000
    637       5.3509      0.00000
    638       5.5005      0.00000
    639       5.5005      0.00000
    640       5.5453      0.00000
    641       5.5691      0.00000
    642       5.5663      0.00000
    643       5.5842      0.00000
    644       5.6454      0.00000
    645       5.6452      0.00000
    646       5.6438      0.00000
    647       5.6520      0.00000
    648       5.6612      0.00000
    649       5.7020      0.00000
    650       5.6962      0.00000
    651       5.7005      0.00000
    652       5.7034      0.00000
    653       5.7086      0.00000
    654       5.7093      0.00000
    655       5.7321      0.00000
    656       5.7321      0.00000
    657       6.4230      0.00000
    658       6.6393      0.00000
    659       6.6656      0.00000
    660       6.6593      0.00000
    661       6.7041      0.00000
    662       6.8408      0.00000
    663       6.7755      0.00000
    664       6.5676      0.00000
    665       6.9386      0.00000
    666       7.0501      0.00000
    667       7.0279      0.00000
    668       7.0739      0.00000
    669       7.1305      0.00000
    670       7.1153      0.00000
    671       7.1408      0.00000
    672       7.1543      0.00000
    673       7.0545      0.00000
    674       7.0664      0.00000
    675       7.0299      0.00000
    676       7.0045      0.00000
    677       6.9783      0.00000
    678       6.9875      0.00000
    679       7.2712      0.00000
    680       7.0487      0.00000
    681       7.0878      0.00000
    682       7.3827      0.00000
    683       7.1377      0.00000
    684       7.1368      0.00000
    685       7.1488      0.00000
    686       7.1487      0.00000
    687       7.1991      0.00000
    688       7.1814      0.00000
    689       7.1633      0.00000
    690       7.2258      0.00000
    691       7.2571      0.00000
    692       7.6266      0.00000
    693       7.5800      0.00000
    694       7.6116      0.00000
    695       7.6391      0.00000
    696       7.6541      0.00000
    697       7.6787      0.00000
    698       7.4312      0.00000
    699       7.7162      0.00000
    700       7.6343      0.00000
    701       7.7494      0.00000
    702       7.7031      0.00000
    703       7.3363      0.00000
    704       7.6888      0.00000
    705       7.7712      0.00000
    706       7.7253      0.00000
    707       7.7130      0.00000
    708       7.7653      0.00000
    709       7.6067      0.00000
    710       7.7822      0.00000
    711       7.9291      0.00000
    712       7.9388      0.00000
    713       7.9336      0.00000
    714       7.9500      0.00000
    715       7.9756      0.00000
    716       7.7329      0.00000
    717       7.9935      0.00000
    718       8.0227      0.00000
    719       7.8517      0.00000
    720       7.9266      0.00000
    721       7.8888      0.00000
    722       8.0314      0.00000
    723       7.9084      0.00000
    724       7.9866      0.00000
    725       7.9914      0.00000
    726       7.7830      0.00000
    727       7.8496      0.00000
    728       7.8629      0.00000
    729       7.9743      0.00000
    730       7.8904      0.00000
    731       8.0268      0.00000
    732       7.8894      0.00000
    733       7.9764      0.00000
    734       7.9301      0.00000
    735       7.9528      0.00000
    736       7.7974      0.00000
    737       7.8727      0.00000
    738       8.0357      0.00000
    739       7.9826      0.00000
    740       7.9744      0.00000
    741       7.9983      0.00000
    742       7.8242      0.00000
    743       7.8987      0.00000
    744       7.8167      0.00000
    745       8.0003      0.00000
    746       8.0158      0.00000
    747       8.0192      0.00000
    748       8.0471      0.00000
    749       8.2715      0.00000
    750       8.2842      0.00000
    751       8.2981      0.00000
    752       8.1459      0.00000
    753       8.1105      0.00000
    754       8.2065      0.00000
    755       8.2435      0.00000
    756       8.3761      0.00000
    757       8.3900      0.00000
    758       8.3695      0.00000
    759       8.3528      0.00000
    760       8.3846      0.00000
    761       8.4185      0.00000
    762       8.3977      0.00000
    763       8.4109      0.00000
    764       8.4121      0.00000
    765       8.2800      0.00000
    766       8.2759      0.00000
    767       8.2210      0.00000
    768       8.4480      0.00000
    769       8.2117      0.00000
    770       8.2357      0.00000
    771       8.2642      0.00000
    772       8.2630      0.00000
    773       8.3356      0.00000
    774       8.7409      0.00000
    775       8.7421      0.00000
    776       8.7515      0.00000
    777       8.6963      0.00000
    778       8.8111      0.00000
    779       8.7892      0.00000
    780       8.5666      0.00000
    781       8.9334      0.00000
    782       8.9850      0.00000
    783       8.9759      0.00000
    784       9.0143      0.00000
    785       8.9960      0.00000
    786       9.0466      0.00000
    787       9.0297      0.00000
    788       9.0358      0.00000
    789       9.0619      0.00000
    790       9.0956      0.00000
    791       9.1033      0.00000
    792       9.1075      0.00000

 k-point     2 :       0.5000    0.0000    0.0000
  band No.  band energies     occupation 
      1     -10.0863      1.00000
      2     -10.0724      1.00000
      3     -10.0533      1.00000
      4     -10.0370      1.00000
      5      -9.9457      1.00000
      6      -9.9377      1.00000
      7      -9.9068      1.00000
      8      -9.9011      1.00000
      9      -9.8990      1.00000
     10      -9.8906      1.00000
     11      -9.8813      1.00000
     12      -9.8774      1.00000
     13      -9.8728      1.00000
     14      -9.8674      1.00000
     15      -9.8649      1.00000
     16      -9.8624      1.00000
     17      -9.8516      1.00000
     18      -9.8469      1.00000
     19      -9.8420      1.00000
     20      -9.8407      1.00000
     21      -9.8339      1.00000
     22      -9.8328      1.00000
     23      -9.8295      1.00000
     24      -9.8286      1.00000
     25      -9.8253      1.00000
     26      -9.8183      1.00000
     27      -9.8148      1.00000
     28      -9.8132      1.00000
     29      -9.8040      1.00000
     30      -9.7968      1.00000
     31      -9.7909      1.00000
     32      -9.7894      1.00000
     33      -9.7867      1.00000
     34      -9.7843      1.00000
     35      -9.7816      1.00000
     36      -9.7753      1.00000
     37      -9.7748      1.00000
     38      -9.7650      1.00000
     39      -9.7644      1.00000
     40      -9.7574      1.00000
     41      -9.7535      1.00000
     42      -9.7492      1.00000
     43      -9.7456      1.00000
     44      -9.7400      1.00000
     45      -9.7390      1.00000
     46      -9.7342      1.00000
     47      -9.7244      1.00000
     48      -9.7220      1.00000
     49      -9.7211      1.00000
     50      -9.7123      1.00000
     51      -9.7081      1.00000
     52      -9.7003      1.00000
     53      -9.6970      1.00000
     54      -9.6917      1.00000
     55      -9.6885      1.00000
     56      -9.6815      1.00000
     57      -9.6789      1.00000
     58      -9.6691      1.00000
     59      -9.6659      1.00000
     60      -9.6502      1.00000
     61      -9.6418      1.00000
     62      -9.6354      1.00000
     63      -9.6349      1.00000
     64      -9.6239      1.00000
     65      -8.3400      1.00000
     66      -8.3369      1.00000
     67      -8.3312      1.00000
     68      -8.3269      1.00000
     69      -8.3257      1.00000
     70      -8.3234      1.00000
     71      -8.3130      1.00000
     72      -8.3082      1.00000
     73      -8.2801      1.00000
     74      -8.2780      1.00000
     75      -8.2738      1.00000
     76      -8.2724      1.00000
     77      -8.2716      1.00000
     78      -8.2707      1.00000
     79      -8.2697      1.00000
     80      -8.2687      1.00000
     81      -8.2664      1.00000
     82      -8.2659      1.00000
     83      -8.2652      1.00000
     84      -8.2643      1.00000
     85      -8.2620      1.00000
     86      -8.2614      1.00000
     87      -8.2607      1.00000
     88      -8.2603      1.00000
     89      -8.2537      1.00000
     90      -8.2536      1.00000
     91      -8.2526      1.00000
     92      -8.2522      1.00000
     93      -8.2511      1.00000
     94      -8.2503      1.00000
     95      -8.2488      1.00000
     96      -8.2478      1.00000
     97      -8.2464      1.00000
     98      -8.2463      1.00000
     99      -8.2448      1.00000
    100      -8.2442      1.00000
    101      -8.2414      1.00000
    102      -8.2406      1.00000
    103      -8.2385      1.00000
    104      -8.2380      1.00000
    105      -8.2328      1.00000
    106      -8.2318      1.00000
    107      -8.2313      1.00000
    108      -8.2309      1.00000
    109      -8.2297      1.00000
    110      -8.2280      1.00000
    111      -8.2263      1.00000
    112      -8.2255      1.00000
    113      -8.2220      1.00000
    114      -8.2210      1.00000
    115      -8.2206      1.00000
    116      -8.2198      1.00000
    117      -8.2196      1.00000
    118      -8.2187      1.00000
    119      -8.2162      1.00000
    120      -8.2148      1.00000
    121      -8.2123      1.00000
    122      -8.2113      1.00000
    123      -8.2102      1.00000
    124      -8.2093      1.00000
    125      -8.1974      1.00000
    126      -8.1966      1.00000
    127      -8.1960      1.00000
    128      -8.1944      1.00000
    129      -8.1902      1.00000
    130      -8.1890      1.00000
    131      -8.1882      1.00000
    132      -8.1866      1.00000
    133      -8.1579      1.00000
    134      -8.1573      1.00000
    135      -8.1560      1.00000
    136      -8.1553      1.00000
    137      -8.1539      1.00000
    138      -8.1531      1.00000
    139      -8.1488      1.00000
    140      -8.1482      1.00000
    141      -8.1396      1.00000
    142      -8.1389      1.00000
    143      -8.1378      1.00000
    144      -8.1374      1.00000
    145      -8.1368      1.00000
    146      -8.1363      1.00000
    147      -8.1309      1.00000
    148      -8.1302      1.00000
    149      -8.0962      1.00000
    150      -8.0955      1.00000
    151      -8.0944      1.00000
    152      -8.0940      1.00000
    153      -8.0869      1.00000
    154      -8.0862      1.00000
    155      -8.0856      1.00000
    156      -8.0847      1.00000
    157      -8.0847      1.00000
    158      -8.0837      1.00000
    159      -8.0719      1.00000
    160      -8.0715      1.00000
    161      -8.0368      1.00000
    162      -8.0355      1.00000
    163      -8.0314      1.00000
    164      -8.0307      1.00000
    165      -8.0172      1.00000
    166      -8.0166      1.00000
    167      -8.0116      1.00000
    168      -8.0102      1.00000
    169      -8.0037      1.00000
    170      -8.0021      1.00000
    171      -7.9995      1.00000
    172      -7.9980      1.00000
    173      -7.9343      1.00000
    174      -7.9335      1.00000
    175      -7.9309      1.00000
    176      -7.9295      1.00000
    177      -7.9268      1.00000
    178      -7.9254      1.00000
    179      -7.9228      1.00000
    180      -7.9215      1.00000
    181      -7.8849      1.00000
    182      -7.8825      1.00000
    183      -7.8730      1.00000
    184      -7.8718      1.00000
    185      -7.8497      1.00000
    186      -7.8493      1.00000
    187      -7.8481      1.00000
    188      -7.8477      1.00000
    189      -7.8295      1.00000
    190      -7.8290      1.00000
    191      -7.8278      1.00000
    192      -7.8277      1.00000
    193      -7.8067      1.00000
    194      -7.8043      1.00000
    195      -7.7972      1.00000
    196      -7.7946      1.00000
    197      -7.6747      1.00000
    198      -7.6719      1.00000
    199      -7.6562      1.00000
    200      -7.6536      1.00000
    201      -7.6203      1.00000
    202      -7.6180      1.00000
    203      -7.6100      1.00000
    204      -7.6085      1.00000
    205      -7.6027      1.00000
    206      -7.6022      1.00000
    207      -7.5971      1.00000
    208      -7.5966      1.00000
    209      -7.5900      1.00000
    210      -7.5890      1.00000
    211      -7.5884      1.00000
    212      -7.5878      1.00000
    213      -7.5849      1.00000
    214      -7.5834      1.00000
    215      -7.5794      1.00000
    216      -7.5779      1.00000
    217      -7.5754      1.00000
    218      -7.5745      1.00000
    219      -7.5716      1.00000
    220      -7.5706      1.00000
    221      -7.5704      1.00000
    222      -7.5697      1.00000
    223      -7.5680      1.00000
    224      -7.5675      1.00000
    225      -7.5630      1.00000
    226      -7.5626      1.00000
    227      -7.5601      1.00000
    228      -7.5592      1.00000
    229      -7.5584      1.00000
    230      -7.5576      1.00000
    231      -7.5524      1.00000
    232      -7.5517      1.00000
    233      -7.5506      1.00000
    234      -7.5493      1.00000
    235      -7.5446      1.00000
    236      -7.5441      1.00000
    237      -7.5436      1.00000
    238      -7.5425      1.00000
    239      -7.5359      1.00000
    240      -7.5358      1.00000
    241      -7.5353      1.00000
    242      -7.5350      1.00000
    243      -7.5335      1.00000
    244      -7.5327      1.00000
    245      -7.5314      1.00000
    246      -7.5299      1.00000
    247      -7.5293      1.00000
    248      -7.5285      1.00000
    249      -7.5245      1.00000
    250      -7.5225      1.00000
    251      -7.5209      1.00000
    252      -7.5194      1.00000
    253      -7.5182      1.00000
    254      -7.5172      1.00000
    255      -7.5168      1.00000
    256      -7.5162      1.00000
    257      -7.5106      1.00000
    258      -7.5086      1.00000
    259      -7.5075      1.00000
    260      -7.5057      1.00000
    261      -7.5012      1.00000
    262      -7.5005      1.00000
    263      -7.4996      1.00000
    264      -7.4983      1.00000
    265      -7.4900      1.00000
    266      -7.4899      1.00000
    267      -7.4890      1.00000
    268      -7.4888      1.00000
    269      -7.4877      1.00000
    270      -7.4872      1.00000
    271      -7.4864      1.00000
    272      -7.4861      1.00000
    273      -7.4849      1.00000
    274      -7.4836      1.00000
    275      -7.4828      1.00000
    276      -7.4818      1.00000
    277      -7.4809      1.00000
    278      -7.4792      1.00000
    279      -7.4780      1.00000
    280      -7.4772      1.00000
    281      -7.4748      1.00000
    282      -7.4745      1.00000
    283      -7.4725      1.00000
    284      -7.4720      1.00000
    285      -7.4707      1.00000
    286      -7.4703      1.00000
    287      -7.4694      1.00000
    288      -7.4694      1.00000
    289      -7.4674      1.00000
    290      -7.4659      1.00000
    291      -7.4634      1.00000
    292      -7.4627      1.00000
    293      -7.4594      1.00000
    294      -7.4586      1.00000
    295      -7.4567      1.00000
    296      -7.4558      1.00000
    297      -7.4501      1.00000
    298      -7.4496      1.00000
    299      -7.4485      1.00000
    300      -7.4474      1.00000
    301      -7.4471      1.00000
    302      -7.4459      1.00000
    303      -7.4446      1.00000
    304      -7.4441      1.00000
    305      -7.4394      1.00000
    306      -7.4386      1.00000
    307      -7.4377      1.00000
    308      -7.4367      1.00000
    309      -7.4354      1.00000
    310      -7.4346      1.00000
    311      -7.4344      1.00000
    312      -7.4339      1.00000
    313      -7.4316      1.00000
    314      -7.4309      1.00000
    315      -7.4304      1.00000
    316      -7.4296      1.00000
    317      -7.4288      1.00000
    318      -7.4283      1.00000
    319      -7.4271      1.00000
    320      -7.4264      1.00000
    321      -7.4237      1.00000
    322      -7.4233      1.00000
    323      -7.4227      1.00000
    324      -7.4218      1.00000
    325      -7.3821      1.00000
    326      -7.3811      1.00000
    327      -7.3677      1.00000
    328      -7.3659      1.00000
    329      -7.3469      1.00000
    330      -7.3453      1.00000
    331      -7.3430      1.00000
    332      -7.3426      1.00000
    333      -7.3348      1.00000
    334      -7.3331      1.00000
    335      -7.3049      1.00000
    336      -7.3024      1.00000
    337      -7.3010      1.00000
    338      -7.2992      1.00000
    339      -7.2856      1.00000
    340      -7.2829      1.00000
    341      -7.2636      1.00000
    342      -7.2602      1.00000
    343      -7.2511      1.00000
    344      -7.2479      1.00000
    345      -7.1798      1.00000
    346      -7.1767      1.00000
    347      -7.1740      1.00000
    348      -7.1732      1.00000
    349      -7.1604      1.00000
    350      -7.1594      1.00000
    351      -7.1561      1.00000
    352      -7.1547      1.00000
    353      -7.1350      1.00000
    354      -7.1283      1.00000
    355      -7.1016      1.00000
    356      -7.0922      1.00000
    357      -7.0873      1.00000
    358      -7.0826      1.00000
    359      -7.0725      1.00000
    360      -7.0688      1.00000
    361      -7.0638      1.00000
    362      -7.0619      1.00000
    363      -7.0598      1.00000
    364      -7.0564      1.00000
    365      -7.0447      1.00000
    366      -7.0419      1.00000
    367      -7.0186      1.00000
    368      -7.0151      1.00000
    369      -7.0129      1.00000
    370      -7.0112      1.00000
    371      -7.0098      1.00000
    372      -7.0061      1.00000
    373      -6.9443      1.00000
    374      -6.9439      1.00000
    375      -6.9361      1.00000
    376      -6.9353      1.00000
    377      -6.9199      1.00000
    378      -6.9156      1.00000
    379      -6.9136      1.00000
    380      -6.9057      1.00000
    381      -6.8608      1.00000
    382      -6.8571      1.00000
    383      -6.8541      1.00000
    384      -6.8508      1.00000
    385      -6.8486      1.00000
    386      -6.8413      1.00000
    387      -6.8320      1.00000
    388      -6.8235      1.00000
    389      -6.7131      1.00000
    390      -6.7044      1.00000
    391      -6.6731      1.00000
    392      -6.6630      1.00000
    393      -6.6591      1.00000
    394      -6.6482      1.00000
    395      -3.1735      1.00000
    396      -3.1596      1.00000
    397      -2.8052      1.00000
    398      -2.7963      1.00000
    399      -2.7902      1.00000
    400      -2.7817      1.00000
    401      -2.6617      1.00000
    402      -2.6563      1.00000
    403      -2.6545      1.00000
    404      -2.6532      1.00000
    405      -2.6469      1.00000
    406      -2.6426      1.00000
    407      -2.6407      1.00000
    408      -2.6359      1.00000
    409      -2.6352      1.00000
    410      -2.6306      1.00000
    411      -2.6278      1.00000
    412      -2.6250      1.00000
    413      -2.6232      1.00000
    414      -2.6176      1.00000
    415      -2.6163      1.00000
    416      -2.6079      1.00000
    417      -2.6070      1.00000
    418      -2.6013      1.00000
    419      -2.5805      1.00000
    420      -2.5716      1.00000
    421      -2.5355      1.00000
    422      -2.5317      1.00000
    423      -2.5240      1.00000
    424      -2.5203      1.00000
    425      -2.5120      1.00000
    426      -2.5016      1.00000
    427      -2.4172      1.00000
    428      -2.4125      1.00000
    429      -2.4075      1.00000
    430      -2.4030      1.00000
    431      -2.4005      1.00000
    432      -2.3963      1.00000
    433      -2.3922      1.00000
    434      -2.3876      1.00000
    435      -2.2873      1.00000
    436      -2.2789      1.00000
    437      -2.2564      1.00000
    438      -2.2489      1.00000
    439      -1.7044      1.00000
    440      -1.7020      1.00000
    441      -1.5341      1.00000
    442      -1.5335      1.00000
    443      -1.5247      1.00000
    444      -1.5240      1.00000
    445      -1.4974      1.00000
    446      -1.4966      1.00000
    447      -1.4663      1.00000
    448      -1.4648      1.00000
    449      -1.4114      1.00000
    450      -1.4107      1.00000
    451      -1.3935      1.00000
    452      -1.3923      1.00000
    453      -1.3863      1.00000
    454      -1.3855      1.00000
    455      -1.1462      1.00000
    456      -1.1378      1.00000
    457      -1.0333      1.00000
    458      -1.0280      1.00000
    459      -1.0179      1.00000
    460      -1.0133      1.00000
    461      -0.9952      1.00000
    462      -0.9912      1.00000
    463      -0.8086      1.00000
    464      -0.8080      1.00000
    465      -0.7318      1.00000
    466      -0.7278      1.00000
    467      -0.7130      1.00000
    468      -0.7085      1.00000
    469      -0.6834      1.00000
    470      -0.6810      1.00000
    471      -0.6647      1.00000
    472      -0.6590      1.00000
    473      -0.6547      1.00000
    474      -0.6518      1.00000
    475      -0.4333      1.00000
    476      -0.4298      1.00000
    477      -0.4222      1.00000
    478      -0.4166      1.00000
    479      -0.2793      1.00000
    480      -0.2722      1.00000
    481      -0.2716      1.00000
    482      -0.2692      1.00000
    483      -0.2197      1.00000
    484      -0.2126      1.00000
    485      -0.2049      1.00000
    486      -0.1970      1.00000
    487      -0.1346      1.00000
    488      -0.1203      1.00000
    489      -0.1185      1.00000
    490      -0.1040      1.00000
    491       0.0475      1.00000
    492       0.0552      1.00000
    493       0.0584      1.00000
    494       0.0719      1.00000
    495       0.0769      1.00000
    496       0.0835      1.00000
    497       0.0901      1.00000
    498       0.0941      1.00000
    499       0.1289      1.00000
    500       0.1326      1.00000
    501       0.1358      1.00000
    502       0.1409      1.00000
    503       0.1468      1.00000
    504       0.1535      1.00000
    505       0.1554      1.00000
    506       0.1635      1.00000
    507       0.1643      1.00000
    508       0.1729      1.00000
    509       0.1773      1.00000
    510       0.1834      1.00000
    511       0.1966      1.00000
    512       0.2019      1.00000
    513       0.2083      1.00000
    514       0.2142      1.00000
    515       0.2212      1.00000
    516       0.2244      1.00000
    517       0.2246      1.00000
    518       0.2315      1.00000
    519       0.2717      1.00000
    520       0.2738      1.00000
    521       0.2837      1.00000
    522       0.2869      1.00000
    523       0.2875      1.00000
    524       0.2903      1.00000
    525       0.2920      1.00000
    526       0.2950      1.00000
    527       0.2963      1.00000
    528       0.2976      1.00000
    529       0.3057      1.00000
    530       0.3099      1.00000
    531       0.3177      1.00000
    532       0.3194      1.00000
    533       0.3272      1.00000
    534       0.3327      1.00000
    535       0.3380      1.00000
    536       0.3404      1.00000
    537       0.3441      1.00000
    538       0.3467      1.00000
    539       0.3488      1.00000
    540       0.3560      1.00000
    541       0.3582      1.00000
    542       0.3631      1.00000
    543       0.4271      1.00000
    544       0.4395      1.00000
    545       0.4437      1.00000
    546       0.4544      1.00000
    547       0.9115      1.00000
    548       0.9255      1.00000
    549       0.9319      1.00000
    550       0.9443      1.00000
    551       0.9519      1.00000
    552       0.9578      1.00000
    553       0.9655      1.00000
    554       0.9712      1.00000
    555       1.0009      1.00000
    556       1.0048      1.00000
    557       1.0079      1.00000
    558       1.0104      1.00000
    559       1.0124      1.00000
    560       1.0173      1.00000
    561       1.0256      1.00000
    562       1.0342      1.00000
    563       1.0375      1.00000
    564       1.0408      1.00000
    565       1.0432      1.00000
    566       1.0483      1.00000
    567       1.0491      1.00000
    568       1.0560      1.00000
    569       1.0618      1.00000
    570       1.0666      1.00000
    571       1.0707      1.00000
    572       1.0753      1.00000
    573       1.0832      1.00000
    574       1.0879      1.00000
    575       1.0917      1.00000
    576       1.1011      1.00000
    577       1.1092      1.00000
    578       1.1357      1.00000
    579       1.2502      1.00000
    580       1.2515      1.00000
    581       1.2705      1.00000
    582       1.2727      1.00000
    583       1.6358      1.00000
    584       1.6585      1.00000
    585       1.6625      1.00000
    586       1.6836      1.00000
    587       3.0725      1.00000
    588       3.1480      0.91388
    589       4.3993      0.00000
    590       4.5332      0.00000
    591       4.6933      0.00000
    592       4.6937      0.00000
    593       4.4167      0.00000
    594       4.8241      0.00000
    595       4.5389      0.00000
    596       4.9237      0.00000
    597       4.9142      0.00000
    598       4.9454      0.00000
    599       4.9740      0.00000
    600       4.9891      0.00000
    601       4.7448      0.00000
    602       4.7837      0.00000
    603       5.1019      0.00000
    604       5.1377      0.00000
    605       4.8499      0.00000
    606       4.9417      0.00000
    607       4.9917      0.00000
    608       5.2841      0.00000
    609       5.0695      0.00000
    610       5.0769      0.00000
    611       5.3168      0.00000
    612       5.1181      0.00000
    613       5.4963      0.00000
    614       5.4750      0.00000
    615       5.5387      0.00000
    616       5.0743      0.00000
    617       5.5253      0.00000
    618       5.6112      0.00000
    619       5.5869      0.00000
    620       5.2192      0.00000
    621       5.6196      0.00000
    622       5.6656      0.00000
    623       5.7037      0.00000
    624       5.6610      0.00000
    625       5.7432      0.00000
    626       5.7152      0.00000
    627       5.7303      0.00000
    628       5.5033      0.00000
    629       5.7550      0.00000
    630       5.4591      0.00000
    631       5.8689      0.00000
    632       5.5575      0.00000
    633       5.5197      0.00000
    634       5.6445      0.00000
    635       5.8903      0.00000
    636       5.6223      0.00000
    637       5.9643      0.00000
    638       5.9884      0.00000
    639       5.7614      0.00000
    640       5.9009      0.00000
    641       5.7291      0.00000
    642       5.6926      0.00000
    643       5.7713      0.00000
    644       5.9869      0.00000
    645       5.8296      0.00000
    646       5.7416      0.00000
    647       5.7769      0.00000
    648       6.0600      0.00000
    649       5.8274      0.00000
    650       6.1572      0.00000
    651       6.1055      0.00000
    652       5.8651      0.00000
    653       6.2230      0.00000
    654       5.8771      0.00000
    655       5.9298      0.00000
    656       5.9875      0.00000
    657       6.0426      0.00000
    658       6.3620      0.00000
    659       6.3261      0.00000
    660       6.3837      0.00000
    661       6.1278      0.00000
    662       6.0913      0.00000
    663       6.4256      0.00000
    664       6.4394      0.00000
    665       6.4466      0.00000
    666       6.4537      0.00000
    667       6.1753      0.00000
    668       6.4201      0.00000
    669       6.2382      0.00000
    670       6.2069      0.00000
    671       6.4864      0.00000
    672       6.2372      0.00000
    673       6.2703      0.00000
    674       6.3751      0.00000
    675       6.3843      0.00000
    676       6.3845      0.00000
    677       6.4195      0.00000
    678       6.4373      0.00000
    679       6.4508      0.00000
    680       6.4551      0.00000
    681       6.4570      0.00000
    682       6.4592      0.00000
    683       7.0071      0.00000
    684       7.0228      0.00000
    685       7.0533      0.00000
    686       7.1423      0.00000
    687       7.1674      0.00000
    688       7.3465      0.00000
    689       7.3700      0.00000
    690       7.3944      0.00000
    691       7.3845      0.00000
    692       7.3626      0.00000
    693       7.3625      0.00000
    694       7.2824      0.00000
    695       7.3915      0.00000
    696       7.3685      0.00000
    697       7.3546      0.00000
    698       7.4969      0.00000
    699       7.4809      0.00000
    700       7.4769      0.00000
    701       7.4832      0.00000
    702       7.1935      0.00000
    703       7.5840      0.00000
    704       7.5924      0.00000
    705       7.6610      0.00000
    706       7.4699      0.00000
    707       7.4676      0.00000
    708       7.7123      0.00000
    709       7.5300      0.00000
    710       7.5578      0.00000
    711       7.5601      0.00000
    712       7.4366      0.00000
    713       7.6512      0.00000
    714       7.5491      0.00000
    715       7.7029      0.00000
    716       7.6084      0.00000
    717       7.5181      0.00000
    718       7.4949      0.00000
    719       7.5038      0.00000
    720       7.4886      0.00000
    721       7.9247      0.00000
    722       7.8996      0.00000
    723       7.9159      0.00000
    724       7.9150      0.00000
    725       7.9188      0.00000
    726       7.7590      0.00000
    727       7.8910      0.00000
    728       7.7818      0.00000
    729       7.8913      0.00000
    730       7.9892      0.00000
    731       7.9690      0.00000
    732       7.9573      0.00000
    733       7.9528      0.00000
    734       7.9540      0.00000
    735       8.0252      0.00000
    736       8.0199      0.00000
    737       8.0322      0.00000
    738       8.0352      0.00000
    739       7.9999      0.00000
    740       8.0295      0.00000
    741       8.0239      0.00000
    742       8.0224      0.00000
    743       8.0454      0.00000
    744       8.0421      0.00000
    745       7.7030      0.00000
    746       7.7269      0.00000
    747       7.7681      0.00000
    748       7.7975      0.00000
    749       7.9391      0.00000
    750       7.9289      0.00000
    751       7.9272      0.00000
    752       7.9307      0.00000
    753       7.9506      0.00000
    754       7.9544      0.00000
    755       7.9777      0.00000
    756       7.9895      0.00000
    757       7.9841      0.00000
    758       7.9952      0.00000
    759       7.9897      0.00000
    760       7.9962      0.00000
    761       8.0229      0.00000
    762       8.0319      0.00000
    763       8.0205      0.00000
    764       8.0241      0.00000
    765       7.9932      0.00000
    766       8.0224      0.00000
    767       8.0075      0.00000
    768       8.0093      0.00000
    769       8.0314      0.00000
    770       8.0410      0.00000
    771       8.7521      0.00000
    772       8.7902      0.00000
    773       8.8285      0.00000
    774       8.8566      0.00000
    775       8.8863      0.00000
    776       8.9047      0.00000
    777       8.9341      0.00000
    778       8.9502      0.00000
    779       9.1595      0.00000
    780       9.2505      0.00000
    781       9.0293      0.00000
    782       9.3178      0.00000
    783       9.1276      0.00000
    784       8.9917      0.00000
    785       9.3628      0.00000
    786       9.4062      0.00000
    787       9.3546      0.00000
    788       9.0276      0.00000
    789       9.1799      0.00000
    790       9.2534      0.00000
    791       9.1666      0.00000
    792       9.4434      0.00000

 k-point     3 :       0.0000    0.5000    0.0000
  band No.  band energies     occupation 
      1     -10.0863      1.00000
      2     -10.0724      1.00000
      3     -10.0533      1.00000
      4     -10.0371      1.00000
      5      -9.9457      1.00000
      6      -9.9377      1.00000
      7      -9.9068      1.00000
      8      -9.9009      1.00000
      9      -9.8990      1.00000
     10      -9.8905      1.00000
     11      -9.8814      1.00000
     12      -9.8775      1.00000
     13      -9.8729      1.00000
     14      -9.8675      1.00000
     15      -9.8649      1.00000
     16      -9.8623      1.00000
     17      -9.8515      1.00000
     18      -9.8469      1.00000
     19      -9.8421      1.00000
     20      -9.8408      1.00000
     21      -9.8339      1.00000
     22      -9.8329      1.00000
     23      -9.8295      1.00000
     24      -9.8287      1.00000
     25      -9.8254      1.00000
     26      -9.8183      1.00000
     27      -9.8148      1.00000
     28      -9.8132      1.00000
     29      -9.8040      1.00000
     30      -9.7967      1.00000
     31      -9.7908      1.00000
     32      -9.7894      1.00000
     33      -9.7866      1.00000
     34      -9.7843      1.00000
     35      -9.7817      1.00000
     36      -9.7753      1.00000
     37      -9.7748      1.00000
     38      -9.7651      1.00000
     39      -9.7644      1.00000
     40      -9.7574      1.00000
     41      -9.7535      1.00000
     42      -9.7492      1.00000
     43      -9.7456      1.00000
     44      -9.7400      1.00000
     45      -9.7390      1.00000
     46      -9.7343      1.00000
     47      -9.7245      1.00000
     48      -9.7220      1.00000
     49      -9.7210      1.00000
     50      -9.7123      1.00000
     51      -9.7081      1.00000
     52      -9.7003      1.00000
     53      -9.6970      1.00000
     54      -9.6917      1.00000
     55      -9.6885      1.00000
     56      -9.6815      1.00000
     57      -9.6789      1.00000
     58      -9.6691      1.00000
     59      -9.6659      1.00000
     60      -9.6502      1.00000
     61      -9.6418      1.00000
     62      -9.6353      1.00000
     63      -9.6349      1.00000
     64      -9.6238      1.00000
     65      -8.3400      1.00000
     66      -8.3369      1.00000
     67      -8.3312      1.00000
     68      -8.3269      1.00000
     69      -8.3257      1.00000
     70      -8.3234      1.00000
     71      -8.3130      1.00000
     72      -8.3082      1.00000
     73      -8.2800      1.00000
     74      -8.2780      1.00000
     75      -8.2739      1.00000
     76      -8.2724      1.00000
     77      -8.2716      1.00000
     78      -8.2707      1.00000
     79      -8.2696      1.00000
     80      -8.2687      1.00000
     81      -8.2665      1.00000
     82      -8.2659      1.00000
     83      -8.2651      1.00000
     84      -8.2644      1.00000
     85      -8.2620      1.00000
     86      -8.2614      1.00000
     87      -8.2607      1.00000
     88      -8.2603      1.00000
     89      -8.2538      1.00000
     90      -8.2536      1.00000
     91      -8.2526      1.00000
     92      -8.2522      1.00000
     93      -8.2511      1.00000
     94      -8.2502      1.00000
     95      -8.2488      1.00000
     96      -8.2478      1.00000
     97      -8.2464      1.00000
     98      -8.2463      1.00000
     99      -8.2449      1.00000
    100      -8.2442      1.00000
    101      -8.2414      1.00000
    102      -8.2406      1.00000
    103      -8.2385      1.00000
    104      -8.2380      1.00000
    105      -8.2328      1.00000
    106      -8.2318      1.00000
    107      -8.2312      1.00000
    108      -8.2309      1.00000
    109      -8.2297      1.00000
    110      -8.2280      1.00000
    111      -8.2263      1.00000
    112      -8.2255      1.00000
    113      -8.2220      1.00000
    114      -8.2211      1.00000
    115      -8.2206      1.00000
    116      -8.2198      1.00000
    117      -8.2197      1.00000
    118      -8.2187      1.00000
    119      -8.2163      1.00000
    120      -8.2149      1.00000
    121      -8.2123      1.00000
    122      -8.2113      1.00000
    123      -8.2101      1.00000
    124      -8.2093      1.00000
    125      -8.1974      1.00000
    126      -8.1966      1.00000
    127      -8.1960      1.00000
    128      -8.1944      1.00000
    129      -8.1902      1.00000
    130      -8.1890      1.00000
    131      -8.1882      1.00000
    132      -8.1866      1.00000
    133      -8.1579      1.00000
    134      -8.1573      1.00000
    135      -8.1560      1.00000
    136      -8.1553      1.00000
    137      -8.1539      1.00000
    138      -8.1531      1.00000
    139      -8.1488      1.00000
    140      -8.1482      1.00000
    141      -8.1396      1.00000
    142      -8.1389      1.00000
    143      -8.1379      1.00000
    144      -8.1374      1.00000
    145      -8.1368      1.00000
    146      -8.1364      1.00000
    147      -8.1309      1.00000
    148      -8.1302      1.00000
    149      -8.0962      1.00000
    150      -8.0955      1.00000
    151      -8.0945      1.00000
    152      -8.0940      1.00000
    153      -8.0869      1.00000
    154      -8.0862      1.00000
    155      -8.0856      1.00000
    156      -8.0848      1.00000
    157      -8.0847      1.00000
    158      -8.0837      1.00000
    159      -8.0719      1.00000
    160      -8.0714      1.00000
    161      -8.0368      1.00000
    162      -8.0355      1.00000
    163      -8.0314      1.00000
    164      -8.0307      1.00000
    165      -8.0172      1.00000
    166      -8.0167      1.00000
    167      -8.0116      1.00000
    168      -8.0102      1.00000
    169      -8.0037      1.00000
    170      -8.0021      1.00000
    171      -7.9995      1.00000
    172      -7.9980      1.00000
    173      -7.9343      1.00000
    174      -7.9335      1.00000
    175      -7.9309      1.00000
    176      -7.9295      1.00000
    177      -7.9268      1.00000
    178      -7.9254      1.00000
    179      -7.9228      1.00000
    180      -7.9215      1.00000
    181      -7.8850      1.00000
    182      -7.8825      1.00000
    183      -7.8730      1.00000
    184      -7.8718      1.00000
    185      -7.8497      1.00000
    186      -7.8492      1.00000
    187      -7.8482      1.00000
    188      -7.8477      1.00000
    189      -7.8295      1.00000
    190      -7.8290      1.00000
    191      -7.8278      1.00000
    192      -7.8277      1.00000
    193      -7.8067      1.00000
    194      -7.8043      1.00000
    195      -7.7972      1.00000
    196      -7.7946      1.00000
    197      -7.6747      1.00000
    198      -7.6719      1.00000
    199      -7.6562      1.00000
    200      -7.6535      1.00000
    201      -7.6203      1.00000
    202      -7.6180      1.00000
    203      -7.6100      1.00000
    204      -7.6085      1.00000
    205      -7.6027      1.00000
    206      -7.6022      1.00000
    207      -7.5971      1.00000
    208      -7.5966      1.00000
    209      -7.5899      1.00000
    210      -7.5891      1.00000
    211      -7.5885      1.00000
    212      -7.5879      1.00000
    213      -7.5849      1.00000
    214      -7.5834      1.00000
    215      -7.5794      1.00000
    216      -7.5779      1.00000
    217      -7.5753      1.00000
    218      -7.5744      1.00000
    219      -7.5716      1.00000
    220      -7.5706      1.00000
    221      -7.5704      1.00000
    222      -7.5697      1.00000
    223      -7.5680      1.00000
    224      -7.5674      1.00000
    225      -7.5630      1.00000
    226      -7.5626      1.00000
    227      -7.5602      1.00000
    228      -7.5592      1.00000
    229      -7.5584      1.00000
    230      -7.5577      1.00000
    231      -7.5524      1.00000
    232      -7.5517      1.00000
    233      -7.5506      1.00000
    234      -7.5493      1.00000
    235      -7.5446      1.00000
    236      -7.5441      1.00000
    237      -7.5435      1.00000
    238      -7.5424      1.00000
    239      -7.5359      1.00000
    240      -7.5358      1.00000
    241      -7.5353      1.00000
    242      -7.5350      1.00000
    243      -7.5335      1.00000
    244      -7.5327      1.00000
    245      -7.5314      1.00000
    246      -7.5298      1.00000
    247      -7.5293      1.00000
    248      -7.5285      1.00000
    249      -7.5245      1.00000
    250      -7.5225      1.00000
    251      -7.5209      1.00000
    252      -7.5194      1.00000
    253      -7.5182      1.00000
    254      -7.5172      1.00000
    255      -7.5168      1.00000
    256      -7.5162      1.00000
    257      -7.5106      1.00000
    258      -7.5085      1.00000
    259      -7.5075      1.00000
    260      -7.5057      1.00000
    261      -7.5012      1.00000
    262      -7.5004      1.00000
    263      -7.4995      1.00000
    264      -7.4983      1.00000
    265      -7.4900      1.00000
    266      -7.4898      1.00000
    267      -7.4891      1.00000
    268      -7.4889      1.00000
    269      -7.4877      1.00000
    270      -7.4873      1.00000
    271      -7.4864      1.00000
    272      -7.4862      1.00000
    273      -7.4849      1.00000
    274      -7.4836      1.00000
    275      -7.4828      1.00000
    276      -7.4817      1.00000
    277      -7.4809      1.00000
    278      -7.4792      1.00000
    279      -7.4780      1.00000
    280      -7.4772      1.00000
    281      -7.4748      1.00000
    282      -7.4745      1.00000
    283      -7.4725      1.00000
    284      -7.4720      1.00000
    285      -7.4707      1.00000
    286      -7.4703      1.00000
    287      -7.4694      1.00000
    288      -7.4693      1.00000
    289      -7.4674      1.00000
    290      -7.4659      1.00000
    291      -7.4634      1.00000
    292      -7.4627      1.00000
    293      -7.4593      1.00000
    294      -7.4585      1.00000
    295      -7.4568      1.00000
    296      -7.4559      1.00000
    297      -7.4500      1.00000
    298      -7.4496      1.00000
    299      -7.4485      1.00000
    300      -7.4474      1.00000
    301      -7.4471      1.00000
    302      -7.4459      1.00000
    303      -7.4446      1.00000
    304      -7.4441      1.00000
    305      -7.4394      1.00000
    306      -7.4385      1.00000
    307      -7.4377      1.00000
    308      -7.4367      1.00000
    309      -7.4354      1.00000
    310      -7.4346      1.00000
    311      -7.4344      1.00000
    312      -7.4339      1.00000
    313      -7.4316      1.00000
    314      -7.4309      1.00000
    315      -7.4304      1.00000
    316      -7.4296      1.00000
    317      -7.4288      1.00000
    318      -7.4283      1.00000
    319      -7.4271      1.00000
    320      -7.4264      1.00000
    321      -7.4237      1.00000
    322      -7.4233      1.00000
    323      -7.4227      1.00000
    324      -7.4218      1.00000
    325      -7.3821      1.00000
    326      -7.3811      1.00000
    327      -7.3677      1.00000
    328      -7.3659      1.00000
    329      -7.3469      1.00000
    330      -7.3452      1.00000
    331      -7.3430      1.00000
    332      -7.3426      1.00000
    333      -7.3348      1.00000
    334      -7.3331      1.00000
    335      -7.3049      1.00000
    336      -7.3025      1.00000
    337      -7.3010      1.00000
    338      -7.2992      1.00000
    339      -7.2856      1.00000
    340      -7.2829      1.00000
    341      -7.2636      1.00000
    342      -7.2602      1.00000
    343      -7.2511      1.00000
    344      -7.2479      1.00000
    345      -7.1799      1.00000
    346      -7.1767      1.00000
    347      -7.1740      1.00000
    348      -7.1732      1.00000
    349      -7.1604      1.00000
    350      -7.1594      1.00000
    351      -7.1561      1.00000
    352      -7.1547      1.00000
    353      -7.1350      1.00000
    354      -7.1283      1.00000
    355      -7.1016      1.00000
    356      -7.0921      1.00000
    357      -7.0873      1.00000
    358      -7.0826      1.00000
    359      -7.0724      1.00000
    360      -7.0688      1.00000
    361      -7.0638      1.00000
    362      -7.0619      1.00000
    363      -7.0598      1.00000
    364      -7.0564      1.00000
    365      -7.0447      1.00000
    366      -7.0420      1.00000
    367      -7.0186      1.00000
    368      -7.0151      1.00000
    369      -7.0128      1.00000
    370      -7.0112      1.00000
    371      -7.0098      1.00000
    372      -7.0061      1.00000
    373      -6.9443      1.00000
    374      -6.9439      1.00000
    375      -6.9361      1.00000
    376      -6.9353      1.00000
    377      -6.9199      1.00000
    378      -6.9157      1.00000
    379      -6.9136      1.00000
    380      -6.9057      1.00000
    381      -6.8607      1.00000
    382      -6.8571      1.00000
    383      -6.8541      1.00000
    384      -6.8508      1.00000
    385      -6.8486      1.00000
    386      -6.8414      1.00000
    387      -6.8320      1.00000
    388      -6.8234      1.00000
    389      -6.7131      1.00000
    390      -6.7044      1.00000
    391      -6.6731      1.00000
    392      -6.6630      1.00000
    393      -6.6591      1.00000
    394      -6.6482      1.00000
    395      -3.1735      1.00000
    396      -3.1596      1.00000
    397      -2.8051      1.00000
    398      -2.7963      1.00000
    399      -2.7902      1.00000
    400      -2.7817      1.00000
    401      -2.6617      1.00000
    402      -2.6563      1.00000
    403      -2.6545      1.00000
    404      -2.6531      1.00000
    405      -2.6469      1.00000
    406      -2.6426      1.00000
    407      -2.6407      1.00000
    408      -2.6360      1.00000
    409      -2.6352      1.00000
    410      -2.6307      1.00000
    411      -2.6278      1.00000
    412      -2.6250      1.00000
    413      -2.6233      1.00000
    414      -2.6177      1.00000
    415      -2.6163      1.00000
    416      -2.6077      1.00000
    417      -2.6068      1.00000
    418      -2.6014      1.00000
    419      -2.5802      1.00000
    420      -2.5718      1.00000
    421      -2.5356      1.00000
    422      -2.5316      1.00000
    423      -2.5237      1.00000
    424      -2.5205      1.00000
    425      -2.5121      1.00000
    426      -2.5018      1.00000
    427      -2.4171      1.00000
    428      -2.4125      1.00000
    429      -2.4074      1.00000
    430      -2.4030      1.00000
    431      -2.4005      1.00000
    432      -2.3963      1.00000
    433      -2.3923      1.00000
    434      -2.3876      1.00000
    435      -2.2873      1.00000
    436      -2.2789      1.00000
    437      -2.2563      1.00000
    438      -2.2489      1.00000
    439      -1.7045      1.00000
    440      -1.7021      1.00000
    441      -1.5341      1.00000
    442      -1.5335      1.00000
    443      -1.5247      1.00000
    444      -1.5240      1.00000
    445      -1.4975      1.00000
    446      -1.4966      1.00000
    447      -1.4663      1.00000
    448      -1.4648      1.00000
    449      -1.4114      1.00000
    450      -1.4107      1.00000
    451      -1.3935      1.00000
    452      -1.3923      1.00000
    453      -1.3863      1.00000
    454      -1.3856      1.00000
    455      -1.1462      1.00000
    456      -1.1378      1.00000
    457      -1.0333      1.00000
    458      -1.0280      1.00000
    459      -1.0179      1.00000
    460      -1.0133      1.00000
    461      -0.9953      1.00000
    462      -0.9913      1.00000
    463      -0.8086      1.00000
    464      -0.8080      1.00000
    465      -0.7318      1.00000
    466      -0.7278      1.00000
    467      -0.7130      1.00000
    468      -0.7085      1.00000
    469      -0.6834      1.00000
    470      -0.6810      1.00000
    471      -0.6647      1.00000
    472      -0.6590      1.00000
    473      -0.6547      1.00000
    474      -0.6517      1.00000
    475      -0.4333      1.00000
    476      -0.4299      1.00000
    477      -0.4221      1.00000
    478      -0.4166      1.00000
    479      -0.2793      1.00000
    480      -0.2721      1.00000
    481      -0.2717      1.00000
    482      -0.2692      1.00000
    483      -0.2198      1.00000
    484      -0.2126      1.00000
    485      -0.2049      1.00000
    486      -0.1971      1.00000
    487      -0.1346      1.00000
    488      -0.1203      1.00000
    489      -0.1185      1.00000
    490      -0.1040      1.00000
    491       0.0476      1.00000
    492       0.0552      1.00000
    493       0.0584      1.00000
    494       0.0720      1.00000
    495       0.0770      1.00000
    496       0.0834      1.00000
    497       0.0901      1.00000
    498       0.0939      1.00000
    499       0.1288      1.00000
    500       0.1325      1.00000
    501       0.1358      1.00000
    502       0.1408      1.00000
    503       0.1468      1.00000
    504       0.1535      1.00000
    505       0.1554      1.00000
    506       0.1635      1.00000
    507       0.1643      1.00000
    508       0.1729      1.00000
    509       0.1773      1.00000
    510       0.1834      1.00000
    511       0.1967      1.00000
    512       0.2019      1.00000
    513       0.2083      1.00000
    514       0.2142      1.00000
    515       0.2212      1.00000
    516       0.2244      1.00000
    517       0.2246      1.00000
    518       0.2314      1.00000
    519       0.2717      1.00000
    520       0.2738      1.00000
    521       0.2838      1.00000
    522       0.2869      1.00000
    523       0.2875      1.00000
    524       0.2903      1.00000
    525       0.2919      1.00000
    526       0.2950      1.00000
    527       0.2963      1.00000
    528       0.2976      1.00000
    529       0.3057      1.00000
    530       0.3099      1.00000
    531       0.3177      1.00000
    532       0.3194      1.00000
    533       0.3272      1.00000
    534       0.3328      1.00000
    535       0.3379      1.00000
    536       0.3404      1.00000
    537       0.3439      1.00000
    538       0.3468      1.00000
    539       0.3489      1.00000
    540       0.3560      1.00000
    541       0.3583      1.00000
    542       0.3632      1.00000
    543       0.4272      1.00000
    544       0.4395      1.00000
    545       0.4437      1.00000
    546       0.4544      1.00000
    547       0.9115      1.00000
    548       0.9255      1.00000
    549       0.9319      1.00000
    550       0.9442      1.00000
    551       0.9519      1.00000
    552       0.9578      1.00000
    553       0.9655      1.00000
    554       0.9713      1.00000
    555       1.0009      1.00000
    556       1.0047      1.00000
    557       1.0079      1.00000
    558       1.0104      1.00000
    559       1.0124      1.00000
    560       1.0173      1.00000
    561       1.0256      1.00000
    562       1.0342      1.00000
    563       1.0375      1.00000
    564       1.0409      1.00000
    565       1.0432      1.00000
    566       1.0483      1.00000
    567       1.0491      1.00000
    568       1.0560      1.00000
    569       1.0617      1.00000
    570       1.0666      1.00000
    571       1.0707      1.00000
    572       1.0752      1.00000
    573       1.0831      1.00000
    574       1.0880      1.00000
    575       1.0917      1.00000
    576       1.1015      1.00000
    577       1.1091      1.00000
    578       1.1356      1.00000
    579       1.2502      1.00000
    580       1.2515      1.00000
    581       1.2705      1.00000
    582       1.2727      1.00000
    583       1.6358      1.00000
    584       1.6585      1.00000
    585       1.6624      1.00000
    586       1.6836      1.00000
    587       3.0725      1.00000
    588       3.1480      0.91407
    589       4.3993      0.00000
    590       4.5331      0.00000
    591       4.6931      0.00000
    592       4.6938      0.00000
    593       4.4167      0.00000
    594       4.8242      0.00000
    595       4.5389      0.00000
    596       4.9238      0.00000
    597       4.9140      0.00000
    598       4.9455      0.00000
    599       4.9740      0.00000
    600       4.9892      0.00000
    601       4.7447      0.00000
    602       4.7836      0.00000
    603       5.1019      0.00000
    604       5.1372      0.00000
    605       4.8505      0.00000
    606       4.9418      0.00000
    607       4.9872      0.00000
    608       5.2871      0.00000
    609       5.0701      0.00000
    610       5.0766      0.00000
    611       5.3165      0.00000
    612       5.1193      0.00000
    613       5.4960      0.00000
    614       5.4752      0.00000
    615       5.5387      0.00000
    616       5.0743      0.00000
    617       5.5252      0.00000
    618       5.6112      0.00000
    619       5.5826      0.00000
    620       5.2227      0.00000
    621       5.6207      0.00000
    622       5.6656      0.00000
    623       5.7036      0.00000
    624       5.6611      0.00000
    625       5.7432      0.00000
    626       5.7151      0.00000
    627       5.7302      0.00000
    628       5.5016      0.00000
    629       5.7568      0.00000
    630       5.4591      0.00000
    631       5.8688      0.00000
    632       5.5574      0.00000
    633       5.5194      0.00000
    634       5.6441      0.00000
    635       5.8909      0.00000
    636       5.6222      0.00000
    637       5.9641      0.00000
    638       5.9885      0.00000
    639       5.7599      0.00000
    640       5.9019      0.00000
    641       5.7298      0.00000
    642       5.6927      0.00000
    643       5.7709      0.00000
    644       5.9936      0.00000
    645       5.8227      0.00000
    646       5.7434      0.00000
    647       5.7754      0.00000
    648       6.0608      0.00000
    649       5.8269      0.00000
    650       6.1572      0.00000
    651       6.1054      0.00000
    652       5.8652      0.00000
    653       6.2236      0.00000
    654       5.8764      0.00000
    655       5.9298      0.00000
    656       5.9874      0.00000
    657       6.0425      0.00000
    658       6.3628      0.00000
    659       6.3260      0.00000
    660       6.3792      0.00000
    661       6.1316      0.00000
    662       6.0917      0.00000
    663       6.4255      0.00000
    664       6.4395      0.00000
    665       6.4466      0.00000
    666       6.4541      0.00000
    667       6.1749      0.00000
    668       6.4195      0.00000
    669       6.2387      0.00000
    670       6.2070      0.00000
    671       6.4864      0.00000
    672       6.2374      0.00000
    673       6.2704      0.00000
    674       6.3749      0.00000
    675       6.3839      0.00000
    676       6.3849      0.00000
    677       6.4198      0.00000
    678       6.4372      0.00000
    679       6.4508      0.00000
    680       6.4550      0.00000
    681       6.4571      0.00000
    682       6.4590      0.00000
    683       7.0070      0.00000
    684       7.0227      0.00000
    685       7.0534      0.00000
    686       7.1423      0.00000
    687       7.1679      0.00000
    688       7.3475      0.00000
    689       7.3702      0.00000
    690       7.3944      0.00000
    691       7.3853      0.00000
    692       7.3617      0.00000
    693       7.3608      0.00000
    694       7.2795      0.00000
    695       7.3926      0.00000
    696       7.3712      0.00000
    697       7.3525      0.00000
    698       7.4972      0.00000
    699       7.4800      0.00000
    700       7.4775      0.00000
    701       7.4836      0.00000
    702       7.1937      0.00000
    703       7.5839      0.00000
    704       7.5921      0.00000
    705       7.6617      0.00000
    706       7.4698      0.00000
    707       7.4675      0.00000
    708       7.7122      0.00000
    709       7.5306      0.00000
    710       7.5560      0.00000
    711       7.5582      0.00000
    712       7.4388      0.00000
    713       7.6515      0.00000
    714       7.5489      0.00000
    715       7.7038      0.00000
    716       7.6049      0.00000
    717       7.5206      0.00000
    718       7.4919      0.00000
    719       7.5080      0.00000
    720       7.4856      0.00000
    721       7.9253      0.00000
    722       7.9007      0.00000
    723       7.9154      0.00000
    724       7.9144      0.00000
    725       7.9188      0.00000
    726       7.7519      0.00000
    727       7.8956      0.00000
    728       7.7884      0.00000
    729       7.8922      0.00000
    730       7.9853      0.00000
    731       7.9676      0.00000
    732       7.9597      0.00000
    733       7.9491      0.00000
    734       7.9563      0.00000
    735       8.0250      0.00000
    736       8.0202      0.00000
    737       8.0321      0.00000
    738       8.0353      0.00000
    739       7.9986      0.00000
    740       8.0294      0.00000
    741       8.0239      0.00000
    742       8.0222      0.00000
    743       8.0454      0.00000
    744       8.0424      0.00000
    745       7.7027      0.00000
    746       7.7272      0.00000
    747       7.7681      0.00000
    748       7.7975      0.00000
    749       7.9356      0.00000
    750       7.9280      0.00000
    751       7.9303      0.00000
    752       7.9298      0.00000
    753       7.9539      0.00000
    754       7.9538      0.00000
    755       7.9797      0.00000
    756       7.9898      0.00000
    757       7.9849      0.00000
    758       7.9910      0.00000
    759       7.9913      0.00000
    760       7.9937      0.00000
    761       8.0252      0.00000
    762       8.0288      0.00000
    763       8.0183      0.00000
    764       8.0260      0.00000
    765       7.9920      0.00000
    766       8.0214      0.00000
    767       8.0089      0.00000
    768       8.0120      0.00000
    769       8.0290      0.00000
    770       8.0298      0.00000
    771       8.7516      0.00000
    772       8.7893      0.00000
    773       8.8312      0.00000
    774       8.8574      0.00000
    775       8.8866      0.00000
    776       8.9067      0.00000
    777       8.9306      0.00000
    778       8.9530      0.00000
    779       9.1576      0.00000
    780       9.2717      0.00000
    781       9.0329      0.00000
    782       9.2680      0.00000
    783       9.2234      0.00000
    784       9.2185      0.00000
    785       9.0797      0.00000
    786       8.9737      0.00000
    787       9.3193      0.00000
    788       9.3936      0.00000
    789       9.3246      0.00000
    790       9.1691      0.00000
    791       9.2329      0.00000
    792       9.3707      0.00000

 k-point     4 :       0.5000    0.5000    0.0000
  band No.  band energies     occupation 
      1     -10.0349      1.00000
      2     -10.0276      1.00000
      3     -10.0265      1.00000
      4     -10.0054      1.00000
      5     -10.0000      1.00000
      6      -9.9920      1.00000
      7      -9.9913      1.00000
      8      -9.9674      1.00000
      9      -9.8957      1.00000
     10      -9.8939      1.00000
     11      -9.8869      1.00000
     12      -9.8805      1.00000
     13      -9.8773      1.00000
     14      -9.8654      1.00000
     15      -9.8623      1.00000
     16      -9.8572      1.00000
     17      -9.8544      1.00000
     18      -9.8477      1.00000
     19      -9.8409      1.00000
     20      -9.8379      1.00000
     21      -9.8342      1.00000
     22      -9.8257      1.00000
     23      -9.8246      1.00000
     24      -9.8212      1.00000
     25      -9.8192      1.00000
     26      -9.8034      1.00000
     27      -9.7983      1.00000
     28      -9.7974      1.00000
     29      -9.7957      1.00000
     30      -9.7941      1.00000
     31      -9.7912      1.00000
     32      -9.7847      1.00000
     33      -9.7814      1.00000
     34      -9.7791      1.00000
     35      -9.7734      1.00000
     36      -9.7713      1.00000
     37      -9.7685      1.00000
     38      -9.7572      1.00000
     39      -9.7547      1.00000
     40      -9.7531      1.00000
     41      -9.7482      1.00000
     42      -9.7457      1.00000
     43      -9.7453      1.00000
     44      -9.7407      1.00000
     45      -9.7359      1.00000
     46      -9.7342      1.00000
     47      -9.7304      1.00000
     48      -9.7238      1.00000
     49      -9.7217      1.00000
     50      -9.7115      1.00000
     51      -9.7098      1.00000
     52      -9.7052      1.00000
     53      -9.7011      1.00000
     54      -9.6997      1.00000
     55      -9.6882      1.00000
     56      -9.6824      1.00000
     57      -9.6771      1.00000
     58      -9.6727      1.00000
     59      -9.6699      1.00000
     60      -9.6567      1.00000
     61      -9.6437      1.00000
     62      -9.6389      1.00000
     63      -9.6298      1.00000
     64      -9.6262      1.00000
     65      -8.3395      1.00000
     66      -8.3382      1.00000
     67      -8.3346      1.00000
     68      -8.3320      1.00000
     69      -8.3240      1.00000
     70      -8.3210      1.00000
     71      -8.3111      1.00000
     72      -8.3062      1.00000
     73      -8.2859      1.00000
     74      -8.2852      1.00000
     75      -8.2818      1.00000
     76      -8.2809      1.00000
     77      -8.2745      1.00000
     78      -8.2740      1.00000
     79      -8.2684      1.00000
     80      -8.2680      1.00000
     81      -8.2646      1.00000
     82      -8.2642      1.00000
     83      -8.2629      1.00000
     84      -8.2621      1.00000
     85      -8.2586      1.00000
     86      -8.2578      1.00000
     87      -8.2554      1.00000
     88      -8.2545      1.00000
     89      -8.2541      1.00000
     90      -8.2530      1.00000
     91      -8.2500      1.00000
     92      -8.2493      1.00000
     93      -8.2488      1.00000
     94      -8.2483      1.00000
     95      -8.2473      1.00000
     96      -8.2468      1.00000
     97      -8.2462      1.00000
     98      -8.2459      1.00000
     99      -8.2444      1.00000
    100      -8.2439      1.00000
    101      -8.2399      1.00000
    102      -8.2394      1.00000
    103      -8.2391      1.00000
    104      -8.2387      1.00000
    105      -8.2333      1.00000
    106      -8.2325      1.00000
    107      -8.2323      1.00000
    108      -8.2318      1.00000
    109      -8.2309      1.00000
    110      -8.2302      1.00000
    111      -8.2281      1.00000
    112      -8.2278      1.00000
    113      -8.2216      1.00000
    114      -8.2212      1.00000
    115      -8.2209      1.00000
    116      -8.2207      1.00000
    117      -8.2184      1.00000
    118      -8.2183      1.00000
    119      -8.2097      1.00000
    120      -8.2093      1.00000
    121      -8.2084      1.00000
    122      -8.2080      1.00000
    123      -8.2030      1.00000
    124      -8.2026      1.00000
    125      -8.1988      1.00000
    126      -8.1981      1.00000
    127      -8.1952      1.00000
    128      -8.1947      1.00000
    129      -8.1878      1.00000
    130      -8.1861      1.00000
    131      -8.1849      1.00000
    132      -8.1832      1.00000
    133      -8.1643      1.00000
    134      -8.1626      1.00000
    135      -8.1620      1.00000
    136      -8.1600      1.00000
    137      -8.1273      1.00000
    138      -8.1269      1.00000
    139      -8.1241      1.00000
    140      -8.1237      1.00000
    141      -8.1206      1.00000
    142      -8.1204      1.00000
    143      -8.1186      1.00000
    144      -8.1183      1.00000
    145      -8.1137      1.00000
    146      -8.1134      1.00000
    147      -8.1130      1.00000
    148      -8.1128      1.00000
    149      -8.1110      1.00000
    150      -8.1107      1.00000
    151      -8.1107      1.00000
    152      -8.1103      1.00000
    153      -8.1074      1.00000
    154      -8.1072      1.00000
    155      -8.1062      1.00000
    156      -8.1061      1.00000
    157      -8.1035      1.00000
    158      -8.1033      1.00000
    159      -8.0969      1.00000
    160      -8.0967      1.00000
    161      -8.0953      1.00000
    162      -8.0953      1.00000
    163      -8.0935      1.00000
    164      -8.0931      1.00000
    165      -8.0012      1.00000
    166      -7.9999      1.00000
    167      -7.9969      1.00000
    168      -7.9960      1.00000
    169      -7.9956      1.00000
    170      -7.9947      1.00000
    171      -7.9942      1.00000
    172      -7.9929      1.00000
    173      -7.9360      1.00000
    174      -7.9350      1.00000
    175      -7.9078      1.00000
    176      -7.9068      1.00000
    177      -7.8983      1.00000
    178      -7.8982      1.00000
    179      -7.8900      1.00000
    180      -7.8897      1.00000
    181      -7.8739      1.00000
    182      -7.8727      1.00000
    183      -7.8672      1.00000
    184      -7.8661      1.00000
    185      -7.8605      1.00000
    186      -7.8595      1.00000
    187      -7.8550      1.00000
    188      -7.8545      1.00000
    189      -7.8494      1.00000
    190      -7.8485      1.00000
    191      -7.8305      1.00000
    192      -7.8301      1.00000
    193      -7.8038      1.00000
    194      -7.8021      1.00000
    195      -7.8009      1.00000
    196      -7.7990      1.00000
    197      -7.6656      1.00000
    198      -7.6631      1.00000
    199      -7.6515      1.00000
    200      -7.6493      1.00000
    201      -7.6142      1.00000
    202      -7.6121      1.00000
    203      -7.6105      1.00000
    204      -7.6097      1.00000
    205      -7.6017      1.00000
    206      -7.6011      1.00000
    207      -7.5946      1.00000
    208      -7.5944      1.00000
    209      -7.5936      1.00000
    210      -7.5927      1.00000
    211      -7.5905      1.00000
    212      -7.5901      1.00000
    213      -7.5852      1.00000
    214      -7.5843      1.00000
    215      -7.5831      1.00000
    216      -7.5820      1.00000
    217      -7.5747      1.00000
    218      -7.5738      1.00000
    219      -7.5736      1.00000
    220      -7.5729      1.00000
    221      -7.5727      1.00000
    222      -7.5719      1.00000
    223      -7.5668      1.00000
    224      -7.5662      1.00000
    225      -7.5649      1.00000
    226      -7.5641      1.00000
    227      -7.5627      1.00000
    228      -7.5619      1.00000
    229      -7.5554      1.00000
    230      -7.5542      1.00000
    231      -7.5539      1.00000
    232      -7.5528      1.00000
    233      -7.5486      1.00000
    234      -7.5474      1.00000
    235      -7.5422      1.00000
    236      -7.5403      1.00000
    237      -7.5399      1.00000
    238      -7.5386      1.00000
    239      -7.5376      1.00000
    240      -7.5363      1.00000
    241      -7.5353      1.00000
    242      -7.5350      1.00000
    243      -7.5339      1.00000
    244      -7.5335      1.00000
    245      -7.5326      1.00000
    246      -7.5318      1.00000
    247      -7.5309      1.00000
    248      -7.5305      1.00000
    249      -7.5272      1.00000
    250      -7.5266      1.00000
    251      -7.5241      1.00000
    252      -7.5236      1.00000
    253      -7.5226      1.00000
    254      -7.5218      1.00000
    255      -7.5196      1.00000
    256      -7.5189      1.00000
    257      -7.5132      1.00000
    258      -7.5125      1.00000
    259      -7.5094      1.00000
    260      -7.5090      1.00000
    261      -7.4986      1.00000
    262      -7.4980      1.00000
    263      -7.4931      1.00000
    264      -7.4928      1.00000
    265      -7.4913      1.00000
    266      -7.4904      1.00000
    267      -7.4901      1.00000
    268      -7.4891      1.00000
    269      -7.4882      1.00000
    270      -7.4877      1.00000
    271      -7.4868      1.00000
    272      -7.4864      1.00000
    273      -7.4834      1.00000
    274      -7.4830      1.00000
    275      -7.4824      1.00000
    276      -7.4818      1.00000
    277      -7.4810      1.00000
    278      -7.4799      1.00000
    279      -7.4751      1.00000
    280      -7.4736      1.00000
    281      -7.4713      1.00000
    282      -7.4702      1.00000
    283      -7.4696      1.00000
    284      -7.4689      1.00000
    285      -7.4676      1.00000
    286      -7.4670      1.00000
    287      -7.4646      1.00000
    288      -7.4638      1.00000
    289      -7.4631      1.00000
    290      -7.4623      1.00000
    291      -7.4600      1.00000
    292      -7.4587      1.00000
    293      -7.4585      1.00000
    294      -7.4579      1.00000
    295      -7.4569      1.00000
    296      -7.4562      1.00000
    297      -7.4551      1.00000
    298      -7.4540      1.00000
    299      -7.4520      1.00000
    300      -7.4513      1.00000
    301      -7.4492      1.00000
    302      -7.4488      1.00000
    303      -7.4474      1.00000
    304      -7.4465      1.00000
    305      -7.4441      1.00000
    306      -7.4428      1.00000
    307      -7.4401      1.00000
    308      -7.4397      1.00000
    309      -7.4370      1.00000
    310      -7.4362      1.00000
    311      -7.4349      1.00000
    312      -7.4341      1.00000
    313      -7.4329      1.00000
    314      -7.4326      1.00000
    315      -7.4321      1.00000
    316      -7.4319      1.00000
    317      -7.4306      1.00000
    318      -7.4296      1.00000
    319      -7.4279      1.00000
    320      -7.4272      1.00000
    321      -7.4261      1.00000
    322      -7.4251      1.00000
    323      -7.4248      1.00000
    324      -7.4239      1.00000
    325      -7.4209      1.00000
    326      -7.4198      1.00000
    327      -7.4188      1.00000
    328      -7.4169      1.00000
    329      -7.3486      1.00000
    330      -7.3453      1.00000
    331      -7.3190      1.00000
    332      -7.3182      1.00000
    333      -7.3066      1.00000
    334      -7.3029      1.00000
    335      -7.2906      1.00000
    336      -7.2884      1.00000
    337      -7.2800      1.00000
    338      -7.2751      1.00000
    339      -7.2655      1.00000
    340      -7.2601      1.00000
    341      -7.2443      1.00000
    342      -7.2414      1.00000
    343      -7.2336      1.00000
    344      -7.2302      1.00000
    345      -7.2266      1.00000
    346      -7.2242      1.00000
    347      -7.2082      1.00000
    348      -7.2045      1.00000
    349      -7.1265      1.00000
    350      -7.1261      1.00000
    351      -7.1242      1.00000
    352      -7.1180      1.00000
    353      -7.0962      1.00000
    354      -7.0920      1.00000
    355      -7.0884      1.00000
    356      -7.0872      1.00000
    357      -7.0808      1.00000
    358      -7.0798      1.00000
    359      -7.0543      1.00000
    360      -7.0526      1.00000
    361      -7.0495      1.00000
    362      -7.0469      1.00000
    363      -7.0446      1.00000
    364      -7.0423      1.00000
    365      -7.0327      1.00000
    366      -7.0325      1.00000
    367      -7.0281      1.00000
    368      -7.0260      1.00000
    369      -6.9899      1.00000
    370      -6.9895      1.00000
    371      -6.9838      1.00000
    372      -6.9830      1.00000
    373      -6.9658      1.00000
    374      -6.9604      1.00000
    375      -6.9553      1.00000
    376      -6.9483      1.00000
    377      -6.9467      1.00000
    378      -6.9418      1.00000
    379      -6.9251      1.00000
    380      -6.9201      1.00000
    381      -6.9145      1.00000
    382      -6.9111      1.00000
    383      -6.9088      1.00000
    384      -6.9039      1.00000
    385      -6.8490      1.00000
    386      -6.8433      1.00000
    387      -6.8209      1.00000
    388      -6.8142      1.00000
    389      -6.7158      1.00000
    390      -6.7068      1.00000
    391      -6.6783      1.00000
    392      -6.6685      1.00000
    393      -6.6630      1.00000
    394      -6.6529      1.00000
    395      -3.1755      1.00000
    396      -3.1615      1.00000
    397      -2.7775      1.00000
    398      -2.7732      1.00000
    399      -2.7699      1.00000
    400      -2.7670      1.00000
    401      -2.7647      1.00000
    402      -2.7604      1.00000
    403      -2.7537      1.00000
    404      -2.7469      1.00000
    405      -2.7425      1.00000
    406      -2.7408      1.00000
    407      -2.6875      1.00000
    408      -2.6777      1.00000
    409      -2.6205      1.00000
    410      -2.6141      1.00000
    411      -2.6083      1.00000
    412      -2.6068      1.00000
    413      -2.5995      1.00000
    414      -2.5984      1.00000
    415      -2.5592      1.00000
    416      -2.5532      1.00000
    417      -2.5439      1.00000
    418      -2.5364      1.00000
    419      -2.4564      1.00000
    420      -2.4502      1.00000
    421      -2.4408      1.00000
    422      -2.4368      1.00000
    423      -2.4264      1.00000
    424      -2.4239      1.00000
    425      -2.4073      1.00000
    426      -2.4057      1.00000
    427      -2.3255      1.00000
    428      -2.3216      1.00000
    429      -2.3048      1.00000
    430      -2.3005      1.00000
    431      -2.2894      1.00000
    432      -2.2857      1.00000
    433      -2.2610      1.00000
    434      -2.2559      1.00000
    435      -2.1474      1.00000
    436      -2.1418      1.00000
    437      -2.0228      1.00000
    438      -2.0191      1.00000
    439      -2.0186      1.00000
    440      -2.0171      1.00000
    441      -2.0086      1.00000
    442      -2.0052      1.00000
    443      -1.9949      1.00000
    444      -1.9918      1.00000
    445      -1.9425      1.00000
    446      -1.9404      1.00000
    447      -1.9403      1.00000
    448      -1.9359      1.00000
    449      -1.9350      1.00000
    450      -1.9337      1.00000
    451      -1.1677      1.00000
    452      -1.1569      1.00000
    453      -1.0679      1.00000
    454      -1.0635      1.00000
    455      -0.8709      1.00000
    456      -0.8666      1.00000
    457      -0.7924      1.00000
    458      -0.7868      1.00000
    459      -0.6108      1.00000
    460      -0.6008      1.00000
    461      -0.5457      1.00000
    462      -0.5410      1.00000
    463      -0.5356      1.00000
    464      -0.5334      1.00000
    465      -0.5125      1.00000
    466      -0.5107      1.00000
    467      -0.5055      1.00000
    468      -0.5030      1.00000
    469      -0.5004      1.00000
    470      -0.4977      1.00000
    471      -0.4910      1.00000
    472      -0.4871      1.00000
    473      -0.4783      1.00000
    474      -0.4734      1.00000
    475      -0.4494      1.00000
    476      -0.4468      1.00000
    477      -0.3905      1.00000
    478      -0.3880      1.00000
    479      -0.3361      1.00000
    480      -0.3340      1.00000
    481      -0.3147      1.00000
    482      -0.3130      1.00000
    483      -0.3030      1.00000
    484      -0.3008      1.00000
    485      -0.2885      1.00000
    486      -0.2838      1.00000
    487      -0.2805      1.00000
    488      -0.2792      1.00000
    489      -0.2653      1.00000
    490      -0.2605      1.00000
    491      -0.2362      1.00000
    492      -0.2343      1.00000
    493      -0.2028      1.00000
    494      -0.1980      1.00000
    495      -0.1979      1.00000
    496      -0.1913      1.00000
    497      -0.1799      1.00000
    498      -0.1766      1.00000
    499       0.0237      1.00000
    500       0.0334      1.00000
    501       0.0367      1.00000
    502       0.0384      1.00000
    503       0.0467      1.00000
    504       0.0485      1.00000
    505       0.0676      1.00000
    506       0.0683      1.00000
    507       0.1592      1.00000
    508       0.1679      1.00000
    509       0.1715      1.00000
    510       0.1802      1.00000
    511       0.1888      1.00000
    512       0.1925      1.00000
    513       0.1945      1.00000
    514       0.2092      1.00000
    515       0.2135      1.00000
    516       0.2174      1.00000
    517       0.2203      1.00000
    518       0.2257      1.00000
    519       0.2391      1.00000
    520       0.2465      1.00000
    521       0.2542      1.00000
    522       0.2604      1.00000
    523       0.4360      1.00000
    524       0.4412      1.00000
    525       0.4441      1.00000
    526       0.4487      1.00000
    527       0.4513      1.00000
    528       0.4533      1.00000
    529       0.4574      1.00000
    530       0.4613      1.00000
    531       0.4656      1.00000
    532       0.4728      1.00000
    533       0.4744      1.00000
    534       0.4802      1.00000
    535       0.4827      1.00000
    536       0.4854      1.00000
    537       0.4950      1.00000
    538       0.4977      1.00000
    539       0.5436      1.00000
    540       0.5488      1.00000
    541       0.5541      1.00000
    542       0.5554      1.00000
    543       0.5607      1.00000
    544       0.5655      1.00000
    545       0.5802      1.00000
    546       0.5961      1.00000
    547       0.6032      1.00000
    548       0.6058      1.00000
    549       0.6093      1.00000
    550       0.6114      1.00000
    551       0.6178      1.00000
    552       0.6202      1.00000
    553       0.6330      1.00000
    554       0.6400      1.00000
    555       0.8328      1.00000
    556       0.8481      1.00000
    557       0.8561      1.00000
    558       0.8660      1.00000
    559       0.9460      1.00000
    560       0.9570      1.00000
    561       0.9699      1.00000
    562       0.9735      1.00000
    563       0.9808      1.00000
    564       0.9843      1.00000
    565       0.9919      1.00000
    566       0.9960      1.00000
    567       1.0093      1.00000
    568       1.0117      1.00000
    569       1.0152      1.00000
    570       1.0188      1.00000
    571       1.0205      1.00000
    572       1.0228      1.00000
    573       1.0269      1.00000
    574       1.0274      1.00000
    575       1.0345      1.00000
    576       1.0419      1.00000
    577       1.0455      1.00000
    578       1.0499      1.00000
    579       1.6641      1.00000
    580       1.6654      1.00000
    581       1.6695      1.00000
    582       1.7050      1.00000
    583       1.7090      1.00000
    584       1.7139      1.00000
    585       1.7170      1.00000
    586       1.7572      1.00000
    587       3.0636      1.00000
    588       3.1414      0.89266
    589       4.5952      0.00000
    590       4.5985      0.00000
    591       4.7512      0.00000
    592       4.8026      0.00000
    593       4.7699      0.00000
    594       4.9075      0.00000
    595       4.9081      0.00000
    596       4.6217      0.00000
    597       4.6391      0.00000
    598       4.9747      0.00000
    599       5.0245      0.00000
    600       5.0218      0.00000
    601       5.0578      0.00000
    602       4.7768      0.00000
    603       5.1104      0.00000
    604       4.7887      0.00000
    605       4.8520      0.00000
    606       4.9146      0.00000
    607       4.9305      0.00000
    608       5.2764      0.00000
    609       5.2711      0.00000
    610       5.3231      0.00000
    611       5.0105      0.00000
    612       5.0418      0.00000
    613       5.1927      0.00000
    614       5.2356      0.00000
    615       5.1442      0.00000
    616       5.4351      0.00000
    617       5.3193      0.00000
    618       5.4286      0.00000
    619       5.6186      0.00000
    620       5.6885      0.00000
    621       5.6790      0.00000
    622       5.2860      0.00000
    623       5.2783      0.00000
    624       5.6559      0.00000
    625       5.7208      0.00000
    626       5.6512      0.00000
    627       5.5017      0.00000
    628       5.7480      0.00000
    629       5.7769      0.00000
    630       5.7853      0.00000
    631       5.8036      0.00000
    632       5.8090      0.00000
    633       5.8063      0.00000
    634       5.6691      0.00000
    635       5.7806      0.00000
    636       5.5961      0.00000
    637       5.7141      0.00000
    638       5.8975      0.00000
    639       5.7424      0.00000
    640       5.8962      0.00000
    641       5.8412      0.00000
    642       5.8621      0.00000
    643       5.9853      0.00000
    644       6.0294      0.00000
    645       6.0070      0.00000
    646       5.9243      0.00000
    647       5.7282      0.00000
    648       5.7364      0.00000
    649       5.7743      0.00000
    650       5.7800      0.00000
    651       5.7953      0.00000
    652       5.8201      0.00000
    653       5.8301      0.00000
    654       5.8376      0.00000
    655       5.8515      0.00000
    656       5.8528      0.00000
    657       5.8535      0.00000
    658       5.8837      0.00000
    659       5.8751      0.00000
    660       5.9677      0.00000
    661       5.9864      0.00000
    662       6.0208      0.00000
    663       6.0176      0.00000
    664       6.0537      0.00000
    665       6.0491      0.00000
    666       6.0810      0.00000
    667       6.5757      0.00000
    668       6.6703      0.00000
    669       6.8086      0.00000
    670       6.8309      0.00000
    671       6.9433      0.00000
    672       6.8568      0.00000
    673       6.8734      0.00000
    674       6.8500      0.00000
    675       6.9484      0.00000
    676       6.9309      0.00000
    677       7.0008      0.00000
    678       7.0357      0.00000
    679       7.0377      0.00000
    680       7.0701      0.00000
    681       6.9451      0.00000
    682       6.8383      0.00000
    683       7.0852      0.00000
    684       7.1013      0.00000
    685       7.0932      0.00000
    686       7.1080      0.00000
    687       7.0918      0.00000
    688       7.1474      0.00000
    689       6.9603      0.00000
    690       7.0966      0.00000
    691       7.0356      0.00000
    692       7.0845      0.00000
    693       7.1332      0.00000
    694       7.0852      0.00000
    695       6.9225      0.00000
    696       6.9371      0.00000
    697       6.9836      0.00000
    698       6.9979      0.00000
    699       7.0197      0.00000
    700       7.0488      0.00000
    701       7.0585      0.00000
    702       7.0648      0.00000
    703       7.0351      0.00000
    704       7.0802      0.00000
    705       7.1133      0.00000
    706       7.0846      0.00000
    707       7.1263      0.00000
    708       7.1080      0.00000
    709       7.4146      0.00000
    710       7.3876      0.00000
    711       7.1682      0.00000
    712       7.1588      0.00000
    713       7.2436      0.00000
    714       7.1541      0.00000
    715       7.2730      0.00000
    716       7.2280      0.00000
    717       7.4632      0.00000
    718       7.2383      0.00000
    719       7.7385      0.00000
    720       7.8080      0.00000
    721       7.6774      0.00000
    722       7.5004      0.00000
    723       7.9877      0.00000
    724       7.6197      0.00000
    725       7.5566      0.00000
    726       7.7576      0.00000
    727       7.9487      0.00000
    728       8.0504      0.00000
    729       8.0481      0.00000
    730       8.2328      0.00000
    731       7.8952      0.00000
    732       7.9531      0.00000
    733       8.2860      0.00000
    734       8.0682      0.00000
    735       8.3402      0.00000
    736       8.3023      0.00000
    737       8.1384      0.00000
    738       8.2999      0.00000
    739       8.3449      0.00000
    740       8.4058      0.00000
    741       8.4138      0.00000
    742       8.3861      0.00000
    743       8.2830      0.00000
    744       8.3611      0.00000
    745       8.3838      0.00000
    746       8.4009      0.00000
    747       8.2970      0.00000
    748       8.4514      0.00000
    749       8.4566      0.00000
    750       8.4735      0.00000
    751       8.5119      0.00000
    752       8.4107      0.00000
    753       8.2930      0.00000
    754       8.1634      0.00000
    755       8.5450      0.00000
    756       8.5788      0.00000
    757       8.5723      0.00000
    758       8.5710      0.00000
    759       8.6058      0.00000
    760       8.5911      0.00000
    761       8.6098      0.00000
    762       8.6295      0.00000
    763       8.6343      0.00000
    764       8.5440      0.00000
    765       8.5062      0.00000
    766       8.7022      0.00000
    767       8.3511      0.00000
    768       8.4106      0.00000
    769       8.4082      0.00000
    770       8.4032      0.00000
    771       8.4046      0.00000
    772       8.4379      0.00000
    773       8.4585      0.00000
    774       8.4523      0.00000
    775       8.4525      0.00000
    776       8.4558      0.00000
    777       8.4814      0.00000
    778       8.5017      0.00000
    779       8.4933      0.00000
    780       8.5472      0.00000
    781       8.5589      0.00000
    782       8.5930      0.00000
    783       8.6019      0.00000
    784       8.6129      0.00000
    785       8.6414      0.00000
    786       8.6623      0.00000
    787       8.6711      0.00000
    788       8.6981      0.00000
    789       8.7744      0.00000
    790       8.9054      0.00000
    791       9.2155      0.00000
    792       9.4910      0.00000

 k-point     5 :       0.0000    0.0000    0.5000
  band No.  band energies     occupation 
      1     -10.0862      1.00000
      2     -10.0725      1.00000
      3     -10.0533      1.00000
      4     -10.0371      1.00000
      5      -9.9457      1.00000
      6      -9.9377      1.00000
      7      -9.9068      1.00000
      8      -9.9011      1.00000
      9      -9.8990      1.00000
     10      -9.8906      1.00000
     11      -9.8813      1.00000
     12      -9.8774      1.00000
     13      -9.8729      1.00000
     14      -9.8673      1.00000
     15      -9.8650      1.00000
     16      -9.8623      1.00000
     17      -9.8516      1.00000
     18      -9.8470      1.00000
     19      -9.8420      1.00000
     20      -9.8406      1.00000
     21      -9.8339      1.00000
     22      -9.8328      1.00000
     23      -9.8295      1.00000
     24      -9.8285      1.00000
     25      -9.8253      1.00000
     26      -9.8183      1.00000
     27      -9.8148      1.00000
     28      -9.8132      1.00000
     29      -9.8040      1.00000
     30      -9.7968      1.00000
     31      -9.7908      1.00000
     32      -9.7893      1.00000
     33      -9.7866      1.00000
     34      -9.7844      1.00000
     35      -9.7816      1.00000
     36      -9.7754      1.00000
     37      -9.7748      1.00000
     38      -9.7651      1.00000
     39      -9.7645      1.00000
     40      -9.7576      1.00000
     41      -9.7534      1.00000
     42      -9.7490      1.00000
     43      -9.7455      1.00000
     44      -9.7400      1.00000
     45      -9.7391      1.00000
     46      -9.7342      1.00000
     47      -9.7245      1.00000
     48      -9.7220      1.00000
     49      -9.7210      1.00000
     50      -9.7124      1.00000
     51      -9.7081      1.00000
     52      -9.7003      1.00000
     53      -9.6970      1.00000
     54      -9.6918      1.00000
     55      -9.6885      1.00000
     56      -9.6814      1.00000
     57      -9.6791      1.00000
     58      -9.6690      1.00000
     59      -9.6660      1.00000
     60      -9.6502      1.00000
     61      -9.6418      1.00000
     62      -9.6356      1.00000
     63      -9.6349      1.00000
     64      -9.6236      1.00000
     65      -8.3400      1.00000
     66      -8.3369      1.00000
     67      -8.3312      1.00000
     68      -8.3270      1.00000
     69      -8.3256      1.00000
     70      -8.3234      1.00000
     71      -8.3130      1.00000
     72      -8.3082      1.00000
     73      -8.2801      1.00000
     74      -8.2781      1.00000
     75      -8.2738      1.00000
     76      -8.2724      1.00000
     77      -8.2716      1.00000
     78      -8.2706      1.00000
     79      -8.2697      1.00000
     80      -8.2687      1.00000
     81      -8.2664      1.00000
     82      -8.2659      1.00000
     83      -8.2651      1.00000
     84      -8.2643      1.00000
     85      -8.2620      1.00000
     86      -8.2614      1.00000
     87      -8.2608      1.00000
     88      -8.2603      1.00000
     89      -8.2537      1.00000
     90      -8.2535      1.00000
     91      -8.2525      1.00000
     92      -8.2522      1.00000
     93      -8.2512      1.00000
     94      -8.2504      1.00000
     95      -8.2489      1.00000
     96      -8.2478      1.00000
     97      -8.2464      1.00000
     98      -8.2462      1.00000
     99      -8.2449      1.00000
    100      -8.2442      1.00000
    101      -8.2413      1.00000
    102      -8.2405      1.00000
    103      -8.2385      1.00000
    104      -8.2380      1.00000
    105      -8.2328      1.00000
    106      -8.2319      1.00000
    107      -8.2313      1.00000
    108      -8.2309      1.00000
    109      -8.2297      1.00000
    110      -8.2280      1.00000
    111      -8.2263      1.00000
    112      -8.2254      1.00000
    113      -8.2221      1.00000
    114      -8.2211      1.00000
    115      -8.2206      1.00000
    116      -8.2199      1.00000
    117      -8.2197      1.00000
    118      -8.2187      1.00000
    119      -8.2162      1.00000
    120      -8.2148      1.00000
    121      -8.2124      1.00000
    122      -8.2113      1.00000
    123      -8.2100      1.00000
    124      -8.2092      1.00000
    125      -8.1974      1.00000
    126      -8.1966      1.00000
    127      -8.1961      1.00000
    128      -8.1945      1.00000
    129      -8.1901      1.00000
    130      -8.1889      1.00000
    131      -8.1882      1.00000
    132      -8.1866      1.00000
    133      -8.1578      1.00000
    134      -8.1573      1.00000
    135      -8.1559      1.00000
    136      -8.1553      1.00000
    137      -8.1539      1.00000
    138      -8.1531      1.00000
    139      -8.1488      1.00000
    140      -8.1482      1.00000
    141      -8.1396      1.00000
    142      -8.1390      1.00000
    143      -8.1379      1.00000
    144      -8.1374      1.00000
    145      -8.1369      1.00000
    146      -8.1364      1.00000
    147      -8.1309      1.00000
    148      -8.1302      1.00000
    149      -8.0961      1.00000
    150      -8.0954      1.00000
    151      -8.0945      1.00000
    152      -8.0940      1.00000
    153      -8.0870      1.00000
    154      -8.0862      1.00000
    155      -8.0856      1.00000
    156      -8.0847      1.00000
    157      -8.0847      1.00000
    158      -8.0837      1.00000
    159      -8.0720      1.00000
    160      -8.0715      1.00000
    161      -8.0368      1.00000
    162      -8.0354      1.00000
    163      -8.0314      1.00000
    164      -8.0307      1.00000
    165      -8.0172      1.00000
    166      -8.0166      1.00000
    167      -8.0116      1.00000
    168      -8.0102      1.00000
    169      -8.0037      1.00000
    170      -8.0021      1.00000
    171      -7.9995      1.00000
    172      -7.9980      1.00000
    173      -7.9343      1.00000
    174      -7.9335      1.00000
    175      -7.9309      1.00000
    176      -7.9295      1.00000
    177      -7.9269      1.00000
    178      -7.9254      1.00000
    179      -7.9228      1.00000
    180      -7.9216      1.00000
    181      -7.8849      1.00000
    182      -7.8825      1.00000
    183      -7.8730      1.00000
    184      -7.8718      1.00000
    185      -7.8497      1.00000
    186      -7.8492      1.00000
    187      -7.8481      1.00000
    188      -7.8477      1.00000
    189      -7.8295      1.00000
    190      -7.8290      1.00000
    191      -7.8278      1.00000
    192      -7.8277      1.00000
    193      -7.8067      1.00000
    194      -7.8044      1.00000
    195      -7.7971      1.00000
    196      -7.7946      1.00000
    197      -7.6747      1.00000
    198      -7.6719      1.00000
    199      -7.6563      1.00000
    200      -7.6536      1.00000
    201      -7.6203      1.00000
    202      -7.6180      1.00000
    203      -7.6100      1.00000
    204      -7.6085      1.00000
    205      -7.6027      1.00000
    206      -7.6022      1.00000
    207      -7.5971      1.00000
    208      -7.5966      1.00000
    209      -7.5900      1.00000
    210      -7.5890      1.00000
    211      -7.5883      1.00000
    212      -7.5878      1.00000
    213      -7.5849      1.00000
    214      -7.5834      1.00000
    215      -7.5795      1.00000
    216      -7.5779      1.00000
    217      -7.5754      1.00000
    218      -7.5746      1.00000
    219      -7.5716      1.00000
    220      -7.5707      1.00000
    221      -7.5704      1.00000
    222      -7.5697      1.00000
    223      -7.5680      1.00000
    224      -7.5675      1.00000
    225      -7.5629      1.00000
    226      -7.5626      1.00000
    227      -7.5601      1.00000
    228      -7.5591      1.00000
    229      -7.5584      1.00000
    230      -7.5576      1.00000
    231      -7.5523      1.00000
    232      -7.5517      1.00000
    233      -7.5506      1.00000
    234      -7.5493      1.00000
    235      -7.5446      1.00000
    236      -7.5441      1.00000
    237      -7.5436      1.00000
    238      -7.5425      1.00000
    239      -7.5359      1.00000
    240      -7.5358      1.00000
    241      -7.5353      1.00000
    242      -7.5350      1.00000
    243      -7.5335      1.00000
    244      -7.5327      1.00000
    245      -7.5316      1.00000
    246      -7.5300      1.00000
    247      -7.5293      1.00000
    248      -7.5285      1.00000
    249      -7.5246      1.00000
    250      -7.5226      1.00000
    251      -7.5209      1.00000
    252      -7.5194      1.00000
    253      -7.5181      1.00000
    254      -7.5171      1.00000
    255      -7.5168      1.00000
    256      -7.5162      1.00000
    257      -7.5106      1.00000
    258      -7.5086      1.00000
    259      -7.5075      1.00000
    260      -7.5057      1.00000
    261      -7.5012      1.00000
    262      -7.5005      1.00000
    263      -7.4996      1.00000
    264      -7.4983      1.00000
    265      -7.4900      1.00000
    266      -7.4899      1.00000
    267      -7.4890      1.00000
    268      -7.4887      1.00000
    269      -7.4877      1.00000
    270      -7.4872      1.00000
    271      -7.4864      1.00000
    272      -7.4861      1.00000
    273      -7.4848      1.00000
    274      -7.4835      1.00000
    275      -7.4828      1.00000
    276      -7.4817      1.00000
    277      -7.4808      1.00000
    278      -7.4791      1.00000
    279      -7.4780      1.00000
    280      -7.4772      1.00000
    281      -7.4748      1.00000
    282      -7.4745      1.00000
    283      -7.4725      1.00000
    284      -7.4720      1.00000
    285      -7.4708      1.00000
    286      -7.4704      1.00000
    287      -7.4695      1.00000
    288      -7.4694      1.00000
    289      -7.4675      1.00000
    290      -7.4660      1.00000
    291      -7.4634      1.00000
    292      -7.4627      1.00000
    293      -7.4594      1.00000
    294      -7.4586      1.00000
    295      -7.4567      1.00000
    296      -7.4558      1.00000
    297      -7.4501      1.00000
    298      -7.4496      1.00000
    299      -7.4485      1.00000
    300      -7.4474      1.00000
    301      -7.4472      1.00000
    302      -7.4460      1.00000
    303      -7.4445      1.00000
    304      -7.4441      1.00000
    305      -7.4393      1.00000
    306      -7.4384      1.00000
    307      -7.4377      1.00000
    308      -7.4366      1.00000
    309      -7.4355      1.00000
    310      -7.4347      1.00000
    311      -7.4345      1.00000
    312      -7.4339      1.00000
    313      -7.4317      1.00000
    314      -7.4309      1.00000
    315      -7.4303      1.00000
    316      -7.4296      1.00000
    317      -7.4288      1.00000
    318      -7.4283      1.00000
    319      -7.4272      1.00000
    320      -7.4263      1.00000
    321      -7.4237      1.00000
    322      -7.4233      1.00000
    323      -7.4226      1.00000
    324      -7.4219      1.00000
    325      -7.3821      1.00000
    326      -7.3811      1.00000
    327      -7.3677      1.00000
    328      -7.3658      1.00000
    329      -7.3469      1.00000
    330      -7.3452      1.00000
    331      -7.3430      1.00000
    332      -7.3426      1.00000
    333      -7.3348      1.00000
    334      -7.3331      1.00000
    335      -7.3049      1.00000
    336      -7.3024      1.00000
    337      -7.3011      1.00000
    338      -7.2992      1.00000
    339      -7.2856      1.00000
    340      -7.2829      1.00000
    341      -7.2636      1.00000
    342      -7.2602      1.00000
    343      -7.2511      1.00000
    344      -7.2480      1.00000
    345      -7.1798      1.00000
    346      -7.1768      1.00000
    347      -7.1741      1.00000
    348      -7.1732      1.00000
    349      -7.1604      1.00000
    350      -7.1593      1.00000
    351      -7.1561      1.00000
    352      -7.1547      1.00000
    353      -7.1350      1.00000
    354      -7.1283      1.00000
    355      -7.1016      1.00000
    356      -7.0921      1.00000
    357      -7.0873      1.00000
    358      -7.0826      1.00000
    359      -7.0725      1.00000
    360      -7.0687      1.00000
    361      -7.0639      1.00000
    362      -7.0618      1.00000
    363      -7.0598      1.00000
    364      -7.0566      1.00000
    365      -7.0447      1.00000
    366      -7.0419      1.00000
    367      -7.0186      1.00000
    368      -7.0150      1.00000
    369      -7.0129      1.00000
    370      -7.0111      1.00000
    371      -7.0098      1.00000
    372      -7.0061      1.00000
    373      -6.9443      1.00000
    374      -6.9440      1.00000
    375      -6.9361      1.00000
    376      -6.9353      1.00000
    377      -6.9199      1.00000
    378      -6.9156      1.00000
    379      -6.9135      1.00000
    380      -6.9057      1.00000
    381      -6.8607      1.00000
    382      -6.8572      1.00000
    383      -6.8542      1.00000
    384      -6.8507      1.00000
    385      -6.8485      1.00000
    386      -6.8413      1.00000
    387      -6.8319      1.00000
    388      -6.8234      1.00000
    389      -6.7131      1.00000
    390      -6.7044      1.00000
    391      -6.6731      1.00000
    392      -6.6630      1.00000
    393      -6.6590      1.00000
    394      -6.6483      1.00000
    395      -3.1735      1.00000
    396      -3.1597      1.00000
    397      -2.8051      1.00000
    398      -2.7963      1.00000
    399      -2.7902      1.00000
    400      -2.7818      1.00000
    401      -2.6617      1.00000
    402      -2.6562      1.00000
    403      -2.6546      1.00000
    404      -2.6531      1.00000
    405      -2.6470      1.00000
    406      -2.6427      1.00000
    407      -2.6407      1.00000
    408      -2.6359      1.00000
    409      -2.6352      1.00000
    410      -2.6307      1.00000
    411      -2.6278      1.00000
    412      -2.6249      1.00000
    413      -2.6232      1.00000
    414      -2.6176      1.00000
    415      -2.6161      1.00000
    416      -2.6078      1.00000
    417      -2.6069      1.00000
    418      -2.6015      1.00000
    419      -2.5800      1.00000
    420      -2.5716      1.00000
    421      -2.5355      1.00000
    422      -2.5316      1.00000
    423      -2.5239      1.00000
    424      -2.5202      1.00000
    425      -2.5123      1.00000
    426      -2.5016      1.00000
    427      -2.4171      1.00000
    428      -2.4125      1.00000
    429      -2.4074      1.00000
    430      -2.4030      1.00000
    431      -2.4005      1.00000
    432      -2.3963      1.00000
    433      -2.3924      1.00000
    434      -2.3877      1.00000
    435      -2.2874      1.00000
    436      -2.2789      1.00000
    437      -2.2563      1.00000
    438      -2.2489      1.00000
    439      -1.7043      1.00000
    440      -1.7019      1.00000
    441      -1.5341      1.00000
    442      -1.5335      1.00000
    443      -1.5247      1.00000
    444      -1.5241      1.00000
    445      -1.4974      1.00000
    446      -1.4966      1.00000
    447      -1.4664      1.00000
    448      -1.4648      1.00000
    449      -1.4114      1.00000
    450      -1.4107      1.00000
    451      -1.3935      1.00000
    452      -1.3923      1.00000
    453      -1.3863      1.00000
    454      -1.3856      1.00000
    455      -1.1462      1.00000
    456      -1.1378      1.00000
    457      -1.0333      1.00000
    458      -1.0280      1.00000
    459      -1.0179      1.00000
    460      -1.0133      1.00000
    461      -0.9953      1.00000
    462      -0.9912      1.00000
    463      -0.8086      1.00000
    464      -0.8080      1.00000
    465      -0.7318      1.00000
    466      -0.7278      1.00000
    467      -0.7130      1.00000
    468      -0.7084      1.00000
    469      -0.6834      1.00000
    470      -0.6810      1.00000
    471      -0.6647      1.00000
    472      -0.6590      1.00000
    473      -0.6547      1.00000
    474      -0.6517      1.00000
    475      -0.4333      1.00000
    476      -0.4299      1.00000
    477      -0.4222      1.00000
    478      -0.4167      1.00000
    479      -0.2793      1.00000
    480      -0.2721      1.00000
    481      -0.2717      1.00000
    482      -0.2692      1.00000
    483      -0.2197      1.00000
    484      -0.2125      1.00000
    485      -0.2050      1.00000
    486      -0.1971      1.00000
    487      -0.1345      1.00000
    488      -0.1204      1.00000
    489      -0.1184      1.00000
    490      -0.1041      1.00000
    491       0.0476      1.00000
    492       0.0553      1.00000
    493       0.0585      1.00000
    494       0.0720      1.00000
    495       0.0769      1.00000
    496       0.0834      1.00000
    497       0.0900      1.00000
    498       0.0940      1.00000
    499       0.1290      1.00000
    500       0.1325      1.00000
    501       0.1358      1.00000
    502       0.1410      1.00000
    503       0.1468      1.00000
    504       0.1535      1.00000
    505       0.1554      1.00000
    506       0.1635      1.00000
    507       0.1643      1.00000
    508       0.1729      1.00000
    509       0.1773      1.00000
    510       0.1834      1.00000
    511       0.1966      1.00000
    512       0.2019      1.00000
    513       0.2084      1.00000
    514       0.2142      1.00000
    515       0.2213      1.00000
    516       0.2243      1.00000
    517       0.2245      1.00000
    518       0.2314      1.00000
    519       0.2717      1.00000
    520       0.2738      1.00000
    521       0.2838      1.00000
    522       0.2868      1.00000
    523       0.2874      1.00000
    524       0.2903      1.00000
    525       0.2920      1.00000
    526       0.2950      1.00000
    527       0.2962      1.00000
    528       0.2975      1.00000
    529       0.3058      1.00000
    530       0.3100      1.00000
    531       0.3177      1.00000
    532       0.3194      1.00000
    533       0.3273      1.00000
    534       0.3329      1.00000
    535       0.3379      1.00000
    536       0.3405      1.00000
    537       0.3443      1.00000
    538       0.3467      1.00000
    539       0.3487      1.00000
    540       0.3559      1.00000
    541       0.3581      1.00000
    542       0.3632      1.00000
    543       0.4272      1.00000
    544       0.4395      1.00000
    545       0.4436      1.00000
    546       0.4543      1.00000
    547       0.9115      1.00000
    548       0.9255      1.00000
    549       0.9319      1.00000
    550       0.9442      1.00000
    551       0.9519      1.00000
    552       0.9578      1.00000
    553       0.9655      1.00000
    554       0.9712      1.00000
    555       1.0010      1.00000
    556       1.0047      1.00000
    557       1.0079      1.00000
    558       1.0105      1.00000
    559       1.0124      1.00000
    560       1.0173      1.00000
    561       1.0256      1.00000
    562       1.0343      1.00000
    563       1.0375      1.00000
    564       1.0409      1.00000
    565       1.0432      1.00000
    566       1.0483      1.00000
    567       1.0491      1.00000
    568       1.0560      1.00000
    569       1.0619      1.00000
    570       1.0663      1.00000
    571       1.0706      1.00000
    572       1.0753      1.00000
    573       1.0831      1.00000
    574       1.0880      1.00000
    575       1.0916      1.00000
    576       1.1014      1.00000
    577       1.1091      1.00000
    578       1.1355      1.00000
    579       1.2502      1.00000
    580       1.2514      1.00000
    581       1.2705      1.00000
    582       1.2726      1.00000
    583       1.6358      1.00000
    584       1.6586      1.00000
    585       1.6624      1.00000
    586       1.6837      1.00000
    587       3.0726      1.00000
    588       3.1480      0.91408
    589       4.3993      0.00000
    590       4.5332      0.00000
    591       4.6933      0.00000
    592       4.6935      0.00000
    593       4.4167      0.00000
    594       4.8241      0.00000
    595       4.5388      0.00000
    596       4.9237      0.00000
    597       4.9142      0.00000
    598       4.9453      0.00000
    599       4.9741      0.00000
    600       4.9896      0.00000
    601       4.7444      0.00000
    602       4.7834      0.00000
    603       5.1019      0.00000
    604       5.1368      0.00000
    605       4.8509      0.00000
    606       4.9417      0.00000
    607       4.9920      0.00000
    608       5.2826      0.00000
    609       5.0701      0.00000
    610       5.0771      0.00000
    611       5.3177      0.00000
    612       5.1176      0.00000
    613       5.4950      0.00000
    614       5.4762      0.00000
    615       5.5389      0.00000
    616       5.0741      0.00000
    617       5.5254      0.00000
    618       5.6111      0.00000
    619       5.5841      0.00000
    620       5.2212      0.00000
    621       5.6204      0.00000
    622       5.6656      0.00000
    623       5.7035      0.00000
    624       5.6611      0.00000
    625       5.7431      0.00000
    626       5.7154      0.00000
    627       5.7301      0.00000
    628       5.5029      0.00000
    629       5.7558      0.00000
    630       5.4593      0.00000
    631       5.8689      0.00000
    632       5.5574      0.00000
    633       5.5193      0.00000
    634       5.6449      0.00000
    635       5.8901      0.00000
    636       5.6223      0.00000
    637       5.9645      0.00000
    638       5.9885      0.00000
    639       5.7615      0.00000
    640       5.9005      0.00000
    641       5.7297      0.00000
    642       5.6926      0.00000
    643       5.7708      0.00000
    644       5.9901      0.00000
    645       5.8266      0.00000
    646       5.7421      0.00000
    647       5.7760      0.00000
    648       6.0605      0.00000
    649       5.8269      0.00000
    650       6.1575      0.00000
    651       6.1063      0.00000
    652       5.8641      0.00000
    653       6.2233      0.00000
    654       5.8768      0.00000
    655       5.9299      0.00000
    656       5.9875      0.00000
    657       6.0428      0.00000
    658       6.3619      0.00000
    659       6.3261      0.00000
    660       6.1961      0.00000
    661       6.3149      0.00000
    662       6.0916      0.00000
    663       6.4256      0.00000
    664       6.4394      0.00000
    665       6.4467      0.00000
    666       6.4539      0.00000
    667       6.1751      0.00000
    668       6.4196      0.00000
    669       6.2388      0.00000
    670       6.2067      0.00000
    671       6.4864      0.00000
    672       6.2372      0.00000
    673       6.2704      0.00000
    674       6.3751      0.00000
    675       6.3841      0.00000
    676       6.3846      0.00000
    677       6.4196      0.00000
    678       6.4375      0.00000
    679       6.4512      0.00000
    680       6.4550      0.00000
    681       6.4570      0.00000
    682       6.4592      0.00000
    683       7.0070      0.00000
    684       7.0226      0.00000
    685       7.0532      0.00000
    686       7.1423      0.00000
    687       7.1681      0.00000
    688       7.3486      0.00000
    689       7.3702      0.00000
    690       7.3940      0.00000
    691       7.3846      0.00000
    692       7.3625      0.00000
    693       7.3623      0.00000
    694       7.2770      0.00000
    695       7.3887      0.00000
    696       7.3690      0.00000
    697       7.3585      0.00000
    698       7.4970      0.00000
    699       7.4805      0.00000
    700       7.4773      0.00000
    701       7.4835      0.00000
    702       7.1939      0.00000
    703       7.5841      0.00000
    704       7.5924      0.00000
    705       7.6608      0.00000
    706       7.4716      0.00000
    707       7.4670      0.00000
    708       7.7125      0.00000
    709       7.5295      0.00000
    710       7.5553      0.00000
    711       7.5631      0.00000
    712       7.4379      0.00000
    713       7.6493      0.00000
    714       7.5487      0.00000
    715       7.7012      0.00000
    716       7.6098      0.00000
    717       7.5186      0.00000
    718       7.4946      0.00000
    719       7.5024      0.00000
    720       7.4895      0.00000
    721       7.9250      0.00000
    722       7.9000      0.00000
    723       7.9165      0.00000
    724       7.9142      0.00000
    725       7.9180      0.00000
    726       7.7551      0.00000
    727       7.8755      0.00000
    728       7.7998      0.00000
    729       7.8973      0.00000
    730       7.9809      0.00000
    731       7.9690      0.00000
    732       7.9637      0.00000
    733       7.9510      0.00000
    734       7.9546      0.00000
    735       8.0248      0.00000
    736       8.0192      0.00000
    737       8.0325      0.00000
    738       8.0348      0.00000
    739       7.9989      0.00000
    740       8.0293      0.00000
    741       8.0239      0.00000
    742       8.0230      0.00000
    743       8.0458      0.00000
    744       8.0416      0.00000
    745       7.7034      0.00000
    746       7.7276      0.00000
    747       7.7674      0.00000
    748       7.7977      0.00000
    749       7.9339      0.00000
    750       7.9276      0.00000
    751       7.9318      0.00000
    752       7.9300      0.00000
    753       7.9502      0.00000
    754       7.9526      0.00000
    755       7.9784      0.00000
    756       7.9911      0.00000
    757       7.9892      0.00000
    758       7.9883      0.00000
    759       7.9912      0.00000
    760       7.9951      0.00000
    761       8.0282      0.00000
    762       8.0254      0.00000
    763       8.0198      0.00000
    764       8.0222      0.00000
    765       7.9980      0.00000
    766       8.0227      0.00000
    767       8.0082      0.00000
    768       8.0113      0.00000
    769       8.0289      0.00000
    770       8.0341      0.00000
    771       8.7517      0.00000
    772       8.7908      0.00000
    773       8.8281      0.00000
    774       8.8573      0.00000
    775       8.8869      0.00000
    776       8.9121      0.00000
    777       8.9264      0.00000
    778       8.9472      0.00000
    779       9.1616      0.00000
    780       9.2765      0.00000
    781       9.0972      0.00000
    782       9.3069      0.00000
    783       9.0930      0.00000
    784       8.9554      0.00000
    785       9.3033      0.00000
    786       9.3829      0.00000
    787       9.2815      0.00000
    788       9.2323      0.00000
    789       9.2230      0.00000
    790       9.1784      0.00000
    791       9.1792      0.00000
    792       9.3857      0.00000

 k-point     6 :       0.5000    0.0000    0.5000
  band No.  band energies     occupation 
      1     -10.0350      1.00000
      2     -10.0274      1.00000
      3     -10.0265      1.00000
      4     -10.0057      1.00000
      5     -10.0001      1.00000
      6      -9.9919      1.00000
      7      -9.9913      1.00000
      8      -9.9676      1.00000
      9      -9.8957      1.00000
     10      -9.8935      1.00000
     11      -9.8871      1.00000
     12      -9.8804      1.00000
     13      -9.8773      1.00000
     14      -9.8655      1.00000
     15      -9.8623      1.00000
     16      -9.8572      1.00000
     17      -9.8542      1.00000
     18      -9.8479      1.00000
     19      -9.8409      1.00000
     20      -9.8379      1.00000
     21      -9.8344      1.00000
     22      -9.8256      1.00000
     23      -9.8245      1.00000
     24      -9.8211      1.00000
     25      -9.8190      1.00000
     26      -9.8035      1.00000
     27      -9.7984      1.00000
     28      -9.7975      1.00000
     29      -9.7958      1.00000
     30      -9.7942      1.00000
     31      -9.7911      1.00000
     32      -9.7847      1.00000
     33      -9.7813      1.00000
     34      -9.7790      1.00000
     35      -9.7733      1.00000
     36      -9.7713      1.00000
     37      -9.7685      1.00000
     38      -9.7572      1.00000
     39      -9.7547      1.00000
     40      -9.7533      1.00000
     41      -9.7483      1.00000
     42      -9.7457      1.00000
     43      -9.7453      1.00000
     44      -9.7408      1.00000
     45      -9.7359      1.00000
     46      -9.7342      1.00000
     47      -9.7303      1.00000
     48      -9.7237      1.00000
     49      -9.7220      1.00000
     50      -9.7113      1.00000
     51      -9.7098      1.00000
     52      -9.7055      1.00000
     53      -9.7010      1.00000
     54      -9.6995      1.00000
     55      -9.6882      1.00000
     56      -9.6828      1.00000
     57      -9.6769      1.00000
     58      -9.6727      1.00000
     59      -9.6698      1.00000
     60      -9.6566      1.00000
     61      -9.6435      1.00000
     62      -9.6394      1.00000
     63      -9.6296      1.00000
     64      -9.6261      1.00000
     65      -8.3396      1.00000
     66      -8.3380      1.00000
     67      -8.3347      1.00000
     68      -8.3320      1.00000
     69      -8.3240      1.00000
     70      -8.3210      1.00000
     71      -8.3111      1.00000
     72      -8.3062      1.00000
     73      -8.2858      1.00000
     74      -8.2853      1.00000
     75      -8.2819      1.00000
     76      -8.2808      1.00000
     77      -8.2745      1.00000
     78      -8.2740      1.00000
     79      -8.2683      1.00000
     80      -8.2680      1.00000
     81      -8.2646      1.00000
     82      -8.2642      1.00000
     83      -8.2628      1.00000
     84      -8.2620      1.00000
     85      -8.2587      1.00000
     86      -8.2579      1.00000
     87      -8.2554      1.00000
     88      -8.2545      1.00000
     89      -8.2543      1.00000
     90      -8.2531      1.00000
     91      -8.2501      1.00000
     92      -8.2494      1.00000
     93      -8.2488      1.00000
     94      -8.2484      1.00000
     95      -8.2473      1.00000
     96      -8.2467      1.00000
     97      -8.2462      1.00000
     98      -8.2458      1.00000
     99      -8.2443      1.00000
    100      -8.2438      1.00000
    101      -8.2400      1.00000
    102      -8.2393      1.00000
    103      -8.2392      1.00000
    104      -8.2386      1.00000
    105      -8.2333      1.00000
    106      -8.2324      1.00000
    107      -8.2322      1.00000
    108      -8.2318      1.00000
    109      -8.2310      1.00000
    110      -8.2303      1.00000
    111      -8.2281      1.00000
    112      -8.2279      1.00000
    113      -8.2216      1.00000
    114      -8.2212      1.00000
    115      -8.2208      1.00000
    116      -8.2207      1.00000
    117      -8.2184      1.00000
    118      -8.2183      1.00000
    119      -8.2097      1.00000
    120      -8.2093      1.00000
    121      -8.2084      1.00000
    122      -8.2081      1.00000
    123      -8.2030      1.00000
    124      -8.2026      1.00000
    125      -8.1988      1.00000
    126      -8.1982      1.00000
    127      -8.1953      1.00000
    128      -8.1948      1.00000
    129      -8.1877      1.00000
    130      -8.1861      1.00000
    131      -8.1848      1.00000
    132      -8.1830      1.00000
    133      -8.1643      1.00000
    134      -8.1625      1.00000
    135      -8.1619      1.00000
    136      -8.1600      1.00000
    137      -8.1272      1.00000
    138      -8.1269      1.00000
    139      -8.1241      1.00000
    140      -8.1236      1.00000
    141      -8.1206      1.00000
    142      -8.1204      1.00000
    143      -8.1186      1.00000
    144      -8.1182      1.00000
    145      -8.1137      1.00000
    146      -8.1133      1.00000
    147      -8.1131      1.00000
    148      -8.1128      1.00000
    149      -8.1110      1.00000
    150      -8.1106      1.00000
    151      -8.1106      1.00000
    152      -8.1103      1.00000
    153      -8.1074      1.00000
    154      -8.1072      1.00000
    155      -8.1063      1.00000
    156      -8.1061      1.00000
    157      -8.1036      1.00000
    158      -8.1034      1.00000
    159      -8.0969      1.00000
    160      -8.0968      1.00000
    161      -8.0954      1.00000
    162      -8.0953      1.00000
    163      -8.0935      1.00000
    164      -8.0931      1.00000
    165      -8.0012      1.00000
    166      -7.9999      1.00000
    167      -7.9968      1.00000
    168      -7.9960      1.00000
    169      -7.9956      1.00000
    170      -7.9947      1.00000
    171      -7.9942      1.00000
    172      -7.9929      1.00000
    173      -7.9360      1.00000
    174      -7.9350      1.00000
    175      -7.9079      1.00000
    176      -7.9069      1.00000
    177      -7.8983      1.00000
    178      -7.8982      1.00000
    179      -7.8900      1.00000
    180      -7.8897      1.00000
    181      -7.8739      1.00000
    182      -7.8727      1.00000
    183      -7.8671      1.00000
    184      -7.8661      1.00000
    185      -7.8605      1.00000
    186      -7.8596      1.00000
    187      -7.8549      1.00000
    188      -7.8545      1.00000
    189      -7.8494      1.00000
    190      -7.8485      1.00000
    191      -7.8305      1.00000
    192      -7.8301      1.00000
    193      -7.8038      1.00000
    194      -7.8020      1.00000
    195      -7.8010      1.00000
    196      -7.7990      1.00000
    197      -7.6656      1.00000
    198      -7.6631      1.00000
    199      -7.6514      1.00000
    200      -7.6493      1.00000
    201      -7.6144      1.00000
    202      -7.6122      1.00000
    203      -7.6105      1.00000
    204      -7.6096      1.00000
    205      -7.6016      1.00000
    206      -7.6011      1.00000
    207      -7.5946      1.00000
    208      -7.5944      1.00000
    209      -7.5936      1.00000
    210      -7.5926      1.00000
    211      -7.5906      1.00000
    212      -7.5902      1.00000
    213      -7.5853      1.00000
    214      -7.5844      1.00000
    215      -7.5830      1.00000
    216      -7.5820      1.00000
    217      -7.5747      1.00000
    218      -7.5738      1.00000
    219      -7.5735      1.00000
    220      -7.5728      1.00000
    221      -7.5727      1.00000
    222      -7.5719      1.00000
    223      -7.5667      1.00000
    224      -7.5661      1.00000
    225      -7.5648      1.00000
    226      -7.5640      1.00000
    227      -7.5626      1.00000
    228      -7.5618      1.00000
    229      -7.5554      1.00000
    230      -7.5542      1.00000
    231      -7.5539      1.00000
    232      -7.5528      1.00000
    233      -7.5486      1.00000
    234      -7.5474      1.00000
    235      -7.5421      1.00000
    236      -7.5403      1.00000
    237      -7.5399      1.00000
    238      -7.5386      1.00000
    239      -7.5377      1.00000
    240      -7.5363      1.00000
    241      -7.5354      1.00000
    242      -7.5350      1.00000
    243      -7.5339      1.00000
    244      -7.5335      1.00000
    245      -7.5326      1.00000
    246      -7.5319      1.00000
    247      -7.5310      1.00000
    248      -7.5305      1.00000
    249      -7.5273      1.00000
    250      -7.5266      1.00000
    251      -7.5241      1.00000
    252      -7.5236      1.00000
    253      -7.5226      1.00000
    254      -7.5218      1.00000
    255      -7.5196      1.00000
    256      -7.5189      1.00000
    257      -7.5133      1.00000
    258      -7.5126      1.00000
    259      -7.5093      1.00000
    260      -7.5090      1.00000
    261      -7.4985      1.00000
    262      -7.4979      1.00000
    263      -7.4930      1.00000
    264      -7.4928      1.00000
    265      -7.4912      1.00000
    266      -7.4904      1.00000
    267      -7.4901      1.00000
    268      -7.4891      1.00000
    269      -7.4882      1.00000
    270      -7.4877      1.00000
    271      -7.4868      1.00000
    272      -7.4864      1.00000
    273      -7.4835      1.00000
    274      -7.4829      1.00000
    275      -7.4824      1.00000
    276      -7.4818      1.00000
    277      -7.4810      1.00000
    278      -7.4799      1.00000
    279      -7.4752      1.00000
    280      -7.4737      1.00000
    281      -7.4712      1.00000
    282      -7.4702      1.00000
    283      -7.4695      1.00000
    284      -7.4689      1.00000
    285      -7.4676      1.00000
    286      -7.4669      1.00000
    287      -7.4647      1.00000
    288      -7.4638      1.00000
    289      -7.4631      1.00000
    290      -7.4623      1.00000
    291      -7.4600      1.00000
    292      -7.4587      1.00000
    293      -7.4584      1.00000
    294      -7.4578      1.00000
    295      -7.4568      1.00000
    296      -7.4562      1.00000
    297      -7.4550      1.00000
    298      -7.4539      1.00000
    299      -7.4520      1.00000
    300      -7.4513      1.00000
    301      -7.4492      1.00000
    302      -7.4487      1.00000
    303      -7.4475      1.00000
    304      -7.4466      1.00000
    305      -7.4441      1.00000
    306      -7.4428      1.00000
    307      -7.4402      1.00000
    308      -7.4398      1.00000
    309      -7.4370      1.00000
    310      -7.4363      1.00000
    311      -7.4348      1.00000
    312      -7.4340      1.00000
    313      -7.4330      1.00000
    314      -7.4327      1.00000
    315      -7.4321      1.00000
    316      -7.4319      1.00000
    317      -7.4306      1.00000
    318      -7.4295      1.00000
    319      -7.4279      1.00000
    320      -7.4272      1.00000
    321      -7.4261      1.00000
    322      -7.4252      1.00000
    323      -7.4249      1.00000
    324      -7.4239      1.00000
    325      -7.4209      1.00000
    326      -7.4196      1.00000
    327      -7.4188      1.00000
    328      -7.4169      1.00000
    329      -7.3486      1.00000
    330      -7.3453      1.00000
    331      -7.3190      1.00000
    332      -7.3182      1.00000
    333      -7.3066      1.00000
    334      -7.3029      1.00000
    335      -7.2906      1.00000
    336      -7.2884      1.00000
    337      -7.2800      1.00000
    338      -7.2751      1.00000
    339      -7.2655      1.00000
    340      -7.2601      1.00000
    341      -7.2442      1.00000
    342      -7.2414      1.00000
    343      -7.2336      1.00000
    344      -7.2301      1.00000
    345      -7.2266      1.00000
    346      -7.2241      1.00000
    347      -7.2082      1.00000
    348      -7.2044      1.00000
    349      -7.1266      1.00000
    350      -7.1261      1.00000
    351      -7.1241      1.00000
    352      -7.1181      1.00000
    353      -7.0961      1.00000
    354      -7.0920      1.00000
    355      -7.0884      1.00000
    356      -7.0872      1.00000
    357      -7.0807      1.00000
    358      -7.0798      1.00000
    359      -7.0544      1.00000
    360      -7.0527      1.00000
    361      -7.0495      1.00000
    362      -7.0469      1.00000
    363      -7.0445      1.00000
    364      -7.0423      1.00000
    365      -7.0327      1.00000
    366      -7.0325      1.00000
    367      -7.0281      1.00000
    368      -7.0260      1.00000
    369      -6.9898      1.00000
    370      -6.9895      1.00000
    371      -6.9837      1.00000
    372      -6.9830      1.00000
    373      -6.9658      1.00000
    374      -6.9604      1.00000
    375      -6.9553      1.00000
    376      -6.9483      1.00000
    377      -6.9467      1.00000
    378      -6.9418      1.00000
    379      -6.9249      1.00000
    380      -6.9200      1.00000
    381      -6.9145      1.00000
    382      -6.9110      1.00000
    383      -6.9089      1.00000
    384      -6.9038      1.00000
    385      -6.8491      1.00000
    386      -6.8433      1.00000
    387      -6.8209      1.00000
    388      -6.8142      1.00000
    389      -6.7158      1.00000
    390      -6.7068      1.00000
    391      -6.6783      1.00000
    392      -6.6686      1.00000
    393      -6.6630      1.00000
    394      -6.6529      1.00000
    395      -3.1755      1.00000
    396      -3.1615      1.00000
    397      -2.7776      1.00000
    398      -2.7733      1.00000
    399      -2.7700      1.00000
    400      -2.7669      1.00000
    401      -2.7648      1.00000
    402      -2.7605      1.00000
    403      -2.7537      1.00000
    404      -2.7467      1.00000
    405      -2.7425      1.00000
    406      -2.7408      1.00000
    407      -2.6878      1.00000
    408      -2.6779      1.00000
    409      -2.6204      1.00000
    410      -2.6136      1.00000
    411      -2.6082      1.00000
    412      -2.6071      1.00000
    413      -2.5995      1.00000
    414      -2.5989      1.00000
    415      -2.5592      1.00000
    416      -2.5532      1.00000
    417      -2.5439      1.00000
    418      -2.5365      1.00000
    419      -2.4564      1.00000
    420      -2.4502      1.00000
    421      -2.4408      1.00000
    422      -2.4367      1.00000
    423      -2.4264      1.00000
    424      -2.4239      1.00000
    425      -2.4074      1.00000
    426      -2.4057      1.00000
    427      -2.3255      1.00000
    428      -2.3217      1.00000
    429      -2.3048      1.00000
    430      -2.3005      1.00000
    431      -2.2895      1.00000
    432      -2.2857      1.00000
    433      -2.2609      1.00000
    434      -2.2557      1.00000
    435      -2.1474      1.00000
    436      -2.1419      1.00000
    437      -2.0228      1.00000
    438      -2.0191      1.00000
    439      -2.0184      1.00000
    440      -2.0171      1.00000
    441      -2.0086      1.00000
    442      -2.0053      1.00000
    443      -1.9948      1.00000
    444      -1.9917      1.00000
    445      -1.9425      1.00000
    446      -1.9405      1.00000
    447      -1.9402      1.00000
    448      -1.9359      1.00000
    449      -1.9351      1.00000
    450      -1.9337      1.00000
    451      -1.1678      1.00000
    452      -1.1569      1.00000
    453      -1.0679      1.00000
    454      -1.0636      1.00000
    455      -0.8710      1.00000
    456      -0.8667      1.00000
    457      -0.7924      1.00000
    458      -0.7868      1.00000
    459      -0.6106      1.00000
    460      -0.6007      1.00000
    461      -0.5458      1.00000
    462      -0.5407      1.00000
    463      -0.5357      1.00000
    464      -0.5335      1.00000
    465      -0.5125      1.00000
    466      -0.5107      1.00000
    467      -0.5053      1.00000
    468      -0.5030      1.00000
    469      -0.5003      1.00000
    470      -0.4975      1.00000
    471      -0.4910      1.00000
    472      -0.4870      1.00000
    473      -0.4785      1.00000
    474      -0.4735      1.00000
    475      -0.4494      1.00000
    476      -0.4467      1.00000
    477      -0.3905      1.00000
    478      -0.3880      1.00000
    479      -0.3362      1.00000
    480      -0.3340      1.00000
    481      -0.3147      1.00000
    482      -0.3130      1.00000
    483      -0.3030      1.00000
    484      -0.3009      1.00000
    485      -0.2885      1.00000
    486      -0.2838      1.00000
    487      -0.2806      1.00000
    488      -0.2793      1.00000
    489      -0.2652      1.00000
    490      -0.2605      1.00000
    491      -0.2363      1.00000
    492      -0.2344      1.00000
    493      -0.2028      1.00000
    494      -0.1980      1.00000
    495      -0.1979      1.00000
    496      -0.1914      1.00000
    497      -0.1797      1.00000
    498      -0.1767      1.00000
    499       0.0238      1.00000
    500       0.0334      1.00000
    501       0.0368      1.00000
    502       0.0384      1.00000
    503       0.0468      1.00000
    504       0.0484      1.00000
    505       0.0677      1.00000
    506       0.0684      1.00000
    507       0.1593      1.00000
    508       0.1680      1.00000
    509       0.1715      1.00000
    510       0.1802      1.00000
    511       0.1889      1.00000
    512       0.1925      1.00000
    513       0.1945      1.00000
    514       0.2093      1.00000
    515       0.2135      1.00000
    516       0.2175      1.00000
    517       0.2203      1.00000
    518       0.2257      1.00000
    519       0.2390      1.00000
    520       0.2463      1.00000
    521       0.2541      1.00000
    522       0.2603      1.00000
    523       0.4361      1.00000
    524       0.4413      1.00000
    525       0.4442      1.00000
    526       0.4487      1.00000
    527       0.4513      1.00000
    528       0.4534      1.00000
    529       0.4575      1.00000
    530       0.4613      1.00000
    531       0.4656      1.00000
    532       0.4728      1.00000
    533       0.4744      1.00000
    534       0.4803      1.00000
    535       0.4827      1.00000
    536       0.4853      1.00000
    537       0.4950      1.00000
    538       0.4977      1.00000
    539       0.5437      1.00000
    540       0.5488      1.00000
    541       0.5540      1.00000
    542       0.5554      1.00000
    543       0.5608      1.00000
    544       0.5656      1.00000
    545       0.5801      1.00000
    546       0.5959      1.00000
    547       0.6032      1.00000
    548       0.6057      1.00000
    549       0.6093      1.00000
    550       0.6114      1.00000
    551       0.6178      1.00000
    552       0.6201      1.00000
    553       0.6329      1.00000
    554       0.6400      1.00000
    555       0.8327      1.00000
    556       0.8481      1.00000
    557       0.8562      1.00000
    558       0.8659      1.00000
    559       0.9460      1.00000
    560       0.9569      1.00000
    561       0.9700      1.00000
    562       0.9737      1.00000
    563       0.9809      1.00000
    564       0.9844      1.00000
    565       0.9919      1.00000
    566       0.9960      1.00000
    567       1.0093      1.00000
    568       1.0117      1.00000
    569       1.0152      1.00000
    570       1.0188      1.00000
    571       1.0205      1.00000
    572       1.0228      1.00000
    573       1.0268      1.00000
    574       1.0275      1.00000
    575       1.0344      1.00000
    576       1.0419      1.00000
    577       1.0454      1.00000
    578       1.0498      1.00000
    579       1.6641      1.00000
    580       1.6654      1.00000
    581       1.6694      1.00000
    582       1.7050      1.00000
    583       1.7091      1.00000
    584       1.7138      1.00000
    585       1.7170      1.00000
    586       1.7574      1.00000
    587       3.0636      1.00000
    588       3.1414      0.89247
    589       4.5951      0.00000
    590       4.5988      0.00000
    591       4.7511      0.00000
    592       4.8024      0.00000
    593       4.7699      0.00000
    594       4.9074      0.00000
    595       4.9081      0.00000
    596       4.6220      0.00000
    597       4.6392      0.00000
    598       4.9744      0.00000
    599       5.0245      0.00000
    600       5.0219      0.00000
    601       5.0579      0.00000
    602       4.7775      0.00000
    603       5.1096      0.00000
    604       4.7886      0.00000
    605       4.8520      0.00000
    606       4.9148      0.00000
    607       4.9305      0.00000
    608       5.2765      0.00000
    609       5.2710      0.00000
    610       5.3230      0.00000
    611       5.0104      0.00000
    612       5.0416      0.00000
    613       5.1950      0.00000
    614       5.2342      0.00000
    615       5.1437      0.00000
    616       5.4342      0.00000
    617       5.3205      0.00000
    618       5.4283      0.00000
    619       5.6185      0.00000
    620       5.6884      0.00000
    621       5.6790      0.00000
    622       5.2862      0.00000
    623       5.2783      0.00000
    624       5.6556      0.00000
    625       5.7209      0.00000
    626       5.6568      0.00000
    627       5.4962      0.00000
    628       5.7480      0.00000
    629       5.7769      0.00000
    630       5.7853      0.00000
    631       5.8032      0.00000
    632       5.8090      0.00000
    633       5.8062      0.00000
    634       5.6680      0.00000
    635       5.7826      0.00000
    636       5.5963      0.00000
    637       5.7135      0.00000
    638       5.8980      0.00000
    639       5.7414      0.00000
    640       5.8968      0.00000
    641       5.8424      0.00000
    642       5.8616      0.00000
    643       5.9854      0.00000
    644       6.0294      0.00000
    645       6.0071      0.00000
    646       5.9237      0.00000
    647       5.7281      0.00000
    648       5.7366      0.00000
    649       5.7740      0.00000
    650       5.7804      0.00000
    651       5.7960      0.00000
    652       5.8200      0.00000
    653       5.8299      0.00000
    654       5.8375      0.00000
    655       5.8518      0.00000
    656       5.8526      0.00000
    657       5.8536      0.00000
    658       5.8836      0.00000
    659       5.8750      0.00000
    660       5.9673      0.00000
    661       5.9868      0.00000
    662       6.0206      0.00000
    663       6.0175      0.00000
    664       6.0533      0.00000
    665       6.0491      0.00000
    666       6.0812      0.00000
    667       6.5756      0.00000
    668       6.6702      0.00000
    669       6.8087      0.00000
    670       6.8310      0.00000
    671       6.9430      0.00000
    672       6.8570      0.00000
    673       6.8728      0.00000
    674       6.8486      0.00000
    675       6.9495      0.00000
    676       6.9316      0.00000
    677       7.0010      0.00000
    678       7.0356      0.00000
    679       7.0374      0.00000
    680       7.0692      0.00000
    681       6.9486      0.00000
    682       6.8356      0.00000
    683       7.0852      0.00000
    684       7.1017      0.00000
    685       7.0932      0.00000
    686       7.1079      0.00000
    687       7.0931      0.00000
    688       7.1465      0.00000
    689       6.9584      0.00000
    690       7.0957      0.00000
    691       7.0354      0.00000
    692       7.0857      0.00000
    693       7.1346      0.00000
    694       7.0854      0.00000
    695       6.9223      0.00000
    696       6.9380      0.00000
    697       6.9830      0.00000
    698       6.9976      0.00000
    699       7.0195      0.00000
    700       7.0485      0.00000
    701       7.0592      0.00000
    702       7.0644      0.00000
    703       7.0354      0.00000
    704       7.0802      0.00000
    705       7.1127      0.00000
    706       7.0850      0.00000
    707       7.1260      0.00000
    708       7.1082      0.00000
    709       7.4144      0.00000
    710       7.3861      0.00000
    711       7.1696      0.00000
    712       7.1594      0.00000
    713       7.2490      0.00000
    714       7.1522      0.00000
    715       7.2673      0.00000
    716       7.2279      0.00000
    717       7.4494      0.00000
    718       7.2555      0.00000
    719       7.7381      0.00000
    720       7.8091      0.00000
    721       7.6763      0.00000
    722       7.5006      0.00000
    723       7.9870      0.00000
    724       7.6171      0.00000
    725       7.5597      0.00000
    726       7.7579      0.00000
    727       7.9486      0.00000
    728       8.0506      0.00000
    729       8.0478      0.00000
    730       8.2335      0.00000
    731       7.8943      0.00000
    732       7.9388      0.00000
    733       8.3020      0.00000
    734       8.0636      0.00000
    735       8.3382      0.00000
    736       8.2924      0.00000
    737       8.1467      0.00000
    738       8.2996      0.00000
    739       8.3452      0.00000
    740       8.4059      0.00000
    741       8.4174      0.00000
    742       8.3884      0.00000
    743       8.3126      0.00000
    744       8.3438      0.00000
    745       8.3968      0.00000
    746       8.4039      0.00000
    747       8.2784      0.00000
    748       8.4506      0.00000
    749       8.4498      0.00000
    750       8.4765      0.00000
    751       8.5165      0.00000
    752       8.4183      0.00000
    753       8.2764      0.00000
    754       8.2005      0.00000
    755       8.5202      0.00000
    756       8.5770      0.00000
    757       8.5703      0.00000
    758       8.5749      0.00000
    759       8.6046      0.00000
    760       8.5942      0.00000
    761       8.6117      0.00000
    762       8.6333      0.00000
    763       8.6373      0.00000
    764       8.5178      0.00000
    765       8.5127      0.00000
    766       8.6998      0.00000
    767       8.3618      0.00000
    768       8.4231      0.00000
    769       8.3996      0.00000
    770       8.4121      0.00000
    771       8.4125      0.00000
    772       8.4421      0.00000
    773       8.4464      0.00000
    774       8.4296      0.00000
    775       8.4608      0.00000
    776       8.4724      0.00000
    777       8.4909      0.00000
    778       8.5056      0.00000
    779       8.5041      0.00000
    780       8.5191      0.00000
    781       8.5638      0.00000
    782       8.5906      0.00000
    783       8.6128      0.00000
    784       8.6316      0.00000
    785       8.6422      0.00000
    786       8.6534      0.00000
    787       8.6708      0.00000
    788       8.7236      0.00000
    789       8.8390      0.00000
    790       8.9080      0.00000
    791       9.0461      0.00000
    792       9.4044      0.00000

 k-point     7 :       0.0000    0.5000    0.5000
  band No.  band energies     occupation 
      1     -10.0349      1.00000
      2     -10.0275      1.00000
      3     -10.0265      1.00000
      4     -10.0056      1.00000
      5     -10.0001      1.00000
      6      -9.9920      1.00000
      7      -9.9913      1.00000
      8      -9.9676      1.00000
      9      -9.8956      1.00000
     10      -9.8938      1.00000
     11      -9.8870      1.00000
     12      -9.8804      1.00000
     13      -9.8773      1.00000
     14      -9.8655      1.00000
     15      -9.8623      1.00000
     16      -9.8572      1.00000
     17      -9.8544      1.00000
     18      -9.8478      1.00000
     19      -9.8409      1.00000
     20      -9.8379      1.00000
     21      -9.8343      1.00000
     22      -9.8257      1.00000
     23      -9.8245      1.00000
     24      -9.8211      1.00000
     25      -9.8191      1.00000
     26      -9.8034      1.00000
     27      -9.7983      1.00000
     28      -9.7975      1.00000
     29      -9.7957      1.00000
     30      -9.7942      1.00000
     31      -9.7912      1.00000
     32      -9.7847      1.00000
     33      -9.7814      1.00000
     34      -9.7790      1.00000
     35      -9.7734      1.00000
     36      -9.7713      1.00000
     37      -9.7685      1.00000
     38      -9.7572      1.00000
     39      -9.7547      1.00000
     40      -9.7533      1.00000
     41      -9.7482      1.00000
     42      -9.7457      1.00000
     43      -9.7453      1.00000
     44      -9.7408      1.00000
     45      -9.7359      1.00000
     46      -9.7342      1.00000
     47      -9.7304      1.00000
     48      -9.7237      1.00000
     49      -9.7219      1.00000
     50      -9.7114      1.00000
     51      -9.7097      1.00000
     52      -9.7055      1.00000
     53      -9.7010      1.00000
     54      -9.6995      1.00000
     55      -9.6883      1.00000
     56      -9.6827      1.00000
     57      -9.6769      1.00000
     58      -9.6727      1.00000
     59      -9.6698      1.00000
     60      -9.6566      1.00000
     61      -9.6436      1.00000
     62      -9.6394      1.00000
     63      -9.6296      1.00000
     64      -9.6261      1.00000
     65      -8.3396      1.00000
     66      -8.3380      1.00000
     67      -8.3347      1.00000
     68      -8.3320      1.00000
     69      -8.3240      1.00000
     70      -8.3210      1.00000
     71      -8.3111      1.00000
     72      -8.3062      1.00000
     73      -8.2858      1.00000
     74      -8.2853      1.00000
     75      -8.2819      1.00000
     76      -8.2808      1.00000
     77      -8.2745      1.00000
     78      -8.2740      1.00000
     79      -8.2684      1.00000
     80      -8.2680      1.00000
     81      -8.2646      1.00000
     82      -8.2642      1.00000
     83      -8.2628      1.00000
     84      -8.2620      1.00000
     85      -8.2586      1.00000
     86      -8.2579      1.00000
     87      -8.2554      1.00000
     88      -8.2545      1.00000
     89      -8.2542      1.00000
     90      -8.2531      1.00000
     91      -8.2500      1.00000
     92      -8.2494      1.00000
     93      -8.2488      1.00000
     94      -8.2483      1.00000
     95      -8.2473      1.00000
     96      -8.2467      1.00000
     97      -8.2462      1.00000
     98      -8.2458      1.00000
     99      -8.2443      1.00000
    100      -8.2438      1.00000
    101      -8.2400      1.00000
    102      -8.2394      1.00000
    103      -8.2392      1.00000
    104      -8.2387      1.00000
    105      -8.2333      1.00000
    106      -8.2325      1.00000
    107      -8.2323      1.00000
    108      -8.2318      1.00000
    109      -8.2309      1.00000
    110      -8.2303      1.00000
    111      -8.2281      1.00000
    112      -8.2279      1.00000
    113      -8.2216      1.00000
    114      -8.2212      1.00000
    115      -8.2208      1.00000
    116      -8.2206      1.00000
    117      -8.2184      1.00000
    118      -8.2183      1.00000
    119      -8.2096      1.00000
    120      -8.2093      1.00000
    121      -8.2084      1.00000
    122      -8.2080      1.00000
    123      -8.2030      1.00000
    124      -8.2026      1.00000
    125      -8.1989      1.00000
    126      -8.1982      1.00000
    127      -8.1953      1.00000
    128      -8.1948      1.00000
    129      -8.1878      1.00000
    130      -8.1861      1.00000
    131      -8.1848      1.00000
    132      -8.1831      1.00000
    133      -8.1643      1.00000
    134      -8.1626      1.00000
    135      -8.1620      1.00000
    136      -8.1600      1.00000
    137      -8.1272      1.00000
    138      -8.1269      1.00000
    139      -8.1241      1.00000
    140      -8.1236      1.00000
    141      -8.1206      1.00000
    142      -8.1203      1.00000
    143      -8.1186      1.00000
    144      -8.1182      1.00000
    145      -8.1137      1.00000
    146      -8.1134      1.00000
    147      -8.1131      1.00000
    148      -8.1129      1.00000
    149      -8.1110      1.00000
    150      -8.1106      1.00000
    151      -8.1106      1.00000
    152      -8.1104      1.00000
    153      -8.1074      1.00000
    154      -8.1072      1.00000
    155      -8.1063      1.00000
    156      -8.1061      1.00000
    157      -8.1036      1.00000
    158      -8.1034      1.00000
    159      -8.0969      1.00000
    160      -8.0967      1.00000
    161      -8.0954      1.00000
    162      -8.0953      1.00000
    163      -8.0935      1.00000
    164      -8.0931      1.00000
    165      -8.0012      1.00000
    166      -7.9999      1.00000
    167      -7.9968      1.00000
    168      -7.9960      1.00000
    169      -7.9956      1.00000
    170      -7.9947      1.00000
    171      -7.9942      1.00000
    172      -7.9930      1.00000
    173      -7.9360      1.00000
    174      -7.9350      1.00000
    175      -7.9079      1.00000
    176      -7.9069      1.00000
    177      -7.8983      1.00000
    178      -7.8982      1.00000
    179      -7.8900      1.00000
    180      -7.8897      1.00000
    181      -7.8739      1.00000
    182      -7.8727      1.00000
    183      -7.8671      1.00000
    184      -7.8661      1.00000
    185      -7.8605      1.00000
    186      -7.8595      1.00000
    187      -7.8550      1.00000
    188      -7.8545      1.00000
    189      -7.8494      1.00000
    190      -7.8484      1.00000
    191      -7.8305      1.00000
    192      -7.8301      1.00000
    193      -7.8038      1.00000
    194      -7.8020      1.00000
    195      -7.8009      1.00000
    196      -7.7990      1.00000
    197      -7.6656      1.00000
    198      -7.6631      1.00000
    199      -7.6515      1.00000
    200      -7.6493      1.00000
    201      -7.6143      1.00000
    202      -7.6122      1.00000
    203      -7.6105      1.00000
    204      -7.6096      1.00000
    205      -7.6016      1.00000
    206      -7.6011      1.00000
    207      -7.5946      1.00000
    208      -7.5944      1.00000
    209      -7.5936      1.00000
    210      -7.5926      1.00000
    211      -7.5906      1.00000
    212      -7.5902      1.00000
    213      -7.5852      1.00000
    214      -7.5843      1.00000
    215      -7.5831      1.00000
    216      -7.5820      1.00000
    217      -7.5747      1.00000
    218      -7.5738      1.00000
    219      -7.5736      1.00000
    220      -7.5729      1.00000
    221      -7.5727      1.00000
    222      -7.5719      1.00000
    223      -7.5668      1.00000
    224      -7.5661      1.00000
    225      -7.5648      1.00000
    226      -7.5640      1.00000
    227      -7.5626      1.00000
    228      -7.5618      1.00000
    229      -7.5554      1.00000
    230      -7.5542      1.00000
    231      -7.5539      1.00000
    232      -7.5528      1.00000
    233      -7.5486      1.00000
    234      -7.5474      1.00000
    235      -7.5421      1.00000
    236      -7.5403      1.00000
    237      -7.5399      1.00000
    238      -7.5386      1.00000
    239      -7.5377      1.00000
    240      -7.5363      1.00000
    241      -7.5354      1.00000
    242      -7.5350      1.00000
    243      -7.5339      1.00000
    244      -7.5335      1.00000
    245      -7.5326      1.00000
    246      -7.5319      1.00000
    247      -7.5310      1.00000
    248      -7.5305      1.00000
    249      -7.5273      1.00000
    250      -7.5266      1.00000
    251      -7.5241      1.00000
    252      -7.5236      1.00000
    253      -7.5225      1.00000
    254      -7.5218      1.00000
    255      -7.5196      1.00000
    256      -7.5189      1.00000
    257      -7.5132      1.00000
    258      -7.5126      1.00000
    259      -7.5093      1.00000
    260      -7.5089      1.00000
    261      -7.4985      1.00000
    262      -7.4979      1.00000
    263      -7.4931      1.00000
    264      -7.4928      1.00000
    265      -7.4912      1.00000
    266      -7.4904      1.00000
    267      -7.4901      1.00000
    268      -7.4891      1.00000
    269      -7.4882      1.00000
    270      -7.4877      1.00000
    271      -7.4868      1.00000
    272      -7.4864      1.00000
    273      -7.4835      1.00000
    274      -7.4829      1.00000
    275      -7.4824      1.00000
    276      -7.4818      1.00000
    277      -7.4810      1.00000
    278      -7.4799      1.00000
    279      -7.4751      1.00000
    280      -7.4737      1.00000
    281      -7.4713      1.00000
    282      -7.4703      1.00000
    283      -7.4695      1.00000
    284      -7.4689      1.00000
    285      -7.4676      1.00000
    286      -7.4670      1.00000
    287      -7.4647      1.00000
    288      -7.4638      1.00000
    289      -7.4631      1.00000
    290      -7.4623      1.00000
    291      -7.4600      1.00000
    292      -7.4587      1.00000
    293      -7.4585      1.00000
    294      -7.4578      1.00000
    295      -7.4568      1.00000
    296      -7.4562      1.00000
    297      -7.4550      1.00000
    298      -7.4539      1.00000
    299      -7.4520      1.00000
    300      -7.4513      1.00000
    301      -7.4492      1.00000
    302      -7.4487      1.00000
    303      -7.4475      1.00000
    304      -7.4466      1.00000
    305      -7.4441      1.00000
    306      -7.4428      1.00000
    307      -7.4402      1.00000
    308      -7.4398      1.00000
    309      -7.4370      1.00000
    310      -7.4363      1.00000
    311      -7.4348      1.00000
    312      -7.4339      1.00000
    313      -7.4330      1.00000
    314      -7.4327      1.00000
    315      -7.4321      1.00000
    316      -7.4319      1.00000
    317      -7.4306      1.00000
    318      -7.4295      1.00000
    319      -7.4279      1.00000
    320      -7.4272      1.00000
    321      -7.4261      1.00000
    322      -7.4252      1.00000
    323      -7.4249      1.00000
    324      -7.4239      1.00000
    325      -7.4208      1.00000
    326      -7.4196      1.00000
    327      -7.4188      1.00000
    328      -7.4169      1.00000
    329      -7.3486      1.00000
    330      -7.3453      1.00000
    331      -7.3190      1.00000
    332      -7.3182      1.00000
    333      -7.3066      1.00000
    334      -7.3029      1.00000
    335      -7.2906      1.00000
    336      -7.2884      1.00000
    337      -7.2800      1.00000
    338      -7.2752      1.00000
    339      -7.2655      1.00000
    340      -7.2601      1.00000
    341      -7.2443      1.00000
    342      -7.2414      1.00000
    343      -7.2335      1.00000
    344      -7.2301      1.00000
    345      -7.2266      1.00000
    346      -7.2242      1.00000
    347      -7.2082      1.00000
    348      -7.2044      1.00000
    349      -7.1266      1.00000
    350      -7.1261      1.00000
    351      -7.1242      1.00000
    352      -7.1181      1.00000
    353      -7.0961      1.00000
    354      -7.0919      1.00000
    355      -7.0884      1.00000
    356      -7.0871      1.00000
    357      -7.0807      1.00000
    358      -7.0798      1.00000
    359      -7.0543      1.00000
    360      -7.0526      1.00000
    361      -7.0495      1.00000
    362      -7.0469      1.00000
    363      -7.0445      1.00000
    364      -7.0423      1.00000
    365      -7.0327      1.00000
    366      -7.0325      1.00000
    367      -7.0281      1.00000
    368      -7.0261      1.00000
    369      -6.9898      1.00000
    370      -6.9895      1.00000
    371      -6.9837      1.00000
    372      -6.9830      1.00000
    373      -6.9658      1.00000
    374      -6.9604      1.00000
    375      -6.9553      1.00000
    376      -6.9484      1.00000
    377      -6.9467      1.00000
    378      -6.9419      1.00000
    379      -6.9250      1.00000
    380      -6.9200      1.00000
    381      -6.9145      1.00000
    382      -6.9110      1.00000
    383      -6.9088      1.00000
    384      -6.9038      1.00000
    385      -6.8491      1.00000
    386      -6.8433      1.00000
    387      -6.8209      1.00000
    388      -6.8142      1.00000
    389      -6.7158      1.00000
    390      -6.7068      1.00000
    391      -6.6783      1.00000
    392      -6.6685      1.00000
    393      -6.6630      1.00000
    394      -6.6529      1.00000
    395      -3.1755      1.00000
    396      -3.1615      1.00000
    397      -2.7775      1.00000
    398      -2.7732      1.00000
    399      -2.7701      1.00000
    400      -2.7670      1.00000
    401      -2.7649      1.00000
    402      -2.7605      1.00000
    403      -2.7537      1.00000
    404      -2.7467      1.00000
    405      -2.7424      1.00000
    406      -2.7409      1.00000
    407      -2.6879      1.00000
    408      -2.6779      1.00000
    409      -2.6206      1.00000
    410      -2.6138      1.00000
    411      -2.6083      1.00000
    412      -2.6068      1.00000
    413      -2.5993      1.00000
    414      -2.5984      1.00000
    415      -2.5592      1.00000
    416      -2.5533      1.00000
    417      -2.5439      1.00000
    418      -2.5365      1.00000
    419      -2.4564      1.00000
    420      -2.4502      1.00000
    421      -2.4407      1.00000
    422      -2.4367      1.00000
    423      -2.4264      1.00000
    424      -2.4239      1.00000
    425      -2.4073      1.00000
    426      -2.4056      1.00000
    427      -2.3255      1.00000
    428      -2.3217      1.00000
    429      -2.3048      1.00000
    430      -2.3006      1.00000
    431      -2.2894      1.00000
    432      -2.2858      1.00000
    433      -2.2610      1.00000
    434      -2.2558      1.00000
    435      -2.1474      1.00000
    436      -2.1419      1.00000
    437      -2.0228      1.00000
    438      -2.0191      1.00000
    439      -2.0185      1.00000
    440      -2.0171      1.00000
    441      -2.0086      1.00000
    442      -2.0053      1.00000
    443      -1.9949      1.00000
    444      -1.9918      1.00000
    445      -1.9425      1.00000
    446      -1.9405      1.00000
    447      -1.9402      1.00000
    448      -1.9359      1.00000
    449      -1.9350      1.00000
    450      -1.9337      1.00000
    451      -1.1678      1.00000
    452      -1.1570      1.00000
    453      -1.0679      1.00000
    454      -1.0636      1.00000
    455      -0.8710      1.00000
    456      -0.8667      1.00000
    457      -0.7924      1.00000
    458      -0.7869      1.00000
    459      -0.6107      1.00000
    460      -0.6008      1.00000
    461      -0.5458      1.00000
    462      -0.5408      1.00000
    463      -0.5357      1.00000
    464      -0.5336      1.00000
    465      -0.5125      1.00000
    466      -0.5107      1.00000
    467      -0.5054      1.00000
    468      -0.5031      1.00000
    469      -0.5004      1.00000
    470      -0.4976      1.00000
    471      -0.4909      1.00000
    472      -0.4871      1.00000
    473      -0.4784      1.00000
    474      -0.4735      1.00000
    475      -0.4494      1.00000
    476      -0.4468      1.00000
    477      -0.3905      1.00000
    478      -0.3880      1.00000
    479      -0.3361      1.00000
    480      -0.3340      1.00000
    481      -0.3148      1.00000
    482      -0.3130      1.00000
    483      -0.3030      1.00000
    484      -0.3008      1.00000
    485      -0.2885      1.00000
    486      -0.2838      1.00000
    487      -0.2804      1.00000
    488      -0.2792      1.00000
    489      -0.2652      1.00000
    490      -0.2605      1.00000
    491      -0.2362      1.00000
    492      -0.2343      1.00000
    493      -0.2027      1.00000
    494      -0.1980      1.00000
    495      -0.1979      1.00000
    496      -0.1913      1.00000
    497      -0.1798      1.00000
    498      -0.1766      1.00000
    499       0.0238      1.00000
    500       0.0335      1.00000
    501       0.0368      1.00000
    502       0.0384      1.00000
    503       0.0468      1.00000
    504       0.0485      1.00000
    505       0.0677      1.00000
    506       0.0683      1.00000
    507       0.1593      1.00000
    508       0.1679      1.00000
    509       0.1715      1.00000
    510       0.1802      1.00000
    511       0.1888      1.00000
    512       0.1924      1.00000
    513       0.1945      1.00000
    514       0.2092      1.00000
    515       0.2135      1.00000
    516       0.2174      1.00000
    517       0.2203      1.00000
    518       0.2257      1.00000
    519       0.2391      1.00000
    520       0.2465      1.00000
    521       0.2541      1.00000
    522       0.2604      1.00000
    523       0.4360      1.00000
    524       0.4413      1.00000
    525       0.4442      1.00000
    526       0.4487      1.00000
    527       0.4513      1.00000
    528       0.4534      1.00000
    529       0.4575      1.00000
    530       0.4613      1.00000
    531       0.4657      1.00000
    532       0.4728      1.00000
    533       0.4744      1.00000
    534       0.4802      1.00000
    535       0.4827      1.00000
    536       0.4854      1.00000
    537       0.4950      1.00000
    538       0.4977      1.00000
    539       0.5437      1.00000
    540       0.5489      1.00000
    541       0.5540      1.00000
    542       0.5555      1.00000
    543       0.5608      1.00000
    544       0.5656      1.00000
    545       0.5801      1.00000
    546       0.5960      1.00000
    547       0.6032      1.00000
    548       0.6057      1.00000
    549       0.6093      1.00000
    550       0.6114      1.00000
    551       0.6178      1.00000
    552       0.6202      1.00000
    553       0.6329      1.00000
    554       0.6399      1.00000
    555       0.8328      1.00000
    556       0.8481      1.00000
    557       0.8562      1.00000
    558       0.8660      1.00000
    559       0.9460      1.00000
    560       0.9570      1.00000
    561       0.9700      1.00000
    562       0.9736      1.00000
    563       0.9808      1.00000
    564       0.9843      1.00000
    565       0.9919      1.00000
    566       0.9960      1.00000
    567       1.0093      1.00000
    568       1.0117      1.00000
    569       1.0152      1.00000
    570       1.0188      1.00000
    571       1.0205      1.00000
    572       1.0228      1.00000
    573       1.0268      1.00000
    574       1.0275      1.00000
    575       1.0344      1.00000
    576       1.0419      1.00000
    577       1.0454      1.00000
    578       1.0498      1.00000
    579       1.6641      1.00000
    580       1.6654      1.00000
    581       1.6694      1.00000
    582       1.7050      1.00000
    583       1.7091      1.00000
    584       1.7138      1.00000
    585       1.7170      1.00000
    586       1.7573      1.00000
    587       3.0636      1.00000
    588       3.1414      0.89254
    589       4.5951      0.00000
    590       4.5987      0.00000
    591       4.7512      0.00000
    592       4.8025      0.00000
    593       4.7698      0.00000
    594       4.9074      0.00000
    595       4.9081      0.00000
    596       4.6217      0.00000
    597       4.6394      0.00000
    598       4.9744      0.00000
    599       5.0245      0.00000
    600       5.0218      0.00000
    601       5.0579      0.00000
    602       4.7769      0.00000
    603       5.1101      0.00000
    604       4.7886      0.00000
    605       4.8521      0.00000
    606       4.9147      0.00000
    607       4.9305      0.00000
    608       5.2766      0.00000
    609       5.2711      0.00000
    610       5.3230      0.00000
    611       5.0104      0.00000
    612       5.0418      0.00000
    613       5.1946      0.00000
    614       5.2361      0.00000
    615       5.1419      0.00000
    616       5.4351      0.00000
    617       5.3193      0.00000
    618       5.4286      0.00000
    619       5.6185      0.00000
    620       5.6885      0.00000
    621       5.6791      0.00000
    622       5.2865      0.00000
    623       5.2779      0.00000
    624       5.6559      0.00000
    625       5.7206      0.00000
    626       5.6560      0.00000
    627       5.4970      0.00000
    628       5.7480      0.00000
    629       5.7769      0.00000
    630       5.7854      0.00000
    631       5.8033      0.00000
    632       5.8091      0.00000
    633       5.8060      0.00000
    634       5.6689      0.00000
    635       5.7821      0.00000
    636       5.5971      0.00000
    637       5.7125      0.00000
    638       5.8976      0.00000
    639       5.7451      0.00000
    640       5.8932      0.00000
    641       5.8423      0.00000
    642       5.8612      0.00000
    643       5.9858      0.00000
    644       6.0294      0.00000
    645       6.0070      0.00000
    646       5.9234      0.00000
    647       5.7287      0.00000
    648       5.7362      0.00000
    649       5.7742      0.00000
    650       5.7805      0.00000
    651       5.7963      0.00000
    652       5.8203      0.00000
    653       5.8301      0.00000
    654       5.8377      0.00000
    655       5.8513      0.00000
    656       5.8527      0.00000
    657       5.8537      0.00000
    658       5.8842      0.00000
    659       5.8750      0.00000
    660       5.9674      0.00000
    661       5.9866      0.00000
    662       6.0207      0.00000
    663       6.0172      0.00000
    664       6.0540      0.00000
    665       6.0487      0.00000
    666       6.0811      0.00000
    667       6.5755      0.00000
    668       6.6702      0.00000
    669       6.8086      0.00000
    670       6.8310      0.00000
    671       6.9435      0.00000
    672       6.8550      0.00000
    673       6.8735      0.00000
    674       6.8495      0.00000
    675       6.9503      0.00000
    676       6.9307      0.00000
    677       7.0006      0.00000
    678       7.0357      0.00000
    679       7.0377      0.00000
    680       7.0695      0.00000
    681       6.9472      0.00000
    682       6.8374      0.00000
    683       7.0848      0.00000
    684       7.1015      0.00000
    685       7.0931      0.00000
    686       7.1079      0.00000
    687       7.0913      0.00000
    688       7.1470      0.00000
    689       6.9584      0.00000
    690       7.0952      0.00000
    691       7.0359      0.00000
    692       7.0888      0.00000
    693       7.1335      0.00000
    694       7.0849      0.00000
    695       6.9221      0.00000
    696       6.9365      0.00000
    697       6.9846      0.00000
    698       6.9976      0.00000
    699       7.0194      0.00000
    700       7.0485      0.00000
    701       7.0587      0.00000
    702       7.0649      0.00000
    703       7.0352      0.00000
    704       7.0803      0.00000
    705       7.1131      0.00000
    706       7.0848      0.00000
    707       7.1260      0.00000
    708       7.1079      0.00000
    709       7.4149      0.00000
    710       7.3862      0.00000
    711       7.1692      0.00000
    712       7.1588      0.00000
    713       7.2392      0.00000
    714       7.1610      0.00000
    715       7.2713      0.00000
    716       7.2254      0.00000
    717       7.4508      0.00000
    718       7.2532      0.00000
    719       7.7389      0.00000
    720       7.8097      0.00000
    721       7.6758      0.00000
    722       7.5019      0.00000
    723       7.9874      0.00000
    724       7.6192      0.00000
    725       7.5565      0.00000
    726       7.7575      0.00000
    727       7.9488      0.00000
    728       8.0506      0.00000
    729       8.0477      0.00000
    730       8.2349      0.00000
    731       7.9000      0.00000
    732       7.9337      0.00000
    733       8.3028      0.00000
    734       8.0635      0.00000
    735       8.3462      0.00000
    736       8.2991      0.00000
    737       8.1313      0.00000
    738       8.3052      0.00000
    739       8.3455      0.00000
    740       8.4054      0.00000
    741       8.4186      0.00000
    742       8.3870      0.00000
    743       8.2651      0.00000
    744       8.3582      0.00000
    745       8.3669      0.00000
    746       8.4181      0.00000
    747       8.3197      0.00000
    748       8.4582      0.00000
    749       8.4442      0.00000
    750       8.4717      0.00000
    751       8.5166      0.00000
    752       8.3168      0.00000
    753       8.3753      0.00000
    754       8.1632      0.00000
    755       8.5469      0.00000
    756       8.5775      0.00000
    757       8.5817      0.00000
    758       8.5751      0.00000
    759       8.6024      0.00000
    760       8.5905      0.00000
    761       8.6117      0.00000
    762       8.6292      0.00000
    763       8.6229      0.00000
    764       8.5360      0.00000
    765       8.5086      0.00000
    766       8.7050      0.00000
    767       8.3546      0.00000
    768       8.3984      0.00000
    769       8.4197      0.00000
    770       8.4014      0.00000
    771       8.4536      0.00000
    772       8.3975      0.00000
    773       8.4689      0.00000
    774       8.4339      0.00000
    775       8.4573      0.00000
    776       8.4636      0.00000
    777       8.4799      0.00000
    778       8.5019      0.00000
    779       8.5039      0.00000
    780       8.5444      0.00000
    781       8.5455      0.00000
    782       8.5853      0.00000
    783       8.5986      0.00000
    784       8.6239      0.00000
    785       8.6522      0.00000
    786       8.6548      0.00000
    787       8.6699      0.00000
    788       8.7245      0.00000
    789       8.7699      0.00000
    790       8.8971      0.00000
    791       9.2429      0.00000
    792       9.4565      0.00000

 k-point     8 :       0.5000    0.5000    0.5000
  band No.  band energies     occupation 
      1      -9.9998      1.00000
      2      -9.9995      1.00000
      3      -9.9991      1.00000
      4      -9.9938      1.00000
      5      -9.9640      1.00000
      6      -9.9637      1.00000
      7      -9.9633      1.00000
      8      -9.9577      1.00000
      9      -9.9564      1.00000
     10      -9.9557      1.00000
     11      -9.9551      1.00000
     12      -9.9210      1.00000
     13      -9.9208      1.00000
     14      -9.9200      1.00000
     15      -9.9195      1.00000
     16      -9.8825      1.00000
     17      -9.8394      1.00000
     18      -9.8372      1.00000
     19      -9.8350      1.00000
     20      -9.8071      1.00000
     21      -9.8054      1.00000
     22      -9.8042      1.00000
     23      -9.8033      1.00000
     24      -9.7992      1.00000
     25      -9.7990      1.00000
     26      -9.7968      1.00000
     27      -9.7959      1.00000
     28      -9.7955      1.00000
     29      -9.7921      1.00000
     30      -9.7888      1.00000
     31      -9.7843      1.00000
     32      -9.7804      1.00000
     33      -9.7799      1.00000
     34      -9.7744      1.00000
     35      -9.7638      1.00000
     36      -9.7614      1.00000
     37      -9.7566      1.00000
     38      -9.7535      1.00000
     39      -9.7529      1.00000
     40      -9.7472      1.00000
     41      -9.7466      1.00000
     42      -9.7445      1.00000
     43      -9.7412      1.00000
     44      -9.7398      1.00000
     45      -9.7381      1.00000
     46      -9.7373      1.00000
     47      -9.7337      1.00000
     48      -9.7290      1.00000
     49      -9.7287      1.00000
     50      -9.7118      1.00000
     51      -9.7106      1.00000
     52      -9.7078      1.00000
     53      -9.7058      1.00000
     54      -9.6931      1.00000
     55      -9.6914      1.00000
     56      -9.6821      1.00000
     57      -9.6797      1.00000
     58      -9.6737      1.00000
     59      -9.6729      1.00000
     60      -9.6560      1.00000
     61      -9.6556      1.00000
     62      -9.6336      1.00000
     63      -9.6331      1.00000
     64      -9.6302      1.00000
     65      -8.3418      1.00000
     66      -8.3393      1.00000
     67      -8.3386      1.00000
     68      -8.3359      1.00000
     69      -8.3258      1.00000
     70      -8.3234      1.00000
     71      -8.3038      1.00000
     72      -8.2987      1.00000
     73      -8.2924      1.00000
     74      -8.2914      1.00000
     75      -8.2913      1.00000
     76      -8.2905      1.00000
     77      -8.2740      1.00000
     78      -8.2738      1.00000
     79      -8.2733      1.00000
     80      -8.2730      1.00000
     81      -8.2643      1.00000
     82      -8.2642      1.00000
     83      -8.2634      1.00000
     84      -8.2629      1.00000
     85      -8.2583      1.00000
     86      -8.2582      1.00000
     87      -8.2581      1.00000
     88      -8.2577      1.00000
     89      -8.2515      1.00000
     90      -8.2513      1.00000
     91      -8.2477      1.00000
     92      -8.2476      1.00000
     93      -8.2474      1.00000
     94      -8.2473      1.00000
     95      -8.2416      1.00000
     96      -8.2414      1.00000
     97      -8.2413      1.00000
     98      -8.2409      1.00000
     99      -8.2399      1.00000
    100      -8.2399      1.00000
    101      -8.2391      1.00000
    102      -8.2390      1.00000
    103      -8.2388      1.00000
    104      -8.2385      1.00000
    105      -8.2384      1.00000
    106      -8.2379      1.00000
    107      -8.2301      1.00000
    108      -8.2294      1.00000
    109      -8.2284      1.00000
    110      -8.2278      1.00000
    111      -8.2267      1.00000
    112      -8.2256      1.00000
    113      -8.2168      1.00000
    114      -8.2168      1.00000
    115      -8.2161      1.00000
    116      -8.2160      1.00000
    117      -8.2041      1.00000
    118      -8.2037      1.00000
    119      -8.2034      1.00000
    120      -8.2024      1.00000
    121      -8.1996      1.00000
    122      -8.1995      1.00000
    123      -8.1990      1.00000
    124      -8.1989      1.00000
    125      -8.1982      1.00000
    126      -8.1980      1.00000
    127      -8.1919      1.00000
    128      -8.1916      1.00000
    129      -8.1575      1.00000
    130      -8.1564      1.00000
    131      -8.1556      1.00000
    132      -8.1542      1.00000
    133      -8.1541      1.00000
    134      -8.1529      1.00000
    135      -8.1465      1.00000
    136      -8.1442      1.00000
    137      -8.1414      1.00000
    138      -8.1406      1.00000
    139      -8.1403      1.00000
    140      -8.1392      1.00000
    141      -8.1377      1.00000
    142      -8.1356      1.00000
    143      -8.1263      1.00000
    144      -8.1247      1.00000
    145      -8.1187      1.00000
    146      -8.1182      1.00000
    147      -8.1182      1.00000
    148      -8.1178      1.00000
    149      -8.1108      1.00000
    150      -8.1107      1.00000
    151      -8.1091      1.00000
    152      -8.1090      1.00000
    153      -8.1082      1.00000
    154      -8.1081      1.00000
    155      -8.1080      1.00000
    156      -8.1079      1.00000
    157      -8.1054      1.00000
    158      -8.1052      1.00000
    159      -8.1035      1.00000
    160      -8.1034      1.00000
    161      -8.1033      1.00000
    162      -8.1031      1.00000
    163      -8.1029      1.00000
    164      -8.1028      1.00000
    165      -8.1019      1.00000
    166      -8.1018      1.00000
    167      -8.1016      1.00000
    168      -8.1016      1.00000
    169      -7.9291      1.00000
    170      -7.9278      1.00000
    171      -7.9270      1.00000
    172      -7.9254      1.00000
    173      -7.8990      1.00000
    174      -7.8984      1.00000
    175      -7.8938      1.00000
    176      -7.8934      1.00000
    177      -7.8927      1.00000
    178      -7.8926      1.00000
    179      -7.8791      1.00000
    180      -7.8785      1.00000
    181      -7.8667      1.00000
    182      -7.8664      1.00000
    183      -7.8659      1.00000
    184      -7.8657      1.00000
    185      -7.8653      1.00000
    186      -7.8652      1.00000
    187      -7.8610      1.00000
    188      -7.8602      1.00000
    189      -7.8566      1.00000
    190      -7.8564      1.00000
    191      -7.8560      1.00000
    192      -7.8559      1.00000
    193      -7.8053      1.00000
    194      -7.8033      1.00000
    195      -7.8022      1.00000
    196      -7.8002      1.00000
    197      -7.6587      1.00000
    198      -7.6559      1.00000
    199      -7.6325      1.00000
    200      -7.6301      1.00000
    201      -7.6095      1.00000
    202      -7.6092      1.00000
    203      -7.6087      1.00000
    204      -7.6076      1.00000
    205      -7.6069      1.00000
    206      -7.6065      1.00000
    207      -7.6045      1.00000
    208      -7.6021      1.00000
    209      -7.5963      1.00000
    210      -7.5961      1.00000
    211      -7.5943      1.00000
    212      -7.5942      1.00000
    213      -7.5778      1.00000
    214      -7.5774      1.00000
    215      -7.5771      1.00000
    216      -7.5770      1.00000
    217      -7.5759      1.00000
    218      -7.5755      1.00000
    219      -7.5678      1.00000
    220      -7.5677      1.00000
    221      -7.5589      1.00000
    222      -7.5586      1.00000
    223      -7.5585      1.00000
    224      -7.5575      1.00000
    225      -7.5568      1.00000
    226      -7.5567      1.00000
    227      -7.5558      1.00000
    228      -7.5557      1.00000
    229      -7.5549      1.00000
    230      -7.5547      1.00000
    231      -7.5536      1.00000
    232      -7.5524      1.00000
    233      -7.5489      1.00000
    234      -7.5486      1.00000
    235      -7.5476      1.00000
    236      -7.5475      1.00000
    237      -7.5474      1.00000
    238      -7.5464      1.00000
    239      -7.5447      1.00000
    240      -7.5446      1.00000
    241      -7.5431      1.00000
    242      -7.5428      1.00000
    243      -7.5391      1.00000
    244      -7.5385      1.00000
    245      -7.5378      1.00000
    246      -7.5366      1.00000
    247      -7.5318      1.00000
    248      -7.5311      1.00000
    249      -7.5310      1.00000
    250      -7.5310      1.00000
    251      -7.5290      1.00000
    252      -7.5288      1.00000
    253      -7.5277      1.00000
    254      -7.5276      1.00000
    255      -7.5263      1.00000
    256      -7.5262      1.00000
    257      -7.5114      1.00000
    258      -7.5112      1.00000
    259      -7.5108      1.00000
    260      -7.5106      1.00000
    261      -7.4930      1.00000
    262      -7.4929      1.00000
    263      -7.4922      1.00000
    264      -7.4917      1.00000
    265      -7.4900      1.00000
    266      -7.4883      1.00000
    267      -7.4870      1.00000
    268      -7.4869      1.00000
    269      -7.4863      1.00000
    270      -7.4861      1.00000
    271      -7.4835      1.00000
    272      -7.4818      1.00000
    273      -7.4712      1.00000
    274      -7.4708      1.00000
    275      -7.4705      1.00000
    276      -7.4697      1.00000
    277      -7.4694      1.00000
    278      -7.4690      1.00000
    279      -7.4686      1.00000
    280      -7.4682      1.00000
    281      -7.4681      1.00000
    282      -7.4678      1.00000
    283      -7.4652      1.00000
    284      -7.4652      1.00000
    285      -7.4648      1.00000
    286      -7.4648      1.00000
    287      -7.4631      1.00000
    288      -7.4629      1.00000
    289      -7.4626      1.00000
    290      -7.4625      1.00000
    291      -7.4615      1.00000
    292      -7.4599      1.00000
    293      -7.4559      1.00000
    294      -7.4557      1.00000
    295      -7.4551      1.00000
    296      -7.4545      1.00000
    297      -7.4520      1.00000
    298      -7.4496      1.00000
    299      -7.4472      1.00000
    300      -7.4471      1.00000
    301      -7.4457      1.00000
    302      -7.4456      1.00000
    303      -7.4432      1.00000
    304      -7.4432      1.00000
    305      -7.4397      1.00000
    306      -7.4395      1.00000
    307      -7.4395      1.00000
    308      -7.4391      1.00000
    309      -7.4358      1.00000
    310      -7.4355      1.00000
    311      -7.4327      1.00000
    312      -7.4324      1.00000
    313      -7.4322      1.00000
    314      -7.4320      1.00000
    315      -7.4307      1.00000
    316      -7.4299      1.00000
    317      -7.4297      1.00000
    318      -7.4294      1.00000
    319      -7.4294      1.00000
    320      -7.4289      1.00000
    321      -7.4245      1.00000
    322      -7.4239      1.00000
    323      -7.4222      1.00000
    324      -7.4205      1.00000
    325      -7.4145      1.00000
    326      -7.4139      1.00000
    327      -7.4125      1.00000
    328      -7.4116      1.00000
    329      -7.4107      1.00000
    330      -7.4097      1.00000
    331      -7.4096      1.00000
    332      -7.4083      1.00000
    333      -7.4036      1.00000
    334      -7.4017      1.00000
    335      -7.3983      1.00000
    336      -7.3950      1.00000
    337      -7.3061      1.00000
    338      -7.3019      1.00000
    339      -7.3013      1.00000
    340      -7.2968      1.00000
    341      -7.1401      1.00000
    342      -7.1364      1.00000
    343      -7.1221      1.00000
    344      -7.1137      1.00000
    345      -7.0992      1.00000
    346      -7.0991      1.00000
    347      -7.0916      1.00000
    348      -7.0915      1.00000
    349      -7.0748      1.00000
    350      -7.0735      1.00000
    351      -7.0727      1.00000
    352      -7.0714      1.00000
    353      -7.0689      1.00000
    354      -7.0687      1.00000
    355      -7.0682      1.00000
    356      -7.0673      1.00000
    357      -7.0671      1.00000
    358      -7.0663      1.00000
    359      -7.0639      1.00000
    360      -7.0637      1.00000
    361      -7.0631      1.00000
    362      -7.0620      1.00000
    363      -7.0602      1.00000
    364      -7.0568      1.00000
    365      -7.0350      1.00000
    366      -7.0331      1.00000
    367      -7.0303      1.00000
    368      -7.0287      1.00000
    369      -6.9734      1.00000
    370      -6.9729      1.00000
    371      -6.9617      1.00000
    372      -6.9615      1.00000
    373      -6.9588      1.00000
    374      -6.9585      1.00000
    375      -6.9568      1.00000
    376      -6.9551      1.00000
    377      -6.9490      1.00000
    378      -6.9486      1.00000
    379      -6.9477      1.00000
    380      -6.9447      1.00000
    381      -6.9432      1.00000
    382      -6.9418      1.00000
    383      -6.9392      1.00000
    384      -6.9349      1.00000
    385      -6.9341      1.00000
    386      -6.9323      1.00000
    387      -6.9294      1.00000
    388      -6.9285      1.00000
    389      -6.7205      1.00000
    390      -6.7115      1.00000
    391      -6.6843      1.00000
    392      -6.6800      1.00000
    393      -6.6703      1.00000
    394      -6.6692      1.00000
    395      -3.1507      1.00000
    396      -3.1353      1.00000
    397      -2.6243      1.00000
    398      -2.6217      1.00000
    399      -2.6207      1.00000
    400      -2.6199      1.00000
    401      -2.6174      1.00000
    402      -2.6171      1.00000
    403      -2.6166      1.00000
    404      -2.6159      1.00000
    405      -2.6150      1.00000
    406      -2.6140      1.00000
    407      -2.6114      1.00000
    408      -2.6101      1.00000
    409      -2.6001      1.00000
    410      -2.5969      1.00000
    411      -2.5968      1.00000
    412      -2.5931      1.00000
    413      -2.5911      1.00000
    414      -2.5882      1.00000
    415      -2.5576      1.00000
    416      -2.5575      1.00000
    417      -2.5571      1.00000
    418      -2.5563      1.00000
    419      -2.5091      1.00000
    420      -2.5057      1.00000
    421      -2.4800      1.00000
    422      -2.4797      1.00000
    423      -2.4794      1.00000
    424      -2.4784      1.00000
    425      -2.4712      1.00000
    426      -2.4672      1.00000
    427      -2.4657      1.00000
    428      -2.4640      1.00000
    429      -2.4602      1.00000
    430      -2.4594      1.00000
    431      -2.4487      1.00000
    432      -2.4440      1.00000
    433      -2.4326      1.00000
    434      -2.4294      1.00000
    435      -2.4276      1.00000
    436      -2.4269      1.00000
    437      -2.4249      1.00000
    438      -2.4232      1.00000
    439      -2.4167      1.00000
    440      -2.4132      1.00000
    441      -2.4121      1.00000
    442      -2.4097      1.00000
    443      -1.3851      1.00000
    444      -1.3798      1.00000
    445      -1.0988      1.00000
    446      -1.0978      1.00000
    447      -1.0926      1.00000
    448      -1.0913      1.00000
    449      -1.0911      1.00000
    450      -1.0904      1.00000
    451      -1.0850      1.00000
    452      -1.0845      1.00000
    453      -1.0438      1.00000
    454      -1.0430      1.00000
    455      -1.0396      1.00000
    456      -1.0394      1.00000
    457      -1.0392      1.00000
    458      -1.0390      1.00000
    459      -0.7574      1.00000
    460      -0.7478      1.00000
    461      -0.6005      1.00000
    462      -0.5965      1.00000
    463      -0.5754      1.00000
    464      -0.5720      1.00000
    465      -0.5695      1.00000
    466      -0.5663      1.00000
    467      -0.5458      1.00000
    468      -0.5456      1.00000
    469      -0.5440      1.00000
    470      -0.5435      1.00000
    471      -0.5254      1.00000
    472      -0.5242      1.00000
    473      -0.5171      1.00000
    474      -0.5169      1.00000
    475      -0.5146      1.00000
    476      -0.5143      1.00000
    477      -0.5079      1.00000
    478      -0.5049      1.00000
    479      -0.4957      1.00000
    480      -0.4938      1.00000
    481      -0.4912      1.00000
    482      -0.4891      1.00000
    483      -0.3800      1.00000
    484      -0.3764      1.00000
    485      -0.3471      1.00000
    486      -0.3426      1.00000
    487      -0.3299      1.00000
    488      -0.3295      1.00000
    489      -0.3286      1.00000
    490      -0.3282      1.00000
    491      -0.3016      1.00000
    492      -0.3009      1.00000
    493      -0.2986      1.00000
    494      -0.2979      1.00000
    495      -0.2891      1.00000
    496      -0.2858      1.00000
    497      -0.2849      1.00000
    498      -0.2834      1.00000
    499      -0.2811      1.00000
    500      -0.2787      1.00000
    501      -0.2714      1.00000
    502      -0.2672      1.00000
    503      -0.2647      1.00000
    504      -0.2633      1.00000
    505      -0.2608      1.00000
    506      -0.2599      1.00000
    507       0.2849      1.00000
    508       0.2852      1.00000
    509       0.2977      1.00000
    510       0.3094      1.00000
    511       0.3159      1.00000
    512       0.3187      1.00000
    513       0.3322      1.00000
    514       0.3340      1.00000
    515       0.3352      1.00000
    516       0.3515      1.00000
    517       0.3519      1.00000
    518       0.3548      1.00000
    519       0.3561      1.00000
    520       0.3635      1.00000
    521       0.3654      1.00000
    522       0.3714      1.00000
    523       0.3732      1.00000
    524       0.3739      1.00000
    525       0.3896      1.00000
    526       0.3910      1.00000
    527       0.3940      1.00000
    528       0.3970      1.00000
    529       0.3986      1.00000
    530       0.4015      1.00000
    531       0.4044      1.00000
    532       0.4062      1.00000
    533       0.4088      1.00000
    534       0.4096      1.00000
    535       0.4147      1.00000
    536       0.4150      1.00000
    537       0.4166      1.00000
    538       0.4189      1.00000
    539       0.4202      1.00000
    540       0.4227      1.00000
    541       0.4283      1.00000
    542       0.4299      1.00000
    543       0.4301      1.00000
    544       0.4326      1.00000
    545       0.4381      1.00000
    546       0.4399      1.00000
    547       0.4416      1.00000
    548       0.4445      1.00000
    549       0.4581      1.00000
    550       0.4638      1.00000
    551       0.4679      1.00000
    552       0.4809      1.00000
    553       0.4900      1.00000
    554       0.4959      1.00000
    555       1.0601      1.00000
    556       1.0704      1.00000
    557       1.0747      1.00000
    558       1.0750      1.00000
    559       1.0842      1.00000
    560       1.0863      1.00000
    561       1.0894      1.00000
    562       1.0976      1.00000
    563       1.1002      1.00000
    564       1.1041      1.00000
    565       1.1113      1.00000
    566       1.1181      1.00000
    567       1.1192      1.00000
    568       1.1261      1.00000
    569       1.1321      1.00000
    570       1.1414      1.00000
    571       1.5826      1.00000
    572       1.5956      1.00000
    573       1.6013      1.00000
    574       1.6015      1.00000
    575       1.6175      1.00000
    576       1.6192      1.00000
    577       1.6203      1.00000
    578       1.6300      1.00000
    579       1.6363      1.00000
    580       1.6390      1.00000
    581       1.6459      1.00000
    582       1.6463      1.00000
    583       1.6472      1.00000
    584       1.6550      1.00000
    585       1.6663      1.00000
    586       1.6727      1.00000
    587       2.9108      1.00000
    588       2.9912      1.00000
    589       4.2926      0.00000
    590       4.2956      0.00000
    591       4.2982      0.00000
    592       4.4092      0.00000
    593       4.4708      0.00000
    594       4.4708      0.00000
    595       4.4709      0.00000
    596       4.6081      0.00000
    597       4.2718      0.00000
    598       4.2751      0.00000
    599       4.2779      0.00000
    600       4.3886      0.00000
    601       4.4477      0.00000
    602       4.4478      0.00000
    603       4.4483      0.00000
    604       4.5923      0.00000
    605       5.1195      0.00000
    606       5.1265      0.00000
    607       5.1332      0.00000
    608       5.3680      0.00000
    609       5.3801      0.00000
    610       5.3715      0.00000
    611       5.3915      0.00000
    612       5.4074      0.00000
    613       5.4102      0.00000
    614       5.4184      0.00000
    615       5.4237      0.00000
    616       5.4370      0.00000
    617       5.4334      0.00000
    618       5.4334      0.00000
    619       5.4370      0.00000
    620       5.4467      0.00000
    621       5.4464      0.00000
    622       5.4530      0.00000
    623       5.3729      0.00000
    624       5.4067      0.00000
    625       5.4613      0.00000
    626       5.4554      0.00000
    627       5.4924      0.00000
    628       5.3157      0.00000
    629       5.2003      0.00000
    630       5.1540      0.00000
    631       5.3713      0.00000
    632       5.3694      0.00000
    633       5.3711      0.00000
    634       5.3745      0.00000
    635       5.3947      0.00000
    636       5.4017      0.00000
    637       5.4016      0.00000
    638       5.4132      0.00000
    639       5.4225      0.00000
    640       5.4301      0.00000
    641       5.4316      0.00000
    642       5.4313      0.00000
    643       5.4228      0.00000
    644       5.4293      0.00000
    645       5.4416      0.00000
    646       5.4422      0.00000
    647       5.4596      0.00000
    648       5.4703      0.00000
    649       5.4740      0.00000
    650       5.4774      0.00000
    651       6.2262      0.00000
    652       6.2684      0.00000
    653       6.7126      0.00000
    654       6.7464      0.00000
    655       6.7933      0.00000
    656       6.9137      0.00000
    657       6.9354      0.00000
    658       6.9570      0.00000
    659       6.9615      0.00000
    660       6.9696      0.00000
    661       6.9612      0.00000
    662       6.9953      0.00000
    663       6.9890      0.00000
    664       6.9886      0.00000
    665       7.0034      0.00000
    666       7.0082      0.00000
    667       7.0080      0.00000
    668       7.0175      0.00000
    669       7.0049      0.00000
    670       7.0576      0.00000
    671       7.0562      0.00000
    672       7.0910      0.00000
    673       7.0916      0.00000
    674       7.0063      0.00000
    675       7.1399      0.00000
    676       6.9353      0.00000
    677       6.8886      0.00000
    678       6.9535      0.00000
    679       6.9528      0.00000
    680       6.9778      0.00000
    681       6.9861      0.00000
    682       6.9997      0.00000
    683       7.0147      0.00000
    684       7.0101      0.00000
    685       7.0564      0.00000
    686       7.0716      0.00000
    687       7.0596      0.00000
    688       7.0759      0.00000
    689       7.0788      0.00000
    690       7.1497      0.00000
    691       7.0909      0.00000
    692       7.1038      0.00000
    693       7.3582      0.00000
    694       7.1079      0.00000
    695       7.1285      0.00000
    696       7.1714      0.00000
    697       7.3370      0.00000
    698       7.1830      0.00000
    699       7.1789      0.00000
    700       7.2519      0.00000
    701       7.5325      0.00000
    702       7.6750      0.00000
    703       7.7003      0.00000
    704       7.7065      0.00000
    705       7.6259      0.00000
    706       7.7911      0.00000
    707       7.6425      0.00000
    708       7.6373      0.00000
    709       7.7068      0.00000
    710       7.6806      0.00000
    711       7.6771      0.00000
    712       7.7056      0.00000
    713       7.7586      0.00000
    714       7.8387      0.00000
    715       7.8038      0.00000
    716       7.7986      0.00000
    717       7.7371      0.00000
    718       7.8337      0.00000
    719       7.9079      0.00000
    720       7.8431      0.00000
    721       7.9358      0.00000
    722       7.4832      0.00000
    723       7.8674      0.00000
    724       7.5474      0.00000
    725       7.5722      0.00000
    726       7.6582      0.00000
    727       7.7517      0.00000
    728       7.7533      0.00000
    729       7.6609      0.00000
    730       7.8078      0.00000
    731       7.6873      0.00000
    732       7.7237      0.00000
    733       7.7846      0.00000
    734       7.7575      0.00000
    735       7.8222      0.00000
    736       7.8008      0.00000
    737       7.7733      0.00000
    738       7.7521      0.00000
    739       7.8468      0.00000
    740       7.9058      0.00000
    741       7.8924      0.00000
    742       7.8930      0.00000
    743       7.9307      0.00000
    744       7.9407      0.00000
    745       8.0877      0.00000
    746       8.1487      0.00000
    747       8.1396      0.00000
    748       8.1229      0.00000
    749       7.8674      0.00000
    750       8.5283      0.00000
    751       8.6124      0.00000
    752       8.6010      0.00000
    753       8.6175      0.00000
    754       8.6229      0.00000
    755       8.6327      0.00000
    756       8.6381      0.00000
    757       8.6501      0.00000
    758       8.6575      0.00000
    759       8.6575      0.00000
    760       8.6155      0.00000
    761       8.6241      0.00000
    762       8.6420      0.00000
    763       8.6752      0.00000
    764       8.6706      0.00000
    765       8.6925      0.00000
    766       8.7069      0.00000
    767       8.6938      0.00000
    768       8.7091      0.00000
    769       8.6936      0.00000
    770       8.7323      0.00000
    771       8.6014      0.00000
    772       8.6168      0.00000
    773       8.5957      0.00000
    774       9.0133      0.00000
    775       9.0139      0.00000
    776       9.0103      0.00000
    777       8.9304      0.00000
    778       9.0416      0.00000
    779       9.1389      0.00000
    780       9.2010      0.00000
    781       9.2275      0.00000
    782       9.2206      0.00000
    783       9.2621      0.00000
    784       9.2560      0.00000
    785       9.2662      0.00000
    786       9.2811      0.00000
    787       9.3278      0.00000
    788       9.3393      0.00000
    789       9.3482      0.00000
    790       9.3708      0.00000
    791       9.3733      0.00000
    792       9.3920      0.00000


--------------------------------------------------------------------------------------------------------


 soft charge-density along one line, spin component           1
         0         1         2         3         4         5         6         7         8         9
 total charge-density along one line

 soft charge-density along one line, spin component           2
         0         1         2         3         4         5         6         7         8         9
 total charge-density along one line

 soft charge-density along one line, spin component           3
         0         1         2         3         4         5         6         7         8         9
 total charge-density along one line

 soft charge-density along one line, spin component           4
         0         1         2         3         4         5         6         7         8         9
 total charge-density along one line

 pseudopotential strength for first ion, spin component:           1
-16.461  -0.000  -0.000  -0.000   0.002   0.000  -0.000   0.000  -0.000   0.277 -16.569   0.000  -0.000  -0.000   0.002   0.000
 -0.000   0.000 -16.462  -0.000  -0.001  -0.000  -0.000   0.139   0.002   0.000  -0.000   0.000 -16.569   0.000  -0.001  -0.000
  0.002  -0.000  -0.001   0.000 -16.465   0.000   0.001   0.000  -0.000   0.000   0.002  -0.000  -0.001   0.000 -16.572   0.000
 -0.000  -0.000  -0.000  -0.139   0.001  -0.000 -16.461   0.000   0.002  -0.000  -0.000  -0.000  -0.000  -0.133   0.001  -0.000
 -0.000  -0.277   0.002  -0.000  -0.000  -0.000   0.002   0.000 -16.465  -0.000  -0.000  -0.266   0.002  -0.000  -0.000  -0.000
-16.569  -0.000  -0.000  -0.000   0.002   0.000  -0.000   0.000  -0.000   0.266 -16.653  -0.000  -0.000  -0.000   0.002   0.000
 -0.000   0.000 -16.569  -0.000  -0.001  -0.000  -0.000   0.133   0.002   0.000  -0.000   0.000 -16.653  -0.000  -0.001   0.000
  0.002  -0.000  -0.001   0.000 -16.572   0.000   0.001   0.000  -0.000   0.000   0.002  -0.000  -0.001  -0.000 -16.656   0.000
 -0.000  -0.000  -0.000  -0.133   0.001  -0.000 -16.569   0.000   0.002  -0.000  -0.000  -0.000  -0.000  -0.128   0.001  -0.000
 -0.000  -0.266   0.002  -0.000  -0.000  -0.000   0.002   0.000 -16.572  -0.000  -0.000  -0.255   0.002  -0.000  -0.000  -0.000
 -0.002   0.000  -0.002   0.000   0.000   0.000   0.002   0.000  -0.000   0.000  -0.002   0.000  -0.002   0.000   0.000   0.000
 -0.004   0.000  -0.004   0.000   0.000   0.000   0.004   0.000  -0.000   0.000  -0.003   0.000  -0.003   0.000   0.000   0.000
 -0.000  -0.000  -0.000  -0.000  -0.000  -0.000   0.001   0.000  -0.000   0.000  -0.000  -0.000  -0.000  -0.000  -0.000  -0.000
  0.001  -0.000   0.000  -0.000  -0.001   0.000  -0.000  -0.000  -0.000   0.000   0.001  -0.000   0.000  -0.000  -0.001   0.000
  0.000  -0.000   0.001  -0.000   0.000   0.000  -0.000   0.000  -0.000  -0.000   0.000  -0.000   0.001  -0.000   0.000   0.000
 -0.000  -0.000  -0.000  -0.000  -0.000  -0.000  -0.000   0.000  -0.000   0.000  -0.000  -0.000  -0.000  -0.000  -0.000  -0.000
 -0.000  -0.000   0.000  -0.000  -0.001   0.000  -0.000  -0.000  -0.000   0.000  -0.000  -0.000   0.000  -0.000  -0.000   0.000
  0.000   0.000  -0.000  -0.000   0.000   0.000  -0.000   0.000  -0.000  -0.000   0.000   0.000  -0.000  -0.000   0.000   0.000
 pseudopotential strength for first ion, spin component:           2
 -0.003   0.003   0.139   0.000  -0.000  -0.000   0.000  -0.139  -0.000  -0.000  -0.003   0.003   0.133   0.000  -0.000  -0.000
 -0.139   0.000  -0.003   0.003  -0.000  -0.240   0.000  -0.000   0.000  -0.139  -0.133   0.000  -0.003   0.003  -0.000  -0.230
  0.000   0.000   0.000   0.240  -0.003   0.003  -0.240  -0.000  -0.000   0.000   0.000   0.000   0.000   0.230  -0.003   0.003
  0.000   0.139   0.000  -0.000   0.240   0.000  -0.003   0.003  -0.139  -0.000   0.000   0.133   0.000  -0.000   0.230   0.000
 -0.000  -0.000  -0.000   0.139   0.000  -0.000   0.139  -0.000  -0.003   0.003  -0.000  -0.000  -0.000   0.133   0.000  -0.000
 -0.003   0.003   0.133   0.000  -0.000  -0.000   0.000  -0.133  -0.000  -0.000  -0.003   0.003   0.128   0.000  -0.000  -0.000
 -0.133   0.000  -0.003   0.003  -0.000  -0.230   0.000  -0.000   0.000  -0.133  -0.128   0.000  -0.003   0.003  -0.000  -0.221
  0.000   0.000   0.000   0.230  -0.003   0.003  -0.230  -0.000  -0.000   0.000   0.000   0.000   0.000   0.221  -0.003   0.003
  0.000   0.133   0.000  -0.000   0.230   0.000  -0.003   0.003  -0.133   0.000   0.000   0.128   0.000  -0.000   0.221   0.000
 -0.000  -0.000  -0.000   0.133   0.000  -0.000   0.133  -0.000  -0.003   0.003  -0.000  -0.000  -0.000   0.128   0.000  -0.000
  0.000  -0.000   0.000  -0.000  -0.000  -0.000  -0.000   0.000   0.000  -0.000   0.000  -0.000   0.000  -0.000  -0.000  -0.000
  0.000  -0.000   0.000  -0.000  -0.000  -0.000  -0.000   0.000   0.000  -0.000   0.000  -0.000   0.000  -0.000  -0.000  -0.000
 -0.000   0.000  -0.000   0.000  -0.000  -0.000   0.000  -0.000   0.000  -0.000  -0.000   0.000  -0.000   0.000  -0.000  -0.000
  0.000  -0.000   0.000  -0.000   0.000  -0.000  -0.000  -0.000   0.000  -0.000   0.000  -0.000   0.000  -0.000   0.000  -0.000
 -0.000   0.000   0.000  -0.000  -0.000  -0.000  -0.000   0.000   0.000  -0.000  -0.000   0.000   0.000  -0.000  -0.000  -0.000
 -0.000   0.000  -0.000   0.000  -0.000  -0.000   0.000  -0.000   0.000  -0.000  -0.000   0.000  -0.000   0.000  -0.000  -0.000
  0.000  -0.000   0.000  -0.000   0.000  -0.000  -0.000  -0.000   0.000  -0.000   0.000  -0.000   0.000  -0.000   0.000  -0.000
 -0.000   0.000   0.000  -0.000  -0.000  -0.000  -0.000   0.000   0.000  -0.000  -0.000   0.000   0.000  -0.000  -0.000  -0.000
 pseudopotential strength for first ion, spin component:           3
 -0.003  -0.003  -0.139  -0.000   0.000  -0.000   0.000  -0.139  -0.000   0.000  -0.003  -0.003  -0.133  -0.000   0.000  -0.000
  0.139  -0.000  -0.003  -0.003   0.000  -0.240   0.000   0.000  -0.000  -0.139   0.133  -0.000  -0.003  -0.003   0.000  -0.230
 -0.000   0.000  -0.000   0.240  -0.003  -0.003   0.240  -0.000   0.000   0.000  -0.000   0.000  -0.000   0.230  -0.003  -0.003
  0.000   0.139   0.000   0.000  -0.240   0.000  -0.003  -0.003   0.139   0.000   0.000   0.133   0.000   0.000  -0.230   0.000
 -0.000   0.000   0.000   0.139  -0.000  -0.000  -0.139   0.000  -0.003  -0.003  -0.000   0.000   0.000   0.133  -0.000  -0.000
 -0.003  -0.003  -0.133  -0.000   0.000  -0.000   0.000  -0.133  -0.000   0.000  -0.003  -0.003  -0.128  -0.000   0.000  -0.000
  0.133  -0.000  -0.003  -0.003   0.000  -0.230   0.000   0.000  -0.000  -0.133   0.128  -0.000  -0.003  -0.003   0.000  -0.221
 -0.000   0.000  -0.000   0.230  -0.003  -0.003   0.230  -0.000   0.000   0.000  -0.000   0.000  -0.000   0.221  -0.003  -0.003
  0.000   0.133   0.000   0.000  -0.230   0.000  -0.003  -0.003   0.133   0.000   0.000   0.128   0.000   0.000  -0.221   0.000
 -0.000   0.000   0.000   0.133  -0.000  -0.000  -0.133  -0.000  -0.003  -0.003  -0.000   0.000   0.000   0.128  -0.000  -0.000
  0.000   0.000  -0.000   0.000   0.000  -0.000  -0.000  -0.000  -0.000  -0.000   0.000   0.000  -0.000   0.000   0.000  -0.000
  0.000   0.000  -0.000   0.000   0.000  -0.000  -0.000  -0.000  -0.000  -0.000   0.000   0.000  -0.000   0.000   0.000  -0.000
 -0.000   0.000  -0.000  -0.000   0.000   0.000   0.000   0.000   0.000   0.000  -0.000   0.000  -0.000  -0.000   0.000   0.000
  0.000   0.000  -0.000   0.000   0.000   0.000  -0.000  -0.000   0.000   0.000   0.000   0.000  -0.000   0.000   0.000   0.000
  0.000   0.000   0.000   0.000  -0.000  -0.000  -0.000   0.000  -0.000  -0.000   0.000   0.000   0.000   0.000  -0.000  -0.000
 -0.000   0.000  -0.000  -0.000   0.000   0.000   0.000   0.000   0.000   0.000  -0.000   0.000  -0.000  -0.000   0.000   0.000
  0.000   0.000  -0.000   0.000   0.000   0.000  -0.000  -0.000   0.000   0.000   0.000   0.000  -0.000   0.000   0.000   0.000
  0.000   0.000   0.000   0.000  -0.000  -0.000  -0.000   0.000  -0.000  -0.000   0.000   0.000   0.000   0.000  -0.000  -0.000
 pseudopotential strength for first ion, spin component:           4
-16.456  -0.000   0.000  -0.000   0.002   0.000  -0.000  -0.000   0.000  -0.277 -16.563   0.000   0.000  -0.000   0.002   0.000
  0.000   0.000 -16.456  -0.000  -0.001   0.000  -0.000  -0.139   0.002  -0.000   0.000   0.000 -16.563  -0.000  -0.001   0.000
  0.002  -0.000  -0.001  -0.000 -16.459   0.000   0.001  -0.000  -0.000  -0.000   0.002  -0.000  -0.001  -0.000 -16.566  -0.000
 -0.000   0.000  -0.000   0.139   0.001   0.000 -16.456   0.000   0.001   0.000  -0.000   0.000  -0.000   0.133   0.001   0.000
  0.000   0.277   0.002   0.000  -0.000   0.000   0.001  -0.000 -16.459  -0.000   0.000   0.266   0.002   0.000  -0.000   0.000
-16.563  -0.000   0.000  -0.000   0.002   0.000  -0.000  -0.000   0.000  -0.266 -16.648  -0.000   0.000  -0.000   0.002   0.000
  0.000   0.000 -16.563   0.000  -0.001   0.000  -0.000  -0.133   0.002  -0.000   0.000   0.000 -16.648  -0.000  -0.001   0.000
  0.002  -0.000  -0.001  -0.000 -16.566   0.000   0.001  -0.000  -0.000  -0.000   0.002  -0.000  -0.001  -0.000 -16.651   0.000
 -0.000   0.000  -0.000   0.133   0.001   0.000 -16.563  -0.000   0.001   0.000  -0.000   0.000  -0.000   0.128   0.001   0.000
  0.000   0.266   0.002   0.000  -0.000   0.000   0.001  -0.000 -16.567  -0.000   0.000   0.255   0.002   0.000  -0.000   0.000
 -0.002   0.000  -0.002  -0.000  -0.000   0.000   0.002  -0.000   0.000  -0.000  -0.002   0.000  -0.002  -0.000  -0.000   0.000
 -0.004   0.000  -0.004  -0.000  -0.000   0.000   0.004  -0.000   0.000  -0.000  -0.003   0.000  -0.003  -0.000  -0.000   0.000
 -0.000  -0.000  -0.000   0.000  -0.000  -0.000   0.000  -0.000  -0.000   0.000  -0.000  -0.000  -0.000   0.000  -0.000  -0.000
  0.000   0.000   0.000   0.000  -0.001   0.000  -0.000   0.000   0.000  -0.000   0.000   0.000   0.000   0.000  -0.001   0.000
  0.000  -0.000   0.000   0.000   0.000   0.000  -0.000  -0.000  -0.000  -0.000   0.000  -0.000   0.000   0.000   0.000   0.000
 -0.000  -0.000  -0.000   0.000  -0.000  -0.000  -0.000  -0.000  -0.000   0.000  -0.000  -0.000  -0.000   0.000  -0.000  -0.000
 -0.000   0.000   0.000   0.000  -0.001   0.000  -0.000   0.000   0.000  -0.000  -0.000   0.000   0.000   0.000  -0.000   0.000
  0.000  -0.000  -0.000   0.000   0.000   0.000  -0.000  -0.000  -0.000  -0.000   0.000  -0.000  -0.000   0.000   0.000   0.000
 total augmentation occupancy for first ion, spin component:           1
  4.730   0.245   0.053  -0.246   0.000  -2.406  -0.270  -0.065   0.270  -0.000   0.436  -0.150   0.022   0.473  -0.021  -0.010
  0.245   4.730  -0.026  -0.246   0.046  -0.270  -2.406   0.033   0.271  -0.057   0.436  -0.150   0.022  -0.021   0.473  -0.010
  0.053  -0.026   3.076   0.025  -0.000  -0.065   0.032  -0.806  -0.032   0.000  -0.000  -0.000   0.007   0.013  -0.007  -0.005
 -0.246  -0.246   0.025   4.729   0.044   0.270   0.271  -0.032  -2.406  -0.055  -0.437   0.150   0.473   0.022   0.022  -0.101
  0.000   0.046  -0.000   0.044   3.076  -0.000  -0.056   0.000  -0.055  -0.806  -0.000   0.000   0.011  -0.000   0.011  -0.008
 -2.406  -0.270  -0.065   0.270  -0.000   2.091   0.293   0.077  -0.293   0.000  -0.440   0.162  -0.016  -0.443   0.016   0.004
 -0.270  -2.406   0.032   0.271  -0.056   0.293   2.091  -0.038  -0.293   0.066  -0.440   0.162  -0.016   0.016  -0.443   0.004
 -0.065   0.033  -0.806  -0.032   0.000   0.077  -0.038   0.542   0.038   0.000   0.000   0.000  -0.004  -0.007   0.004   0.001
  0.270   0.271  -0.032  -2.406  -0.055  -0.293  -0.293   0.038   2.091   0.067   0.440  -0.162  -0.442  -0.016  -0.016   0.101
 -0.000  -0.057   0.000  -0.055  -0.806   0.000   0.066   0.000   0.067   0.542   0.000  -0.000  -0.006  -0.000  -0.006   0.003
  0.436   0.436  -0.000  -0.437  -0.000  -0.440  -0.440   0.000   0.440   0.000   4.950  -1.839   0.003  -0.003  -0.003  -0.005
 -0.150  -0.150  -0.000   0.150   0.000   0.162   0.162   0.000  -0.162  -0.000  -1.839   0.703  -0.006   0.006   0.006   0.003
  0.022   0.022   0.007   0.473   0.011  -0.016  -0.016  -0.004  -0.442  -0.006   0.003  -0.006   0.220  -0.028  -0.028  -0.051
  0.473  -0.021   0.013   0.022  -0.000  -0.443   0.016  -0.007  -0.016  -0.000  -0.003   0.006  -0.028   0.220   0.028   0.007
 -0.021   0.473  -0.007   0.022   0.011   0.016  -0.443   0.004  -0.016  -0.006  -0.003   0.006  -0.028   0.028   0.220   0.007
 -0.010  -0.010  -0.005  -0.101  -0.008   0.004   0.004   0.001   0.101   0.003  -0.005   0.003  -0.051   0.007   0.007   0.013
 -0.101   0.010  -0.009  -0.010   0.000   0.101  -0.004   0.003   0.004  -0.000   0.004  -0.003   0.007  -0.051  -0.007  -0.002
  0.010  -0.101   0.005  -0.010  -0.008  -0.004   0.101  -0.001   0.004   0.002   0.005  -0.003   0.007  -0.007  -0.051  -0.002
 total augmentation occupancy for first ion, spin component:           2
  0.068   0.013  -0.001  -0.014   0.002  -0.046  -0.012   0.001   0.012  -0.001   0.001  -0.002   0.000   0.000  -0.001  -0.000
  0.013   0.065   0.001  -0.013  -0.000  -0.012  -0.045  -0.001   0.012   0.000   0.001  -0.002   0.000  -0.000   0.001  -0.000
 -0.001   0.001   0.040  -0.003  -0.001   0.001  -0.001  -0.021   0.002   0.000  -0.001   0.000   0.000  -0.000   0.000  -0.000
 -0.014  -0.013  -0.003   0.070  -0.001   0.012   0.012   0.002  -0.048   0.001  -0.001   0.002   0.001   0.000  -0.000  -0.001
  0.002  -0.000  -0.001  -0.001   0.040  -0.001   0.000   0.000   0.001  -0.021  -0.000   0.000  -0.000  -0.000  -0.000   0.000
 -0.046  -0.012   0.001   0.012  -0.001   0.024   0.010  -0.001  -0.011  -0.001  -0.000   0.001  -0.000  -0.001   0.000   0.000
 -0.012  -0.045  -0.001   0.012   0.000   0.010   0.025   0.001  -0.011  -0.001  -0.000   0.001  -0.000   0.000  -0.001  -0.000
  0.001  -0.001  -0.021   0.002   0.000  -0.001   0.001   0.002  -0.000  -0.000   0.000  -0.000  -0.000   0.000  -0.000   0.000
  0.012   0.012   0.002  -0.048   0.001  -0.011  -0.011  -0.000   0.026  -0.001   0.000  -0.001  -0.001  -0.000   0.000   0.001
 -0.001   0.000   0.000   0.001  -0.021  -0.001  -0.001  -0.000  -0.001   0.002   0.000  -0.000   0.000   0.000   0.000   0.000
  0.001   0.001  -0.001  -0.001  -0.000  -0.000  -0.000   0.000   0.000   0.000  -0.024   0.004  -0.001   0.001   0.001   0.000
 -0.002  -0.002   0.000   0.002   0.000   0.001   0.001  -0.000  -0.001  -0.000   0.004   0.000   0.000  -0.000  -0.000  -0.000
  0.000   0.000   0.000   0.001  -0.000  -0.000  -0.000  -0.000  -0.001   0.000  -0.001   0.000  -0.002  -0.000  -0.000  -0.000
  0.000  -0.000  -0.000   0.000  -0.000  -0.001   0.000   0.000  -0.000   0.000   0.001  -0.000  -0.000  -0.002   0.000   0.000
 -0.001   0.001   0.000  -0.000  -0.000   0.000  -0.001  -0.000   0.000   0.000   0.001  -0.000  -0.000   0.000  -0.002   0.000
 -0.000  -0.000  -0.000  -0.001   0.000   0.000  -0.000   0.000   0.001   0.000   0.000  -0.000  -0.000   0.000   0.000   0.000
 -0.001   0.000   0.000  -0.000   0.000   0.001  -0.000  -0.000   0.000  -0.000  -0.000   0.000   0.000  -0.000   0.000   0.000
  0.000  -0.001   0.000  -0.000   0.000  -0.000   0.001  -0.000   0.000   0.000  -0.000   0.000  -0.000  -0.000  -0.000   0.000
 total augmentation occupancy for first ion, spin component:           3
  0.070   0.013  -0.002  -0.012  -0.003  -0.048  -0.012   0.002   0.011   0.001   0.002  -0.002   0.000   0.001  -0.000  -0.000
  0.013   0.070  -0.001  -0.012  -0.003  -0.012  -0.048   0.000   0.011   0.002   0.002  -0.002   0.000  -0.000   0.001  -0.000
 -0.002  -0.001   0.040  -0.001   0.001   0.001   0.000  -0.021   0.001  -0.000   0.000  -0.000  -0.000  -0.000   0.001   0.000
 -0.012  -0.012  -0.001   0.063  -0.001   0.011   0.011   0.001  -0.043   0.001  -0.001   0.002   0.000   0.000   0.000  -0.001
 -0.003  -0.003   0.001  -0.001   0.041   0.001   0.002  -0.000   0.001  -0.021   0.001  -0.000  -0.001   0.001   0.000   0.000
 -0.048  -0.012   0.001   0.011   0.001   0.026   0.012  -0.001  -0.010  -0.000  -0.001   0.001  -0.000  -0.001   0.000   0.000
 -0.012  -0.048   0.000   0.011   0.002   0.012   0.026   0.001  -0.010  -0.001  -0.001   0.001  -0.000   0.000  -0.001   0.000
  0.002   0.000  -0.021   0.001  -0.000  -0.001   0.001   0.002  -0.000   0.000  -0.000   0.000   0.000   0.000  -0.000  -0.000
  0.011   0.011   0.001  -0.043   0.001  -0.010  -0.010  -0.000   0.023  -0.000  -0.001  -0.001  -0.001  -0.000  -0.000   0.001
  0.001   0.002  -0.000   0.001  -0.021  -0.000  -0.001   0.000  -0.000   0.002  -0.000   0.000   0.000  -0.000  -0.000  -0.000
  0.002   0.002   0.000  -0.001   0.001  -0.001  -0.001  -0.000  -0.001  -0.000  -0.025   0.005  -0.001   0.001   0.001   0.000
 -0.002  -0.002  -0.000   0.002  -0.000   0.001   0.001   0.000  -0.001   0.000   0.005  -0.000   0.000  -0.000  -0.000  -0.000
  0.000   0.000  -0.000   0.000  -0.001  -0.000  -0.000   0.000  -0.001   0.000  -0.001   0.000  -0.001  -0.000  -0.000  -0.000
  0.001  -0.000  -0.000   0.000   0.001  -0.001   0.000   0.000  -0.000  -0.000   0.001  -0.000  -0.000  -0.002   0.000  -0.000
 -0.000   0.001   0.001   0.000   0.000   0.000  -0.001  -0.000  -0.000  -0.000   0.001  -0.000  -0.000   0.000  -0.002  -0.000
 -0.000  -0.000   0.000  -0.001   0.000   0.000   0.000  -0.000   0.001  -0.000   0.000  -0.000  -0.000  -0.000  -0.000   0.000
 -0.001   0.000  -0.000  -0.000  -0.000   0.001  -0.000   0.000   0.000   0.000  -0.000   0.000   0.000  -0.000  -0.000   0.000
  0.000  -0.001  -0.000  -0.000  -0.000  -0.000   0.001   0.000   0.000   0.000  -0.000   0.000   0.000  -0.000  -0.000   0.000
 total augmentation occupancy for first ion, spin component:           4
  0.066   0.013  -0.001  -0.013   0.001  -0.045  -0.012   0.001   0.012  -0.001   0.001  -0.002   0.000   0.001  -0.000  -0.000
  0.013   0.068   0.002  -0.014  -0.000  -0.012  -0.046  -0.001   0.012   0.001   0.001  -0.002   0.000  -0.001   0.000  -0.000
 -0.001   0.002   0.041   0.001  -0.000   0.001  -0.001  -0.021   0.000   0.000  -0.000   0.000  -0.001  -0.000  -0.000   0.000
 -0.013  -0.014   0.001   0.070  -0.003   0.012   0.012   0.000  -0.048   0.002  -0.001   0.002   0.000  -0.000   0.000  -0.001
  0.001  -0.000  -0.000  -0.003   0.039  -0.000   0.000   0.000   0.002  -0.020  -0.000   0.000   0.000  -0.000  -0.001  -0.000
 -0.045  -0.012   0.001   0.012  -0.000   0.025   0.010  -0.001  -0.011   0.000  -0.000   0.001  -0.000  -0.001   0.000  -0.000
 -0.012  -0.046  -0.001   0.012   0.000   0.010   0.024  -0.000  -0.011  -0.001  -0.000   0.001  -0.000   0.000  -0.001   0.000
  0.001  -0.001  -0.021   0.000   0.000  -0.001  -0.000   0.002  -0.001  -0.000   0.000  -0.000   0.000   0.000   0.000  -0.000
  0.012   0.012   0.000  -0.048   0.002  -0.011  -0.011  -0.001   0.026  -0.001   0.000  -0.001  -0.001   0.000  -0.000   0.001
 -0.001   0.001   0.000   0.002  -0.020   0.000  -0.001  -0.000  -0.001   0.002   0.000  -0.000   0.000   0.000   0.000   0.000
  0.001   0.001  -0.000  -0.001  -0.000  -0.000  -0.000   0.000   0.000   0.000  -0.024   0.004  -0.001   0.001   0.001   0.000
 -0.002  -0.002   0.000   0.002   0.000   0.001   0.001  -0.000  -0.001  -0.000   0.004  -0.000   0.000  -0.000  -0.000  -0.000
  0.000   0.000  -0.001   0.000   0.000  -0.000  -0.000   0.000  -0.001   0.000  -0.001   0.000  -0.002  -0.000  -0.000  -0.000
  0.001  -0.001  -0.000  -0.000  -0.000  -0.001   0.000   0.000   0.000   0.000   0.001  -0.000  -0.000  -0.002   0.000   0.000
 -0.000   0.000  -0.000   0.000  -0.001   0.000  -0.001   0.000  -0.000   0.000   0.001  -0.000  -0.000   0.000  -0.002   0.000
 -0.000  -0.000   0.000  -0.001  -0.000  -0.000   0.000  -0.000   0.001   0.000   0.000  -0.000  -0.000   0.000   0.000   0.000
 -0.001   0.000  -0.000  -0.000   0.000   0.001  -0.000   0.000   0.000  -0.000  -0.000   0.000  -0.000  -0.000  -0.000   0.000
  0.000  -0.001   0.000  -0.000   0.000  -0.000   0.001  -0.000   0.000  -0.000  -0.000   0.000   0.000   0.000  -0.000   0.000


------------------------ aborting loop EDIFF was not reached (unconverged)  ----------------------------


 -----------------------------------------------------------------------------
|                                                                             |
|           W    W    AA    RRRRR   N    N  II  N    N   GGGG   !!!           |
|           W    W   A  A   R    R  NN   N  II  NN   N  G    G  !!!           |
|           W    W  A    A  R    R  N N  N  II  N N  N  G       !!!           |
|           W WW W  AAAAAA  RRRRR   N  N N  II  N  N N  G  GGG   !            |
|           WW  WW  A    A  R   R   N   NN  II  N   NN  G    G                |
|           W    W  A    A  R    R  N    N  II  N    N   GGGG   !!!           |
|                                                                             |
|     The electronic self-consistency was not achieved in the given           |
|     number of steps (NELM). The forces and other quantities evaluated       |
|     might not be reliable so examine the results carefully. If you find     |
|     spurious results, we suggest increasing NELM, if you were close to      |
|     convergence or switching to a different ALGO or adjusting the           |
|     density mixing parameters otherwise.                                    |
|                                                                             |
 -----------------------------------------------------------------------------




 total charge

# of ion       s       p       d       tot
------------------------------------------
    1        0.407   0.283   9.585  10.274
    2        0.417   0.295   9.583  10.295
    3        0.417   0.295   9.583  10.295
    4        0.415   0.296   9.584  10.295
    5        0.417   0.295   9.583  10.295
    6        0.415   0.296   9.584  10.295
    7        0.415   0.296   9.584  10.295
    8        0.414   0.293   9.584  10.290
    9        0.417   0.295   9.583  10.295
   10        0.407   0.283   9.585  10.274
   11        0.415   0.296   9.584  10.295
   12        0.417   0.295   9.583  10.295
   13        0.415   0.296   9.584  10.295
   14        0.417   0.295   9.583  10.295
   15        0.414   0.293   9.584  10.290
   16        0.415   0.296   9.584  10.295
   17        0.415   0.296   9.584  10.295
   18        0.417   0.295   9.583  10.295
   19        0.414   0.293   9.584  10.290
   20        0.415   0.296   9.584  10.295
   21        0.417   0.295   9.583  10.295
   22        0.407   0.283   9.585  10.274
   23        0.415   0.296   9.584  10.295
   24        0.417   0.295   9.583  10.295
   25        0.417   0.295   9.583  10.295
   26        0.415   0.296   9.584  10.295
   27        0.415   0.296   9.584  10.295
   28        0.414   0.293   9.584  10.290
   29        0.407   0.283   9.585  10.274
   30        0.417   0.295   9.583  10.295
   31        0.417   0.295   9.583  10.295
   32        0.415   0.296   9.584  10.295
   33        0.723   0.156   9.549  10.428
   34        1.282   2.224   0.017   3.523
   35        1.293   2.198   0.017   3.508
   36        1.282   2.222   0.016   3.520
   37        1.282   2.224   0.017   3.523
   38        1.282   2.224   0.017   3.523
   39        1.293   2.198   0.017   3.508
   40        1.282   2.222   0.016   3.520
   41        1.282   2.224   0.017   3.523
   42        1.282   2.220   0.016   3.518
   43        1.282   2.222   0.017   3.520
   44        1.282   2.222   0.017   3.520
   45        1.282   2.221   0.016   3.519
   46        1.282   2.222   0.017   3.520
   47        1.282   2.221   0.016   3.519
   48        1.282   2.221   0.016   3.519
   49        1.282   2.222   0.017   3.520
   50        1.282   2.224   0.017   3.523
   51        1.282   2.224   0.017   3.523
   52        1.282   2.222   0.016   3.520
   53        1.282   2.222   0.016   3.520
   54        1.293   2.198   0.017   3.508
   55        1.293   2.198   0.017   3.508
   56        1.282   2.224   0.017   3.523
   57        1.282   2.224   0.017   3.523
   58        1.282   2.222   0.016   3.520
   59        1.282   2.224   0.017   3.523
   60        1.282   2.222   0.016   3.520
   61        1.282   2.224   0.017   3.523
   62        1.282   2.224   0.017   3.523
   63        1.293   2.198   0.017   3.508
   64        1.282   2.224   0.017   3.523
   65        1.293   2.198   0.017   3.508
--------------------------------------------------
tot         55.077  80.516 316.761 452.354



 magnetization (x)

# of ion       s       p       d       tot
------------------------------------------
    1       -0.005  -0.003   0.002  -0.006
    2       -0.005  -0.003   0.002  -0.006
    3       -0.005  -0.003   0.002  -0.006
    4       -0.004  -0.003   0.002  -0.005
    5       -0.005  -0.003   0.002  -0.006
    6       -0.004  -0.003   0.002  -0.005
    7       -0.004  -0.003   0.002  -0.005
    8       -0.004  -0.003   0.002  -0.006
    9       -0.005  -0.003   0.002  -0.006
   10       -0.005  -0.003   0.002  -0.006
   11       -0.004  -0.003   0.002  -0.005
   12       -0.005  -0.003   0.002  -0.006
   13       -0.004  -0.003   0.002  -0.005
   14       -0.005  -0.003   0.002  -0.006
   15       -0.004  -0.003   0.002  -0.006
   16       -0.004  -0.003   0.002  -0.005
   17       -0.004  -0.003   0.002  -0.005
   18       -0.005  -0.003   0.002  -0.006
   19       -0.004  -0.003   0.002  -0.006
   20       -0.004  -0.003   0.002  -0.005
   21       -0.005  -0.003   0.002  -0.006
   22       -0.005  -0.003   0.002  -0.006
   23       -0.004  -0.003   0.002  -0.005
   24       -0.005  -0.003   0.002  -0.006
   25       -0.005  -0.003   0.002  -0.006
   26       -0.004  -0.003   0.002  -0.005
   27       -0.004  -0.003   0.002  -0.005
   28       -0.004  -0.003   0.002  -0.006
   29       -0.005  -0.003   0.002  -0.006
   30       -0.005  -0.003   0.002  -0.006
   31       -0.005  -0.003   0.002  -0.006
   32       -0.004  -0.003   0.002  -0.005
   33        0.021  -0.003   0.001   0.019
   34        0.007   0.022  -0.000   0.029
   35        0.008   0.025  -0.000   0.032
   36        0.008   0.021  -0.000   0.029
   37        0.008   0.022  -0.000   0.029
   38        0.007   0.022  -0.000   0.029
   39        0.008   0.025  -0.000   0.032
   40        0.008   0.021  -0.000   0.029
   41        0.007   0.022  -0.000   0.029
   42        0.008   0.022  -0.000   0.029
   43        0.008   0.022  -0.000   0.029
   44        0.008   0.022  -0.000   0.029
   45        0.008   0.022  -0.000   0.029
   46        0.008   0.022  -0.000   0.029
   47        0.008   0.022  -0.000   0.029
   48        0.008   0.022  -0.000   0.029
   49        0.008   0.022  -0.000   0.029
   50        0.007   0.022  -0.000   0.029
   51        0.008   0.022  -0.000   0.029
   52        0.008   0.021  -0.000   0.029
   53        0.008   0.021  -0.000   0.029
   54        0.008   0.025  -0.000   0.032
   55        0.007   0.025  -0.000   0.032
   56        0.007   0.022  -0.000   0.029
   57        0.008   0.022  -0.000   0.029
   58        0.008   0.021  -0.000   0.029
   59        0.007   0.022  -0.000   0.029
   60        0.008   0.021  -0.000   0.029
   61        0.008   0.022  -0.000   0.029
   62        0.007   0.022  -0.000   0.029
   63        0.007   0.025  -0.000   0.032
   64        0.008   0.022  -0.000   0.029
   65        0.007   0.025  -0.000   0.032
--------------------------------------------------
tot          0.119   0.610   0.059   0.788



 magnetization (y)

# of ion       s       p       d       tot
------------------------------------------
    1       -0.005  -0.003   0.002  -0.006
    2       -0.005  -0.003   0.002  -0.006
    3       -0.005  -0.003   0.002  -0.006
    4       -0.004  -0.003   0.002  -0.005
    5       -0.005  -0.003   0.002  -0.006
    6       -0.004  -0.003   0.002  -0.005
    7       -0.004  -0.003   0.002  -0.005
    8       -0.004  -0.003   0.002  -0.006
    9       -0.005  -0.003   0.002  -0.006
   10       -0.005  -0.003   0.002  -0.006
   11       -0.004  -0.003   0.002  -0.005
   12       -0.005  -0.003   0.002  -0.006
   13       -0.004  -0.003   0.002  -0.005
   14       -0.005  -0.003   0.002  -0.006
   15       -0.004  -0.003   0.002  -0.006
   16       -0.004  -0.003   0.002  -0.005
   17       -0.004  -0.003   0.002  -0.005
   18       -0.005  -0.003   0.002  -0.006
   19       -0.004  -0.003   0.002  -0.006
   20       -0.004  -0.003   0.002  -0.005
   21       -0.005  -0.003   0.002  -0.006
   22       -0.005  -0.003   0.002  -0.006
   23       -0.004  -0.003   0.002  -0.005
   24       -0.005  -0.003   0.002  -0.005
   25       -0.005  -0.003   0.002  -0.006
   26       -0.004  -0.003   0.002  -0.005
   27       -0.004  -0.003   0.002  -0.005
   28       -0.004  -0.003   0.002  -0.006
   29       -0.005  -0.003   0.002  -0.006
   30       -0.005  -0.003   0.002  -0.006
   31       -0.005  -0.003   0.002  -0.006
   32       -0.004  -0.003   0.002  -0.005
   33        0.021  -0.003   0.001   0.019
   34        0.007   0.022  -0.000   0.029
   35        0.008   0.025  -0.000   0.032
   36        0.008   0.021  -0.000   0.029
   37        0.008   0.022  -0.000   0.029
   38        0.007   0.022  -0.000   0.029
   39        0.007   0.025  -0.000   0.032
   40        0.008   0.021  -0.000   0.029
   41        0.007   0.022  -0.000   0.029
   42        0.008   0.022  -0.000   0.029
   43        0.008   0.022  -0.000   0.029
   44        0.008   0.022  -0.000   0.029
   45        0.008   0.022  -0.000   0.029
   46        0.008   0.022  -0.000   0.029
   47        0.008   0.022  -0.000   0.029
   48        0.008   0.022  -0.000   0.029
   49        0.008   0.022  -0.000   0.029
   50        0.007   0.022  -0.000   0.029
   51        0.007   0.022  -0.000   0.029
   52        0.008   0.021  -0.000   0.029
   53        0.008   0.021  -0.000   0.029
   54        0.007   0.025  -0.000   0.032
   55        0.007   0.025  -0.000   0.032
   56        0.008   0.022  -0.000   0.029
   57        0.007   0.022  -0.000   0.029
   58        0.008   0.021  -0.000   0.029
   59        0.007   0.022  -0.000   0.029
   60        0.008   0.021  -0.000   0.029
   61        0.007   0.022  -0.000   0.029
   62        0.007   0.022  -0.000   0.029
   63        0.008   0.025  -0.000   0.032
   64        0.007   0.022  -0.000   0.029
   65        0.007   0.025  -0.000   0.032
--------------------------------------------------
tot          0.119   0.610   0.059   0.788



 magnetization (z)

# of ion       s       p       d       tot
------------------------------------------
    1       -0.005  -0.003   0.002  -0.006
    2       -0.005  -0.003   0.002  -0.006
    3       -0.005  -0.003   0.002  -0.006
    4       -0.004  -0.003   0.002  -0.005
    5       -0.005  -0.003   0.002  -0.006
    6       -0.004  -0.003   0.002  -0.005
    7       -0.004  -0.003   0.002  -0.005
    8       -0.004  -0.003   0.002  -0.006
    9       -0.005  -0.003   0.002  -0.006
   10       -0.005  -0.003   0.002  -0.006
   11       -0.004  -0.003   0.002  -0.005
   12       -0.005  -0.003   0.002  -0.006
   13       -0.004  -0.003   0.002  -0.005
   14       -0.005  -0.003   0.002  -0.006
   15       -0.004  -0.003   0.002  -0.006
   16       -0.004  -0.003   0.002  -0.005
   17       -0.004  -0.003   0.002  -0.005
   18       -0.005  -0.003   0.002  -0.006
   19       -0.004  -0.003   0.002  -0.006
   20       -0.004  -0.003   0.002  -0.005
   21       -0.005  -0.003   0.002  -0.006
   22       -0.005  -0.003   0.002  -0.006
   23       -0.004  -0.003   0.002  -0.005
   24       -0.005  -0.003   0.002  -0.006
   25       -0.005  -0.003   0.002  -0.006
   26       -0.004  -0.003   0.002  -0.005
   27       -0.004  -0.003   0.002  -0.005
   28       -0.004  -0.003   0.002  -0.006
   29       -0.005  -0.003   0.002  -0.006
   30       -0.005  -0.003   0.002  -0.006
   31       -0.005  -0.003   0.002  -0.006
   32       -0.004  -0.003   0.002  -0.005
   33        0.021  -0.003   0.001   0.019
   34        0.007   0.022  -0.000   0.029
   35        0.008   0.025  -0.000   0.032
   36        0.008   0.021  -0.000   0.029
   37        0.007   0.022  -0.000   0.029
   38        0.007   0.022  -0.000   0.029
   39        0.007   0.025  -0.000   0.032
   40        0.008   0.021  -0.000   0.029
   41        0.007   0.022  -0.000   0.029
   42        0.008   0.022  -0.000   0.029
   43        0.008   0.022  -0.000   0.029
   44        0.008   0.022  -0.000   0.029
   45        0.008   0.022  -0.000   0.029
   46        0.008   0.022  -0.000   0.029
   47        0.008   0.022  -0.000   0.029
   48        0.008   0.022  -0.000   0.029
   49        0.008   0.022  -0.000   0.029
   50        0.007   0.022  -0.000   0.029
   51        0.007   0.022  -0.000   0.029
   52        0.008   0.021  -0.000   0.029
   53        0.008   0.021  -0.000   0.029
   54        0.007   0.025  -0.000   0.032
   55        0.007   0.025  -0.000   0.032
   56        0.008   0.022  -0.000   0.029
   57        0.007   0.022  -0.000   0.029
   58        0.008   0.021  -0.000   0.029
   59        0.007   0.022  -0.000   0.029
   60        0.008   0.021  -0.000   0.029
   61        0.007   0.022  -0.000   0.029
   62        0.007   0.022  -0.000   0.029
   63        0.007   0.025  -0.000   0.032
   64        0.007   0.022  -0.000   0.029
   65        0.007   0.025  -0.000   0.032
--------------------------------------------------
tot          0.119   0.609   0.059   0.788

    FORLOC:  cpu time      0.0063: real time      0.0063
    FORHF :  cpu time    386.0363: real time    389.9665
    FORNL :  cpu time      4.7269: real time      4.7700
    STRESS:  cpu time     10.5232: real time     10.6337
    FORCOR:  cpu time      0.2230: real time      0.2260
    OFIELD:  cpu time      0.0095: real time      0.0103

  FORCE on cell =-STRESS in cart. coord.  units (eV):
  Direction    XX          YY          ZZ          XY          YZ          ZX
  --------------------------------------------------------------------------------------
  Alpha Z  1642.45119  1642.45119  1642.45119
  Ewald  -11313.45310-11313.46250-11313.46200    -0.00065     0.00037     0.00096
  Hartree  5669.81626  5669.80481  5669.81909     0.00062     0.00700     0.00922
  E(xc)   -2177.22590 -2177.22625 -2177.22625    -0.00058    -0.00049    -0.00067
  Local    -656.76098  -656.74565  -656.76292    -0.00122    -0.00990    -0.01526
  n-local  2104.49281  2104.49814  2104.49984    -0.03071    -0.03106    -0.02834
  augment    -5.36324    -5.36461    -5.36230    -0.00351    -0.00388    -0.00354
  Kinetic  6666.72115  6666.72894  6666.73966     0.02844     0.02928     0.03335
  Fock    -1839.20410 -1839.20389 -1839.20429    -0.00315    -0.00305    -0.00296
  -------------------------------------------------------------------------------------
  Total      91.47408    91.48017    91.49202    -0.01076    -0.01172    -0.00725
  in kB      65.39001    65.39437    65.40283    -0.00769    -0.00838    -0.00518
  external pressure =       65.40 kB  Pullay stress =        0.00 kB


 VOLUME and BASIS-vectors are now :
 -----------------------------------------------------------------------------
  energy-cutoff  :      450.00
  volume of cell :     2241.29
      direct lattice vectors                 reciprocal lattice vectors
    13.086768000  0.000000000  0.000000000     0.076413061  0.000000000  0.000000000
     0.000000000 13.086768000  0.000000000     0.000000000  0.076413061  0.000000000
     0.000000000  0.000000000 13.086768000     0.000000000  0.000000000  0.076413061

  length of vectors
    13.086768000 13.086768000 13.086768000     0.076413061  0.076413061  0.076413061


 FORCES acting on ions:
    Electron-Ion                     Ewald-Force                    Non-Local-Force
 -----------------------------------------------------------------------------------------------
   -.106E+03 0.106E+03 -.106E+03   0.105E+03 -.105E+03 0.105E+03   -.249E+00 0.246E+00 -.249E+00
   -.145E+02 0.145E+02 0.224E+02   0.142E+02 -.142E+02 -.220E+02   0.337E+00 -.333E+00 -.104E+00
   -.145E+02 -.224E+02 -.145E+02   0.142E+02 0.220E+02 0.142E+02   0.335E+00 0.107E+00 0.334E+00
   -.802E+01 -.715E+01 0.715E+01   0.767E+01 0.717E+01 -.717E+01   0.247E+00 -.148E+00 0.148E+00
   0.224E+02 0.145E+02 -.145E+02   -.220E+02 -.142E+02 0.142E+02   -.106E+00 -.332E+00 0.332E+00
   0.716E+01 0.802E+01 0.715E+01   -.716E+01 -.767E+01 -.716E+01   0.143E+00 -.250E+00 0.145E+00
   0.715E+01 -.715E+01 -.802E+01   -.717E+01 0.716E+01 0.767E+01   0.143E+00 -.145E+00 0.249E+00
   0.679E+01 -.679E+01 0.679E+01   -.657E+01 0.657E+01 -.657E+01   -.847E-01 0.837E-01 -.836E-01
   -.145E+02 -.145E+02 -.224E+02   0.142E+02 0.142E+02 0.220E+02   0.336E+00 0.334E+00 0.108E+00
   -.106E+03 -.106E+03 0.106E+03   0.105E+03 0.105E+03 -.105E+03   -.250E+00 -.250E+00 0.249E+00
   -.802E+01 0.716E+01 -.715E+01   0.767E+01 -.717E+01 0.717E+01   0.249E+00 0.144E+00 -.146E+00
   -.145E+02 0.224E+02 0.145E+02   0.142E+02 -.220E+02 -.142E+02   0.334E+00 -.109E+00 -.331E+00
   0.716E+01 -.802E+01 -.715E+01   -.717E+01 0.767E+01 0.716E+01   0.143E+00 0.247E+00 -.145E+00
   0.224E+02 -.145E+02 0.145E+02   -.220E+02 0.142E+02 -.142E+02   -.108E+00 0.333E+00 -.336E+00
   0.679E+01 0.679E+01 -.680E+01   -.657E+01 -.657E+01 0.657E+01   -.856E-01 -.845E-01 0.872E-01
   0.715E+01 0.715E+01 0.802E+01   -.716E+01 -.716E+01 -.767E+01   0.144E+00 0.148E+00 -.250E+00
   -.715E+01 0.802E+01 -.715E+01   0.716E+01 -.767E+01 0.716E+01   -.144E+00 -.248E+00 -.144E+00
   -.224E+02 0.145E+02 0.145E+02   0.220E+02 -.142E+02 -.142E+02   0.105E+00 -.333E+00 -.333E+00
   -.679E+01 -.679E+01 -.680E+01   0.657E+01 0.657E+01 0.657E+01   0.859E-01 0.853E-01 0.861E-01
   -.715E+01 -.715E+01 0.802E+01   0.717E+01 0.716E+01 -.767E+01   -.144E+00 -.146E+00 -.249E+00
   0.145E+02 0.145E+02 -.224E+02   -.142E+02 -.142E+02 0.220E+02   -.335E+00 -.337E+00 0.107E+00
   0.106E+03 0.106E+03 0.106E+03   -.105E+03 -.105E+03 -.105E+03   0.252E+00 0.253E+00 0.249E+00
   0.802E+01 -.715E+01 -.715E+01   -.766E+01 0.717E+01 0.717E+01   -.250E+00 -.148E+00 -.145E+00
   0.145E+02 -.224E+02 0.145E+02   -.142E+02 0.220E+02 -.142E+02   -.336E+00 0.106E+00 -.338E+00
   -.224E+02 -.145E+02 -.145E+02   0.220E+02 0.142E+02 0.142E+02   0.110E+00 0.335E+00 0.334E+00
   -.715E+01 -.802E+01 0.715E+01   0.716E+01 0.767E+01 -.717E+01   -.144E+00 0.249E+00 0.146E+00
   -.715E+01 0.715E+01 -.802E+01   0.716E+01 -.716E+01 0.767E+01   -.147E+00 0.145E+00 0.249E+00
   -.680E+01 0.679E+01 0.679E+01   0.657E+01 -.657E+01 -.657E+01   0.871E-01 -.850E-01 -.849E-01
   0.106E+03 -.106E+03 -.106E+03   -.105E+03 0.105E+03 0.105E+03   0.248E+00 -.248E+00 -.251E+00
   0.145E+02 -.145E+02 0.224E+02   -.142E+02 0.142E+02 -.220E+02   -.333E+00 0.337E+00 -.105E+00
   0.145E+02 0.224E+02 -.145E+02   -.142E+02 -.220E+02 0.142E+02   -.335E+00 -.109E+00 0.332E+00
   0.802E+01 0.716E+01 0.715E+01   -.766E+01 -.717E+01 -.717E+01   -.250E+00 0.143E+00 0.147E+00
   0.267E-02 0.776E-03 0.107E-01   -.126E-03 0.632E-03 -.109E-02   -.422E-03 0.415E-03 -.361E-02
   -.508E+01 -.277E-02 -.152E-02   0.498E+01 0.656E-03 -.134E-03   0.505E-01 0.505E-05 -.207E-02
   -.602E+02 0.628E-03 0.138E-02   0.587E+02 -.529E-03 0.376E-03   0.828E+00 0.545E-03 0.163E-02
   -.677E+01 0.760E-02 0.268E-02   0.676E+01 -.837E-04 0.196E-04   -.982E-01 -.352E-02 -.105E-02
   -.507E+01 -.164E-02 -.608E-03   0.498E+01 0.607E-04 -.145E-04   0.514E-01 -.355E-03 0.729E-03
   0.508E+01 0.379E-02 -.561E-03   -.498E+01 -.526E-03 0.490E-03   -.506E-01 -.209E-02 -.356E-04
   0.602E+02 0.529E-02 0.251E-02   -.587E+02 -.672E-03 0.570E-03   -.826E+00 -.281E-02 -.165E-02
   0.677E+01 -.503E-02 0.260E-03   -.676E+01 0.708E-03 0.709E-03   0.984E-01 0.294E-02 -.116E-02
   0.507E+01 0.152E-03 0.675E-02   -.498E+01 -.542E-04 -.502E-03   -.510E-01 0.112E-02 -.821E-03
   -.670E+01 -.670E+01 -.670E+01   0.643E+01 0.644E+01 0.644E+01   0.868E-01 0.855E-01 0.877E-01
   -.128E+02 -.128E+02 0.128E+02   0.130E+02 0.130E+02 -.130E+02   -.355E+00 -.358E+00 0.353E+00
   -.128E+02 0.128E+02 -.128E+02   0.130E+02 -.130E+02 0.130E+02   -.353E+00 0.356E+00 -.353E+00
   -.669E+01 0.669E+01 0.669E+01   0.643E+01 -.644E+01 -.644E+01   0.871E-01 -.852E-01 -.860E-01
   0.128E+02 -.128E+02 -.128E+02   -.130E+02 0.130E+02 0.130E+02   0.353E+00 -.352E+00 -.353E+00
   0.668E+01 -.669E+01 0.669E+01   -.644E+01 0.644E+01 -.644E+01   -.817E-01 0.844E-01 -.848E-01
   0.669E+01 0.669E+01 -.670E+01   -.644E+01 -.644E+01 0.643E+01   -.846E-01 -.850E-01 0.884E-01
   0.128E+02 0.128E+02 0.128E+02   -.130E+02 -.130E+02 -.130E+02   0.355E+00 0.360E+00 0.352E+00
   -.570E-02 -.388E-02 -.508E+01   -.985E-04 0.119E-02 0.498E+01   0.242E-02 -.660E-03 0.514E-01
   0.640E-02 -.306E-02 0.507E+01   -.133E-03 -.254E-04 -.498E+01   -.250E-02 0.894E-03 -.498E-01
   -.237E-02 -.318E-02 -.677E+01   -.281E-04 -.139E-03 0.676E+01   0.246E-02 0.304E-02 -.101E+00
   -.536E-02 -.436E-02 0.677E+01   -.204E-04 0.362E-04 -.676E+01   0.299E-02 0.145E-02 0.989E-01
   0.859E-04 -.100E-02 -.602E+02   -.150E-03 0.680E-03 0.586E+02   0.597E-03 0.229E-02 0.825E+00
   -.548E-03 -.562E-02 0.602E+02   0.696E-03 -.743E-03 -.586E+02   -.915E-03 0.172E-02 -.826E+00
   -.519E-02 0.580E-02 -.508E+01   0.984E-05 -.566E-03 0.498E+01   0.151E-02 -.281E-02 0.535E-01
   0.257E-02 0.240E-02 0.507E+01   -.466E-03 0.688E-04 -.498E+01   -.102E-02 0.119E-02 -.500E-01
   -.393E-02 -.677E+01 0.247E-02   0.185E-04 0.676E+01 -.648E-03   0.517E-02 -.100E+00 -.185E-02
   0.154E-02 -.507E+01 -.350E-02   -.744E-04 0.498E+01 0.106E-03   0.359E-03 0.503E-01 0.131E-02
   -.155E-02 0.677E+01 -.248E-02   -.241E-04 -.676E+01 0.528E-04   0.101E-02 0.990E-01 0.521E-03
   0.137E-02 0.507E+01 0.546E-02   -.201E-03 -.498E+01 -.570E-03   -.910E-03 -.500E-01 -.197E-03
   0.232E-02 -.508E+01 -.542E-02   0.172E-03 0.498E+01 -.529E-03   -.136E-02 0.503E-01 0.120E-02
   -.175E-02 -.602E+02 0.410E-02   0.572E-03 0.586E+02 0.743E-03   0.629E-03 0.827E+00 -.585E-03
   0.449E-02 0.508E+01 0.392E-02   -.478E-03 -.498E+01 0.812E-04   -.272E-02 -.506E-01 -.624E-03
   -.183E-02 0.602E+02 0.260E-02   -.184E-03 -.586E+02 -.706E-03   -.122E-02 -.827E+00 0.162E-03
 -----------------------------------------------------------------------------------------------
   -.155E-01 0.712E-02 -.108E-01   -.967E-13 0.121E-12 -.181E-12   0.113E-01 -.132E-02 0.619E-02


 POSITION                                       TOTAL-FORCE (eV/Angst)
 -----------------------------------------------------------------------------------
      0.05869     13.02807      0.05869        -0.668149      0.669296     -0.665858
      0.01632     13.07045      6.50359         0.049736     -0.055165      0.325780
      0.01632      6.58318      0.01632         0.052057     -0.331040      0.054438
     13.08186      6.55932      6.52744        -0.101630     -0.140106      0.139180
      6.50359     13.07045      0.01632         0.330023     -0.056598      0.056626
      6.52743      0.00491      6.52743         0.144345      0.102972      0.141972
      6.52743      6.55934     13.08186         0.141919     -0.142548     -0.104062
      6.55029      6.53647      6.55029         0.138923     -0.138164      0.139494
      0.01632      3.28801      3.31148         0.050027      0.053044     -0.332403
      0.05871      3.33039      9.75638        -0.667330     -0.668765      0.668272
     13.08186      9.79914      3.28763        -0.103505      0.143013     -0.142042
      0.01632      9.77528      9.79876         0.052023      0.332653     -0.056082
      6.52744      3.26678      3.28764         0.145178     -0.102721     -0.143031
      6.50360      3.28801      9.79876         0.329914      0.055705     -0.052070
      6.55029      9.82199      3.26478         0.139215      0.138727     -0.141186
      6.52743      9.79912      9.81998         0.143563      0.139788      0.103834
      3.28764      0.00491      3.28764        -0.144421      0.100828     -0.144264
      3.31148     13.07045      9.79876        -0.329448     -0.053290     -0.054530
      3.26478      6.53647      3.26478        -0.138337     -0.138321     -0.142387
      3.28764      6.55934      9.81998        -0.140749     -0.142737      0.102933
      9.79876     13.07045      3.31148        -0.051837     -0.051221     -0.331698
      9.75637     13.02807      9.75638         0.665437      0.663549      0.666170
      9.81998      6.55934      3.28764         0.103567     -0.142854     -0.144029
      9.79876      6.58317      9.79876        -0.054265     -0.330703     -0.049599
      3.31148      3.28801      0.01632        -0.332232      0.052075      0.052847
      3.28764      3.26678      6.52743        -0.143742     -0.103495      0.140609
      3.28764      9.79912     13.08186        -0.139550      0.142213     -0.100225
      3.26478      9.82199      6.55029        -0.140800      0.138633      0.138031
      9.75637      3.33039      0.05869         0.667926     -0.668203     -0.666065
      9.79876      3.28801      6.50360        -0.055097      0.050349      0.325862
      9.79876      9.77528      0.01632        -0.053782      0.330518      0.056266
      9.81998      9.79914      6.52744         0.102601      0.144516      0.140148
     11.45092      1.63585     11.45092         0.002333      0.001886      0.006185
      1.65752      1.63585      4.90754        -0.043014     -0.002172     -0.003672
      1.73765      1.63585     11.45092        -0.767824      0.000550      0.003510
      1.64752      8.17923      4.90754        -0.112258      0.003880      0.001711
      1.65752      8.17923     11.45092        -0.036198     -0.002049      0.000207
      8.15756      1.63585      4.90754         0.043768      0.001071     -0.000020
      8.07743      1.63585     11.45092         0.768882      0.001662      0.001505
      8.16756      8.17923      4.90754         0.111584     -0.001440     -0.000124
      8.15756      8.17923     11.45092         0.041478      0.001126      0.005498
      1.63386      4.90555      1.63386        -0.172864     -0.173393     -0.170695
      1.66841      4.94010      8.14667        -0.174912     -0.171846      0.179634
      1.66841     11.41836      1.66841        -0.173746      0.178723     -0.174585
      1.63386     11.45291      8.18122        -0.171718      0.169605      0.169180
      8.14667      4.94010      1.66841         0.179491     -0.175452     -0.179289
      8.18122      4.90555      8.18122         0.165756     -0.172154      0.171518
      8.18122     11.45291      1.63386         0.170616      0.170081     -0.175474
      8.14667     11.41836      8.14667         0.179331      0.177120      0.177805
      4.90754      1.63585      1.65752        -0.003266     -0.003480     -0.040900
      4.90754      1.63585      8.15756         0.003784     -0.002282      0.042541
      4.90754      8.17923      1.64752         0.000149     -0.000328     -0.110665
      4.90754      8.17923      8.16756        -0.002295     -0.002930      0.111120
     11.45092      1.63585      1.73765         0.000615      0.001934     -0.765895
     11.45092      1.63585      8.07743        -0.000717     -0.004679      0.766066
     11.45092      8.17923      1.65752        -0.003602      0.002268     -0.043123
     11.45092      8.17923      8.15756         0.001116      0.003596      0.038777
      4.90754      4.91921      4.90754         0.001395     -0.106902     -0.000018
      4.90754      4.92921     11.45092         0.001856     -0.038701     -0.001985
      4.90754     11.43925      4.90754        -0.000484      0.111015     -0.001826
      4.90754     11.42925     11.45092         0.000329      0.040724      0.004789
     11.45092      4.92921      4.90754         0.001166     -0.042427     -0.004666
     11.45092      5.00934     11.45092        -0.000443     -0.767943      0.004333
     11.45092     11.42925      4.90754         0.001299      0.043144      0.003473
     11.45092     11.34912     11.45092        -0.003186      0.767846      0.002158
 -----------------------------------------------------------------------------------
    total drift:                               -0.004015      0.005377     -0.005519


--------------------------------------------------------------------------------------------------------



  FREE ENERGIE OF THE ION-ELECTRON SYSTEM (eV)
  ---------------------------------------------------
  free  energy   TOTEN  =      -184.07416559 eV

  energy  without entropy=     -184.06790611  energy(sigma->0) =     -184.07103585



--------------------------------------------------------------------------------------------------------


    POTLOK:  cpu time      1.1104: real time      1.1224


--------------------------------------------------------------------------------------------------------


 writing wavefunctions
     LOOP+:  cpu time   1650.7953: real time   1667.7540
    4ORBIT:  cpu time      0.0000: real time      0.0000

 Spin-Orbit-Coupling matrix elements

 Ion:    1  E_soc:     -0.0546312
 l=   1
     0.0000000    -0.0023748    -0.0023720
    -0.0023748     0.0000000    -0.0023742
    -0.0023720    -0.0023742     0.0000000
 l=   2
     0.0000000    -0.0013600     0.0000000    -0.0013618    -0.0053728
    -0.0013600     0.0000000    -0.0040262    -0.0013613    -0.0013451
     0.0000000    -0.0040262     0.0000000    -0.0040256     0.0000000
    -0.0013618    -0.0013613    -0.0040256     0.0000000    -0.0013419
    -0.0053728    -0.0013451     0.0000000    -0.0013419     0.0000000
 l=   3
     0.0000000     0.0000000     0.0000000     0.0000000     0.0000000     0.0000000     0.0000000
     0.0000000     0.0000000     0.0000000     0.0000000     0.0000000     0.0000000     0.0000000
     0.0000000     0.0000000     0.0000000     0.0000000     0.0000000     0.0000000     0.0000000
     0.0000000     0.0000000     0.0000000     0.0000000     0.0000000     0.0000000     0.0000000
     0.0000000     0.0000000     0.0000000     0.0000000     0.0000000     0.0000000     0.0000000
     0.0000000     0.0000000     0.0000000     0.0000000     0.0000000     0.0000000     0.0000000
     0.0000000     0.0000000     0.0000000     0.0000000     0.0000000     0.0000000     0.0000000

 Ion:    2  E_soc:     -0.0556492
 l=   1
     0.0000000    -0.0025460    -0.0025819
    -0.0025460     0.0000000    -0.0025477
    -0.0025819    -0.0025477     0.0000000
 l=   2
     0.0000000    -0.0013534     0.0000000    -0.0013534    -0.0053623
    -0.0013534     0.0000000    -0.0040227    -0.0013512    -0.0013411
     0.0000000    -0.0040227     0.0000000    -0.0040233     0.0000000
    -0.0013534    -0.0013512    -0.0040233     0.0000000    -0.0013418
    -0.0053623    -0.0013411     0.0000000    -0.0013418     0.0000000
 l=   3
     0.0000000     0.0000000     0.0000000     0.0000000     0.0000000     0.0000000     0.0000000
     0.0000000     0.0000000     0.0000000     0.0000000     0.0000000     0.0000000     0.0000000
     0.0000000     0.0000000     0.0000000     0.0000000     0.0000000     0.0000000     0.0000000
     0.0000000     0.0000000     0.0000000     0.0000000     0.0000000     0.0000000     0.0000000
     0.0000000     0.0000000     0.0000000     0.0000000     0.0000000     0.0000000     0.0000000
     0.0000000     0.0000000     0.0000000     0.0000000     0.0000000     0.0000000     0.0000000
     0.0000000     0.0000000     0.0000000     0.0000000     0.0000000     0.0000000     0.0000000

 Ion:    3  E_soc:     -0.0556602
 l=   1
     0.0000000    -0.0025499    -0.0025498
    -0.0025499     0.0000000    -0.0025801
    -0.0025498    -0.0025801     0.0000000
 l=   2
     0.0000000    -0.0013518     0.0000000    -0.0013546    -0.0053640
    -0.0013518     0.0000000    -0.0040237    -0.0013539    -0.0013402
     0.0000000    -0.0040237     0.0000000    -0.0040205     0.0000000
    -0.0013546    -0.0013539    -0.0040205     0.0000000    -0.0013415
    -0.0053640    -0.0013402     0.0000000    -0.0013415     0.0000000
 l=   3
     0.0000000     0.0000000     0.0000000     0.0000000     0.0000000     0.0000000     0.0000000
     0.0000000     0.0000000     0.0000000     0.0000000     0.0000000     0.0000000     0.0000000
     0.0000000     0.0000000     0.0000000     0.0000000     0.0000000     0.0000000     0.0000000
     0.0000000     0.0000000     0.0000000     0.0000000     0.0000000     0.0000000     0.0000000
     0.0000000     0.0000000     0.0000000     0.0000000     0.0000000     0.0000000     0.0000000
     0.0000000     0.0000000     0.0000000     0.0000000     0.0000000     0.0000000     0.0000000
     0.0000000     0.0000000     0.0000000     0.0000000     0.0000000     0.0000000     0.0000000

 Ion:    4  E_soc:     -0.0556355
 l=   1
     0.0000000    -0.0025514    -0.0025562
    -0.0025514     0.0000000    -0.0025570
    -0.0025562    -0.0025570     0.0000000
 l=   2
     0.0000000    -0.0013553     0.0000000    -0.0013562    -0.0053608
    -0.0013553     0.0000000    -0.0040234    -0.0013552    -0.0013416
     0.0000000    -0.0040234     0.0000000    -0.0040205     0.0000000
    -0.0013562    -0.0013552    -0.0040205     0.0000000    -0.0013399
    -0.0053608    -0.0013416     0.0000000    -0.0013399     0.0000000
 l=   3
     0.0000000     0.0000000     0.0000000     0.0000000     0.0000000     0.0000000     0.0000000
     0.0000000     0.0000000     0.0000000     0.0000000     0.0000000     0.0000000     0.0000000
     0.0000000     0.0000000     0.0000000     0.0000000     0.0000000     0.0000000     0.0000000
     0.0000000     0.0000000     0.0000000     0.0000000     0.0000000     0.0000000     0.0000000
     0.0000000     0.0000000     0.0000000     0.0000000     0.0000000     0.0000000     0.0000000
     0.0000000     0.0000000     0.0000000     0.0000000     0.0000000     0.0000000     0.0000000
     0.0000000     0.0000000     0.0000000     0.0000000     0.0000000     0.0000000     0.0000000

 Ion:    5  E_soc:     -0.0556545
 l=   1
     0.0000000    -0.0025783    -0.0025516
    -0.0025783     0.0000000    -0.0025477
    -0.0025516    -0.0025477     0.0000000
 l=   2
     0.0000000    -0.0013529     0.0000000    -0.0013526    -0.0053657
    -0.0013529     0.0000000    -0.0040189    -0.0013542    -0.0013410
     0.0000000    -0.0040189     0.0000000    -0.0040243     0.0000000
    -0.0013526    -0.0013542    -0.0040243     0.0000000    -0.0013400
    -0.0053657    -0.0013410     0.0000000    -0.0013400     0.0000000
 l=   3
     0.0000000     0.0000000     0.0000000     0.0000000     0.0000000     0.0000000     0.0000000
     0.0000000     0.0000000     0.0000000     0.0000000     0.0000000     0.0000000     0.0000000
     0.0000000     0.0000000     0.0000000     0.0000000     0.0000000     0.0000000     0.0000000
     0.0000000     0.0000000     0.0000000     0.0000000     0.0000000     0.0000000     0.0000000
     0.0000000     0.0000000     0.0000000     0.0000000     0.0000000     0.0000000     0.0000000
     0.0000000     0.0000000     0.0000000     0.0000000     0.0000000     0.0000000     0.0000000
     0.0000000     0.0000000     0.0000000     0.0000000     0.0000000     0.0000000     0.0000000

 Ion:    6  E_soc:     -0.0556436
 l=   1
     0.0000000    -0.0025581    -0.0025553
    -0.0025581     0.0000000    -0.0025531
    -0.0025553    -0.0025531     0.0000000
 l=   2
     0.0000000    -0.0013560     0.0000000    -0.0013548    -0.0053599
    -0.0013560     0.0000000    -0.0040219    -0.0013562    -0.0013412
     0.0000000    -0.0040219     0.0000000    -0.0040237     0.0000000
    -0.0013548    -0.0013562    -0.0040237     0.0000000    -0.0013416
    -0.0053599    -0.0013412     0.0000000    -0.0013416     0.0000000
 l=   3
     0.0000000     0.0000000     0.0000000     0.0000000     0.0000000     0.0000000     0.0000000
     0.0000000     0.0000000     0.0000000     0.0000000     0.0000000     0.0000000     0.0000000
     0.0000000     0.0000000     0.0000000     0.0000000     0.0000000     0.0000000     0.0000000
     0.0000000     0.0000000     0.0000000     0.0000000     0.0000000     0.0000000     0.0000000
     0.0000000     0.0000000     0.0000000     0.0000000     0.0000000     0.0000000     0.0000000
     0.0000000     0.0000000     0.0000000     0.0000000     0.0000000     0.0000000     0.0000000
     0.0000000     0.0000000     0.0000000     0.0000000     0.0000000     0.0000000     0.0000000

 Ion:    7  E_soc:     -0.0556546
 l=   1
     0.0000000    -0.0025574    -0.0025493
    -0.0025574     0.0000000    -0.0025599
    -0.0025493    -0.0025599     0.0000000
 l=   2
     0.0000000    -0.0013562     0.0000000    -0.0013555    -0.0053666
    -0.0013562     0.0000000    -0.0040232    -0.0013555    -0.0013401
     0.0000000    -0.0040232     0.0000000    -0.0040225     0.0000000
    -0.0013555    -0.0013555    -0.0040225     0.0000000    -0.0013410
    -0.0053666    -0.0013401     0.0000000    -0.0013410     0.0000000
 l=   3
     0.0000000     0.0000000     0.0000000     0.0000000     0.0000000     0.0000000     0.0000000
     0.0000000     0.0000000     0.0000000     0.0000000     0.0000000     0.0000000     0.0000000
     0.0000000     0.0000000     0.0000000     0.0000000     0.0000000     0.0000000     0.0000000
     0.0000000     0.0000000     0.0000000     0.0000000     0.0000000     0.0000000     0.0000000
     0.0000000     0.0000000     0.0000000     0.0000000     0.0000000     0.0000000     0.0000000
     0.0000000     0.0000000     0.0000000     0.0000000     0.0000000     0.0000000     0.0000000
     0.0000000     0.0000000     0.0000000     0.0000000     0.0000000     0.0000000     0.0000000

 Ion:    8  E_soc:     -0.0555340
 l=   1
     0.0000000    -0.0025344    -0.0025332
    -0.0025344     0.0000000    -0.0025349
    -0.0025332    -0.0025349     0.0000000
 l=   2
     0.0000000    -0.0013556     0.0000000    -0.0013557    -0.0053669
    -0.0013556     0.0000000    -0.0040238    -0.0013559    -0.0013414
     0.0000000    -0.0040238     0.0000000    -0.0040255     0.0000000
    -0.0013557    -0.0013559    -0.0040255     0.0000000    -0.0013399
    -0.0053669    -0.0013414     0.0000000    -0.0013399     0.0000000
 l=   3
     0.0000000     0.0000000     0.0000000     0.0000000     0.0000000     0.0000000     0.0000000
     0.0000000     0.0000000     0.0000000     0.0000000     0.0000000     0.0000000     0.0000000
     0.0000000     0.0000000     0.0000000     0.0000000     0.0000000     0.0000000     0.0000000
     0.0000000     0.0000000     0.0000000     0.0000000     0.0000000     0.0000000     0.0000000
     0.0000000     0.0000000     0.0000000     0.0000000     0.0000000     0.0000000     0.0000000
     0.0000000     0.0000000     0.0000000     0.0000000     0.0000000     0.0000000     0.0000000
     0.0000000     0.0000000     0.0000000     0.0000000     0.0000000     0.0000000     0.0000000

 Ion:    9  E_soc:     -0.0556693
 l=   1
     0.0000000    -0.0025503    -0.0025815
    -0.0025503     0.0000000    -0.0025491
    -0.0025815    -0.0025491     0.0000000
 l=   2
     0.0000000    -0.0013548     0.0000000    -0.0013549    -0.0053644
    -0.0013548     0.0000000    -0.0040233    -0.0013509    -0.0013417
     0.0000000    -0.0040233     0.0000000    -0.0040226     0.0000000
    -0.0013549    -0.0013509    -0.0040226     0.0000000    -0.0013412
    -0.0053644    -0.0013417     0.0000000    -0.0013412     0.0000000
 l=   3
     0.0000000     0.0000000     0.0000000     0.0000000     0.0000000     0.0000000     0.0000000
     0.0000000     0.0000000     0.0000000     0.0000000     0.0000000     0.0000000     0.0000000
     0.0000000     0.0000000     0.0000000     0.0000000     0.0000000     0.0000000     0.0000000
     0.0000000     0.0000000     0.0000000     0.0000000     0.0000000     0.0000000     0.0000000
     0.0000000     0.0000000     0.0000000     0.0000000     0.0000000     0.0000000     0.0000000
     0.0000000     0.0000000     0.0000000     0.0000000     0.0000000     0.0000000     0.0000000
     0.0000000     0.0000000     0.0000000     0.0000000     0.0000000     0.0000000     0.0000000

 Ion:   10  E_soc:     -0.0546302
 l=   1
     0.0000000    -0.0023753    -0.0023722
    -0.0023753     0.0000000    -0.0023720
    -0.0023722    -0.0023720     0.0000000
 l=   2
     0.0000000    -0.0013624     0.0000000    -0.0013611    -0.0053688
    -0.0013624     0.0000000    -0.0040302    -0.0013609    -0.0013414
     0.0000000    -0.0040302     0.0000000    -0.0040306     0.0000000
    -0.0013611    -0.0013609    -0.0040306     0.0000000    -0.0013403
    -0.0053688    -0.0013414     0.0000000    -0.0013403     0.0000000
 l=   3
     0.0000000     0.0000000     0.0000000     0.0000000     0.0000000     0.0000000     0.0000000
     0.0000000     0.0000000     0.0000000     0.0000000     0.0000000     0.0000000     0.0000000
     0.0000000     0.0000000     0.0000000     0.0000000     0.0000000     0.0000000     0.0000000
     0.0000000     0.0000000     0.0000000     0.0000000     0.0000000     0.0000000     0.0000000
     0.0000000     0.0000000     0.0000000     0.0000000     0.0000000     0.0000000     0.0000000
     0.0000000     0.0000000     0.0000000     0.0000000     0.0000000     0.0000000     0.0000000
     0.0000000     0.0000000     0.0000000     0.0000000     0.0000000     0.0000000     0.0000000

 Ion:   11  E_soc:     -0.0556272
 l=   1
     0.0000000    -0.0025481    -0.0025560
    -0.0025481     0.0000000    -0.0025562
    -0.0025560    -0.0025562     0.0000000
 l=   2
     0.0000000    -0.0013552     0.0000000    -0.0013553    -0.0053612
    -0.0013552     0.0000000    -0.0040233    -0.0013551    -0.0013417
     0.0000000    -0.0040233     0.0000000    -0.0040201     0.0000000
    -0.0013553    -0.0013551    -0.0040201     0.0000000    -0.0013415
    -0.0053612    -0.0013417     0.0000000    -0.0013415     0.0000000
 l=   3
     0.0000000     0.0000000     0.0000000     0.0000000     0.0000000     0.0000000     0.0000000
     0.0000000     0.0000000     0.0000000     0.0000000     0.0000000     0.0000000     0.0000000
     0.0000000     0.0000000     0.0000000     0.0000000     0.0000000     0.0000000     0.0000000
     0.0000000     0.0000000     0.0000000     0.0000000     0.0000000     0.0000000     0.0000000
     0.0000000     0.0000000     0.0000000     0.0000000     0.0000000     0.0000000     0.0000000
     0.0000000     0.0000000     0.0000000     0.0000000     0.0000000     0.0000000     0.0000000
     0.0000000     0.0000000     0.0000000     0.0000000     0.0000000     0.0000000     0.0000000

 Ion:   12  E_soc:     -0.0556366
 l=   1
     0.0000000    -0.0025490    -0.0025476
    -0.0025490     0.0000000    -0.0025751
    -0.0025476    -0.0025751     0.0000000
 l=   2
     0.0000000    -0.0013521     0.0000000    -0.0013539    -0.0053638
    -0.0013521     0.0000000    -0.0040219    -0.0013543    -0.0013413
     0.0000000    -0.0040219     0.0000000    -0.0040196     0.0000000
    -0.0013539    -0.0013543    -0.0040196     0.0000000    -0.0013397
    -0.0053638    -0.0013413     0.0000000    -0.0013397     0.0000000
 l=   3
     0.0000000     0.0000000     0.0000000     0.0000000     0.0000000     0.0000000     0.0000000
     0.0000000     0.0000000     0.0000000     0.0000000     0.0000000     0.0000000     0.0000000
     0.0000000     0.0000000     0.0000000     0.0000000     0.0000000     0.0000000     0.0000000
     0.0000000     0.0000000     0.0000000     0.0000000     0.0000000     0.0000000     0.0000000
     0.0000000     0.0000000     0.0000000     0.0000000     0.0000000     0.0000000     0.0000000
     0.0000000     0.0000000     0.0000000     0.0000000     0.0000000     0.0000000     0.0000000
     0.0000000     0.0000000     0.0000000     0.0000000     0.0000000     0.0000000     0.0000000

 Ion:   13  E_soc:     -0.0556395
 l=   1
     0.0000000    -0.0025579    -0.0025574
    -0.0025579     0.0000000    -0.0025488
    -0.0025574    -0.0025488     0.0000000
 l=   2
     0.0000000    -0.0013557     0.0000000    -0.0013563    -0.0053618
    -0.0013557     0.0000000    -0.0040215    -0.0013541    -0.0013392
     0.0000000    -0.0040215     0.0000000    -0.0040259     0.0000000
    -0.0013563    -0.0013541    -0.0040259     0.0000000    -0.0013412
    -0.0053618    -0.0013392     0.0000000    -0.0013412     0.0000000
 l=   3
     0.0000000     0.0000000     0.0000000     0.0000000     0.0000000     0.0000000     0.0000000
     0.0000000     0.0000000     0.0000000     0.0000000     0.0000000     0.0000000     0.0000000
     0.0000000     0.0000000     0.0000000     0.0000000     0.0000000     0.0000000     0.0000000
     0.0000000     0.0000000     0.0000000     0.0000000     0.0000000     0.0000000     0.0000000
     0.0000000     0.0000000     0.0000000     0.0000000     0.0000000     0.0000000     0.0000000
     0.0000000     0.0000000     0.0000000     0.0000000     0.0000000     0.0000000     0.0000000
     0.0000000     0.0000000     0.0000000     0.0000000     0.0000000     0.0000000     0.0000000

 Ion:   14  E_soc:     -0.0556432
 l=   1
     0.0000000    -0.0025794    -0.0025462
    -0.0025794     0.0000000    -0.0025467
    -0.0025462    -0.0025467     0.0000000
 l=   2
     0.0000000    -0.0013535     0.0000000    -0.0013511    -0.0053668
    -0.0013535     0.0000000    -0.0040195    -0.0013544    -0.0013406
     0.0000000    -0.0040195     0.0000000    -0.0040233     0.0000000
    -0.0013511    -0.0013544    -0.0040233     0.0000000    -0.0013401
    -0.0053668    -0.0013406     0.0000000    -0.0013401     0.0000000
 l=   3
     0.0000000     0.0000000     0.0000000     0.0000000     0.0000000     0.0000000     0.0000000
     0.0000000     0.0000000     0.0000000     0.0000000     0.0000000     0.0000000     0.0000000
     0.0000000     0.0000000     0.0000000     0.0000000     0.0000000     0.0000000     0.0000000
     0.0000000     0.0000000     0.0000000     0.0000000     0.0000000     0.0000000     0.0000000
     0.0000000     0.0000000     0.0000000     0.0000000     0.0000000     0.0000000     0.0000000
     0.0000000     0.0000000     0.0000000     0.0000000     0.0000000     0.0000000     0.0000000
     0.0000000     0.0000000     0.0000000     0.0000000     0.0000000     0.0000000     0.0000000

 Ion:   15  E_soc:     -0.0555322
 l=   1
     0.0000000    -0.0025319    -0.0025374
    -0.0025319     0.0000000    -0.0025352
    -0.0025374    -0.0025352     0.0000000
 l=   2
     0.0000000    -0.0013553     0.0000000    -0.0013556    -0.0053646
    -0.0013553     0.0000000    -0.0040238    -0.0013563    -0.0013412
     0.0000000    -0.0040238     0.0000000    -0.0040234     0.0000000
    -0.0013556    -0.0013563    -0.0040234     0.0000000    -0.0013414
    -0.0053646    -0.0013412     0.0000000    -0.0013414     0.0000000
 l=   3
     0.0000000     0.0000000     0.0000000     0.0000000     0.0000000     0.0000000     0.0000000
     0.0000000     0.0000000     0.0000000     0.0000000     0.0000000     0.0000000     0.0000000
     0.0000000     0.0000000     0.0000000     0.0000000     0.0000000     0.0000000     0.0000000
     0.0000000     0.0000000     0.0000000     0.0000000     0.0000000     0.0000000     0.0000000
     0.0000000     0.0000000     0.0000000     0.0000000     0.0000000     0.0000000     0.0000000
     0.0000000     0.0000000     0.0000000     0.0000000     0.0000000     0.0000000     0.0000000
     0.0000000     0.0000000     0.0000000     0.0000000     0.0000000     0.0000000     0.0000000

 Ion:   16  E_soc:     -0.0556519
 l=   1
     0.0000000    -0.0025594    -0.0025542
    -0.0025594     0.0000000    -0.0025566
    -0.0025542    -0.0025566     0.0000000
 l=   2
     0.0000000    -0.0013543     0.0000000    -0.0013545    -0.0053671
    -0.0013543     0.0000000    -0.0040211    -0.0013557    -0.0013403
     0.0000000    -0.0040211     0.0000000    -0.0040226     0.0000000
    -0.0013545    -0.0013557    -0.0040226     0.0000000    -0.0013402
    -0.0053671    -0.0013403     0.0000000    -0.0013402     0.0000000
 l=   3
     0.0000000     0.0000000     0.0000000     0.0000000     0.0000000     0.0000000     0.0000000
     0.0000000     0.0000000     0.0000000     0.0000000     0.0000000     0.0000000     0.0000000
     0.0000000     0.0000000     0.0000000     0.0000000     0.0000000     0.0000000     0.0000000
     0.0000000     0.0000000     0.0000000     0.0000000     0.0000000     0.0000000     0.0000000
     0.0000000     0.0000000     0.0000000     0.0000000     0.0000000     0.0000000     0.0000000
     0.0000000     0.0000000     0.0000000     0.0000000     0.0000000     0.0000000     0.0000000
     0.0000000     0.0000000     0.0000000     0.0000000     0.0000000     0.0000000     0.0000000

 Ion:   17  E_soc:     -0.0556396
 l=   1
     0.0000000    -0.0025560    -0.0025576
    -0.0025560     0.0000000    -0.0025502
    -0.0025576    -0.0025502     0.0000000
 l=   2
     0.0000000    -0.0013560     0.0000000    -0.0013558    -0.0053631
    -0.0013560     0.0000000    -0.0040210    -0.0013539    -0.0013409
     0.0000000    -0.0040210     0.0000000    -0.0040239     0.0000000
    -0.0013558    -0.0013539    -0.0040239     0.0000000    -0.0013413
    -0.0053631    -0.0013409     0.0000000    -0.0013413     0.0000000
 l=   3
     0.0000000     0.0000000     0.0000000     0.0000000     0.0000000     0.0000000     0.0000000
     0.0000000     0.0000000     0.0000000     0.0000000     0.0000000     0.0000000     0.0000000
     0.0000000     0.0000000     0.0000000     0.0000000     0.0000000     0.0000000     0.0000000
     0.0000000     0.0000000     0.0000000     0.0000000     0.0000000     0.0000000     0.0000000
     0.0000000     0.0000000     0.0000000     0.0000000     0.0000000     0.0000000     0.0000000
     0.0000000     0.0000000     0.0000000     0.0000000     0.0000000     0.0000000     0.0000000
     0.0000000     0.0000000     0.0000000     0.0000000     0.0000000     0.0000000     0.0000000

 Ion:   18  E_soc:     -0.0556496
 l=   1
     0.0000000    -0.0025811    -0.0025470
    -0.0025811     0.0000000    -0.0025475
    -0.0025470    -0.0025475     0.0000000
 l=   2
     0.0000000    -0.0013547     0.0000000    -0.0013511    -0.0053653
    -0.0013547     0.0000000    -0.0040191    -0.0013540    -0.0013401
     0.0000000    -0.0040191     0.0000000    -0.0040240     0.0000000
    -0.0013511    -0.0013540    -0.0040240     0.0000000    -0.0013411
    -0.0053653    -0.0013401     0.0000000    -0.0013411     0.0000000
 l=   3
     0.0000000     0.0000000     0.0000000     0.0000000     0.0000000     0.0000000     0.0000000
     0.0000000     0.0000000     0.0000000     0.0000000     0.0000000     0.0000000     0.0000000
     0.0000000     0.0000000     0.0000000     0.0000000     0.0000000     0.0000000     0.0000000
     0.0000000     0.0000000     0.0000000     0.0000000     0.0000000     0.0000000     0.0000000
     0.0000000     0.0000000     0.0000000     0.0000000     0.0000000     0.0000000     0.0000000
     0.0000000     0.0000000     0.0000000     0.0000000     0.0000000     0.0000000     0.0000000
     0.0000000     0.0000000     0.0000000     0.0000000     0.0000000     0.0000000     0.0000000

 Ion:   19  E_soc:     -0.0555349
 l=   1
     0.0000000    -0.0025341    -0.0025367
    -0.0025341     0.0000000    -0.0025329
    -0.0025367    -0.0025329     0.0000000
 l=   2
     0.0000000    -0.0013555     0.0000000    -0.0013566    -0.0053639
    -0.0013555     0.0000000    -0.0040232    -0.0013569    -0.0013418
     0.0000000    -0.0040232     0.0000000    -0.0040252     0.0000000
    -0.0013566    -0.0013569    -0.0040252     0.0000000    -0.0013407
    -0.0053639    -0.0013418     0.0000000    -0.0013407     0.0000000
 l=   3
     0.0000000     0.0000000     0.0000000     0.0000000     0.0000000     0.0000000     0.0000000
     0.0000000     0.0000000     0.0000000     0.0000000     0.0000000     0.0000000     0.0000000
     0.0000000     0.0000000     0.0000000     0.0000000     0.0000000     0.0000000     0.0000000
     0.0000000     0.0000000     0.0000000     0.0000000     0.0000000     0.0000000     0.0000000
     0.0000000     0.0000000     0.0000000     0.0000000     0.0000000     0.0000000     0.0000000
     0.0000000     0.0000000     0.0000000     0.0000000     0.0000000     0.0000000     0.0000000
     0.0000000     0.0000000     0.0000000     0.0000000     0.0000000     0.0000000     0.0000000

 Ion:   20  E_soc:     -0.0556383
 l=   1
     0.0000000    -0.0025576    -0.0025478
    -0.0025576     0.0000000    -0.0025577
    -0.0025478    -0.0025577     0.0000000
 l=   2
     0.0000000    -0.0013565     0.0000000    -0.0013549    -0.0053652
    -0.0013565     0.0000000    -0.0040208    -0.0013562    -0.0013400
     0.0000000    -0.0040208     0.0000000    -0.0040217     0.0000000
    -0.0013549    -0.0013562    -0.0040217     0.0000000    -0.0013407
    -0.0053652    -0.0013400     0.0000000    -0.0013407     0.0000000
 l=   3
     0.0000000     0.0000000     0.0000000     0.0000000     0.0000000     0.0000000     0.0000000
     0.0000000     0.0000000     0.0000000     0.0000000     0.0000000     0.0000000     0.0000000
     0.0000000     0.0000000     0.0000000     0.0000000     0.0000000     0.0000000     0.0000000
     0.0000000     0.0000000     0.0000000     0.0000000     0.0000000     0.0000000     0.0000000
     0.0000000     0.0000000     0.0000000     0.0000000     0.0000000     0.0000000     0.0000000
     0.0000000     0.0000000     0.0000000     0.0000000     0.0000000     0.0000000     0.0000000
     0.0000000     0.0000000     0.0000000     0.0000000     0.0000000     0.0000000     0.0000000

 Ion:   21  E_soc:     -0.0556649
 l=   1
     0.0000000    -0.0025512    -0.0025828
    -0.0025512     0.0000000    -0.0025470
    -0.0025828    -0.0025470     0.0000000
 l=   2
     0.0000000    -0.0013544     0.0000000    -0.0013546    -0.0053608
    -0.0013544     0.0000000    -0.0040246    -0.0013506    -0.0013422
     0.0000000    -0.0040246     0.0000000    -0.0040220     0.0000000
    -0.0013546    -0.0013506    -0.0040220     0.0000000    -0.0013424
    -0.0053608    -0.0013422     0.0000000    -0.0013424     0.0000000
 l=   3
     0.0000000     0.0000000     0.0000000     0.0000000     0.0000000     0.0000000     0.0000000
     0.0000000     0.0000000     0.0000000     0.0000000     0.0000000     0.0000000     0.0000000
     0.0000000     0.0000000     0.0000000     0.0000000     0.0000000     0.0000000     0.0000000
     0.0000000     0.0000000     0.0000000     0.0000000     0.0000000     0.0000000     0.0000000
     0.0000000     0.0000000     0.0000000     0.0000000     0.0000000     0.0000000     0.0000000
     0.0000000     0.0000000     0.0000000     0.0000000     0.0000000     0.0000000     0.0000000
     0.0000000     0.0000000     0.0000000     0.0000000     0.0000000     0.0000000     0.0000000

 Ion:   22  E_soc:     -0.0546283
 l=   1
     0.0000000    -0.0023667    -0.0023723
    -0.0023667     0.0000000    -0.0023686
    -0.0023723    -0.0023686     0.0000000
 l=   2
     0.0000000    -0.0013598     0.0000000    -0.0013591    -0.0053773
    -0.0013598     0.0000000    -0.0040307    -0.0013599    -0.0013447
     0.0000000    -0.0040307     0.0000000    -0.0040313     0.0000000
    -0.0013591    -0.0013599    -0.0040313     0.0000000    -0.0013437
    -0.0053773    -0.0013447     0.0000000    -0.0013437     0.0000000
 l=   3
     0.0000000     0.0000000     0.0000000     0.0000000     0.0000000     0.0000000     0.0000000
     0.0000000     0.0000000     0.0000000     0.0000000     0.0000000     0.0000000     0.0000000
     0.0000000     0.0000000     0.0000000     0.0000000     0.0000000     0.0000000     0.0000000
     0.0000000     0.0000000     0.0000000     0.0000000     0.0000000     0.0000000     0.0000000
     0.0000000     0.0000000     0.0000000     0.0000000     0.0000000     0.0000000     0.0000000
     0.0000000     0.0000000     0.0000000     0.0000000     0.0000000     0.0000000     0.0000000
     0.0000000     0.0000000     0.0000000     0.0000000     0.0000000     0.0000000     0.0000000

 Ion:   23  E_soc:     -0.0556394
 l=   1
     0.0000000    -0.0025493    -0.0025598
    -0.0025493     0.0000000    -0.0025570
    -0.0025598    -0.0025570     0.0000000
 l=   2
     0.0000000    -0.0013558     0.0000000    -0.0013562    -0.0053632
    -0.0013558     0.0000000    -0.0040239    -0.0013548    -0.0013407
     0.0000000    -0.0040239     0.0000000    -0.0040193     0.0000000
    -0.0013562    -0.0013548    -0.0040193     0.0000000    -0.0013398
    -0.0053632    -0.0013407     0.0000000    -0.0013398     0.0000000
 l=   3
     0.0000000     0.0000000     0.0000000     0.0000000     0.0000000     0.0000000     0.0000000
     0.0000000     0.0000000     0.0000000     0.0000000     0.0000000     0.0000000     0.0000000
     0.0000000     0.0000000     0.0000000     0.0000000     0.0000000     0.0000000     0.0000000
     0.0000000     0.0000000     0.0000000     0.0000000     0.0000000     0.0000000     0.0000000
     0.0000000     0.0000000     0.0000000     0.0000000     0.0000000     0.0000000     0.0000000
     0.0000000     0.0000000     0.0000000     0.0000000     0.0000000     0.0000000     0.0000000
     0.0000000     0.0000000     0.0000000     0.0000000     0.0000000     0.0000000     0.0000000

 Ion:   24  E_soc:     -0.0556659
 l=   1
     0.0000000    -0.0025456    -0.0025494
    -0.0025456     0.0000000    -0.0025830
    -0.0025494    -0.0025830     0.0000000
 l=   2
     0.0000000    -0.0013509     0.0000000    -0.0013542    -0.0053671
    -0.0013509     0.0000000    -0.0040228    -0.0013553    -0.0013417
     0.0000000    -0.0040228     0.0000000    -0.0040220     0.0000000
    -0.0013542    -0.0013553    -0.0040220     0.0000000    -0.0013408
    -0.0053671    -0.0013417     0.0000000    -0.0013408     0.0000000
 l=   3
     0.0000000     0.0000000     0.0000000     0.0000000     0.0000000     0.0000000     0.0000000
     0.0000000     0.0000000     0.0000000     0.0000000     0.0000000     0.0000000     0.0000000
     0.0000000     0.0000000     0.0000000     0.0000000     0.0000000     0.0000000     0.0000000
     0.0000000     0.0000000     0.0000000     0.0000000     0.0000000     0.0000000     0.0000000
     0.0000000     0.0000000     0.0000000     0.0000000     0.0000000     0.0000000     0.0000000
     0.0000000     0.0000000     0.0000000     0.0000000     0.0000000     0.0000000     0.0000000
     0.0000000     0.0000000     0.0000000     0.0000000     0.0000000     0.0000000     0.0000000

 Ion:   25  E_soc:     -0.0556468
 l=   1
     0.0000000    -0.0025770    -0.0025478
    -0.0025770     0.0000000    -0.0025473
    -0.0025478    -0.0025473     0.0000000
 l=   2
     0.0000000    -0.0013536     0.0000000    -0.0013529    -0.0053640
    -0.0013536     0.0000000    -0.0040219    -0.0013533    -0.0013403
     0.0000000    -0.0040219     0.0000000    -0.0040241     0.0000000
    -0.0013529    -0.0013533    -0.0040241     0.0000000    -0.0013413
    -0.0053640    -0.0013403     0.0000000    -0.0013413     0.0000000
 l=   3
     0.0000000     0.0000000     0.0000000     0.0000000     0.0000000     0.0000000     0.0000000
     0.0000000     0.0000000     0.0000000     0.0000000     0.0000000     0.0000000     0.0000000
     0.0000000     0.0000000     0.0000000     0.0000000     0.0000000     0.0000000     0.0000000
     0.0000000     0.0000000     0.0000000     0.0000000     0.0000000     0.0000000     0.0000000
     0.0000000     0.0000000     0.0000000     0.0000000     0.0000000     0.0000000     0.0000000
     0.0000000     0.0000000     0.0000000     0.0000000     0.0000000     0.0000000     0.0000000
     0.0000000     0.0000000     0.0000000     0.0000000     0.0000000     0.0000000     0.0000000

 Ion:   26  E_soc:     -0.0556378
 l=   1
     0.0000000    -0.0025588    -0.0025564
    -0.0025588     0.0000000    -0.0025536
    -0.0025564    -0.0025536     0.0000000
 l=   2
     0.0000000    -0.0013556     0.0000000    -0.0013556    -0.0053607
    -0.0013556     0.0000000    -0.0040213    -0.0013530    -0.0013400
     0.0000000    -0.0040213     0.0000000    -0.0040215     0.0000000
    -0.0013556    -0.0013530    -0.0040215     0.0000000    -0.0013423
    -0.0053607    -0.0013400     0.0000000    -0.0013423     0.0000000
 l=   3
     0.0000000     0.0000000     0.0000000     0.0000000     0.0000000     0.0000000     0.0000000
     0.0000000     0.0000000     0.0000000     0.0000000     0.0000000     0.0000000     0.0000000
     0.0000000     0.0000000     0.0000000     0.0000000     0.0000000     0.0000000     0.0000000
     0.0000000     0.0000000     0.0000000     0.0000000     0.0000000     0.0000000     0.0000000
     0.0000000     0.0000000     0.0000000     0.0000000     0.0000000     0.0000000     0.0000000
     0.0000000     0.0000000     0.0000000     0.0000000     0.0000000     0.0000000     0.0000000
     0.0000000     0.0000000     0.0000000     0.0000000     0.0000000     0.0000000     0.0000000

 Ion:   27  E_soc:     -0.0556474
 l=   1
     0.0000000    -0.0025569    -0.0025507
    -0.0025569     0.0000000    -0.0025592
    -0.0025507    -0.0025592     0.0000000
 l=   2
     0.0000000    -0.0013556     0.0000000    -0.0013548    -0.0053648
    -0.0013556     0.0000000    -0.0040212    -0.0013564    -0.0013407
     0.0000000    -0.0040212     0.0000000    -0.0040230     0.0000000
    -0.0013548    -0.0013564    -0.0040230     0.0000000    -0.0013405
    -0.0053648    -0.0013407     0.0000000    -0.0013405     0.0000000
 l=   3
     0.0000000     0.0000000     0.0000000     0.0000000     0.0000000     0.0000000     0.0000000
     0.0000000     0.0000000     0.0000000     0.0000000     0.0000000     0.0000000     0.0000000
     0.0000000     0.0000000     0.0000000     0.0000000     0.0000000     0.0000000     0.0000000
     0.0000000     0.0000000     0.0000000     0.0000000     0.0000000     0.0000000     0.0000000
     0.0000000     0.0000000     0.0000000     0.0000000     0.0000000     0.0000000     0.0000000
     0.0000000     0.0000000     0.0000000     0.0000000     0.0000000     0.0000000     0.0000000
     0.0000000     0.0000000     0.0000000     0.0000000     0.0000000     0.0000000     0.0000000

 Ion:   28  E_soc:     -0.0555236
 l=   1
     0.0000000    -0.0025339    -0.0025328
    -0.0025339     0.0000000    -0.0025330
    -0.0025328    -0.0025330     0.0000000
 l=   2
     0.0000000    -0.0013543     0.0000000    -0.0013552    -0.0053658
    -0.0013543     0.0000000    -0.0040236    -0.0013559    -0.0013407
     0.0000000    -0.0040236     0.0000000    -0.0040252     0.0000000
    -0.0013552    -0.0013559    -0.0040252     0.0000000    -0.0013414
    -0.0053658    -0.0013407     0.0000000    -0.0013414     0.0000000
 l=   3
     0.0000000     0.0000000     0.0000000     0.0000000     0.0000000     0.0000000     0.0000000
     0.0000000     0.0000000     0.0000000     0.0000000     0.0000000     0.0000000     0.0000000
     0.0000000     0.0000000     0.0000000     0.0000000     0.0000000     0.0000000     0.0000000
     0.0000000     0.0000000     0.0000000     0.0000000     0.0000000     0.0000000     0.0000000
     0.0000000     0.0000000     0.0000000     0.0000000     0.0000000     0.0000000     0.0000000
     0.0000000     0.0000000     0.0000000     0.0000000     0.0000000     0.0000000     0.0000000
     0.0000000     0.0000000     0.0000000     0.0000000     0.0000000     0.0000000     0.0000000

 Ion:   29  E_soc:     -0.0546502
 l=   1
     0.0000000    -0.0023748    -0.0023747
    -0.0023748     0.0000000    -0.0023785
    -0.0023747    -0.0023785     0.0000000
 l=   2
     0.0000000    -0.0013612     0.0000000    -0.0013605    -0.0053738
    -0.0013612     0.0000000    -0.0040273    -0.0013626    -0.0013418
     0.0000000    -0.0040273     0.0000000    -0.0040262     0.0000000
    -0.0013605    -0.0013626    -0.0040262     0.0000000    -0.0013437
    -0.0053738    -0.0013418     0.0000000    -0.0013437     0.0000000
 l=   3
     0.0000000     0.0000000     0.0000000     0.0000000     0.0000000     0.0000000     0.0000000
     0.0000000     0.0000000     0.0000000     0.0000000     0.0000000     0.0000000     0.0000000
     0.0000000     0.0000000     0.0000000     0.0000000     0.0000000     0.0000000     0.0000000
     0.0000000     0.0000000     0.0000000     0.0000000     0.0000000     0.0000000     0.0000000
     0.0000000     0.0000000     0.0000000     0.0000000     0.0000000     0.0000000     0.0000000
     0.0000000     0.0000000     0.0000000     0.0000000     0.0000000     0.0000000     0.0000000
     0.0000000     0.0000000     0.0000000     0.0000000     0.0000000     0.0000000     0.0000000

 Ion:   30  E_soc:     -0.0556259
 l=   1
     0.0000000    -0.0025482    -0.0025744
    -0.0025482     0.0000000    -0.0025468
    -0.0025744    -0.0025468     0.0000000
 l=   2
     0.0000000    -0.0013528     0.0000000    -0.0013526    -0.0053602
    -0.0013528     0.0000000    -0.0040215    -0.0013503    -0.0013427
     0.0000000    -0.0040215     0.0000000    -0.0040226     0.0000000
    -0.0013526    -0.0013503    -0.0040226     0.0000000    -0.0013407
    -0.0053602    -0.0013427     0.0000000    -0.0013407     0.0000000
 l=   3
     0.0000000     0.0000000     0.0000000     0.0000000     0.0000000     0.0000000     0.0000000
     0.0000000     0.0000000     0.0000000     0.0000000     0.0000000     0.0000000     0.0000000
     0.0000000     0.0000000     0.0000000     0.0000000     0.0000000     0.0000000     0.0000000
     0.0000000     0.0000000     0.0000000     0.0000000     0.0000000     0.0000000     0.0000000
     0.0000000     0.0000000     0.0000000     0.0000000     0.0000000     0.0000000     0.0000000
     0.0000000     0.0000000     0.0000000     0.0000000     0.0000000     0.0000000     0.0000000
     0.0000000     0.0000000     0.0000000     0.0000000     0.0000000     0.0000000     0.0000000

 Ion:   31  E_soc:     -0.0556545
 l=   1
     0.0000000    -0.0025477    -0.0025497
    -0.0025477     0.0000000    -0.0025776
    -0.0025497    -0.0025776     0.0000000
 l=   2
     0.0000000    -0.0013527     0.0000000    -0.0013536    -0.0053660
    -0.0013527     0.0000000    -0.0040248    -0.0013548    -0.0013407
     0.0000000    -0.0040248     0.0000000    -0.0040198     0.0000000
    -0.0013536    -0.0013548    -0.0040198     0.0000000    -0.0013399
    -0.0053660    -0.0013407     0.0000000    -0.0013399     0.0000000
 l=   3
     0.0000000     0.0000000     0.0000000     0.0000000     0.0000000     0.0000000     0.0000000
     0.0000000     0.0000000     0.0000000     0.0000000     0.0000000     0.0000000     0.0000000
     0.0000000     0.0000000     0.0000000     0.0000000     0.0000000     0.0000000     0.0000000
     0.0000000     0.0000000     0.0000000     0.0000000     0.0000000     0.0000000     0.0000000
     0.0000000     0.0000000     0.0000000     0.0000000     0.0000000     0.0000000     0.0000000
     0.0000000     0.0000000     0.0000000     0.0000000     0.0000000     0.0000000     0.0000000
     0.0000000     0.0000000     0.0000000     0.0000000     0.0000000     0.0000000     0.0000000

 Ion:   32  E_soc:     -0.0556335
 l=   1
     0.0000000    -0.0025495    -0.0025580
    -0.0025495     0.0000000    -0.0025542
    -0.0025580    -0.0025542     0.0000000
 l=   2
     0.0000000    -0.0013549     0.0000000    -0.0013547    -0.0053609
    -0.0013549     0.0000000    -0.0040245    -0.0013570    -0.0013407
     0.0000000    -0.0040245     0.0000000    -0.0040217     0.0000000
    -0.0013547    -0.0013570    -0.0040217     0.0000000    -0.0013408
    -0.0053609    -0.0013407     0.0000000    -0.0013408     0.0000000
 l=   3
     0.0000000     0.0000000     0.0000000     0.0000000     0.0000000     0.0000000     0.0000000
     0.0000000     0.0000000     0.0000000     0.0000000     0.0000000     0.0000000     0.0000000
     0.0000000     0.0000000     0.0000000     0.0000000     0.0000000     0.0000000     0.0000000
     0.0000000     0.0000000     0.0000000     0.0000000     0.0000000     0.0000000     0.0000000
     0.0000000     0.0000000     0.0000000     0.0000000     0.0000000     0.0000000     0.0000000
     0.0000000     0.0000000     0.0000000     0.0000000     0.0000000     0.0000000     0.0000000
     0.0000000     0.0000000     0.0000000     0.0000000     0.0000000     0.0000000     0.0000000

 Ion:   33  E_soc:     -0.0505642
 l=   1
     0.0000000    -0.0014190    -0.0014193
    -0.0014190     0.0000000    -0.0014209
    -0.0014193    -0.0014209     0.0000000
 l=   2
     0.0000000    -0.0013637     0.0000000    -0.0013635    -0.0056442
    -0.0013637     0.0000000    -0.0042332    -0.0013638    -0.0014110
     0.0000000    -0.0042332     0.0000000    -0.0042329     0.0000000
    -0.0013635    -0.0013638    -0.0042329     0.0000000    -0.0014108
    -0.0056442    -0.0014110     0.0000000    -0.0014108     0.0000000
 l=   3
     0.0000000     0.0000000     0.0000000     0.0000000     0.0000000     0.0000000     0.0000000
     0.0000000     0.0000000     0.0000000     0.0000000     0.0000000     0.0000000     0.0000000
     0.0000000     0.0000000     0.0000000     0.0000000     0.0000000     0.0000000     0.0000000
     0.0000000     0.0000000     0.0000000     0.0000000     0.0000000     0.0000000     0.0000000
     0.0000000     0.0000000     0.0000000     0.0000000     0.0000000     0.0000000     0.0000000
     0.0000000     0.0000000     0.0000000     0.0000000     0.0000000     0.0000000     0.0000000
     0.0000000     0.0000000     0.0000000     0.0000000     0.0000000     0.0000000     0.0000000

 Ion:   34  E_soc:     -0.1853291
 l=   1
     0.0000000    -0.0307988    -0.0308055
    -0.0307988     0.0000000    -0.0308659
    -0.0308055    -0.0308659     0.0000000
 l=   2
     0.0000000    -0.0000299     0.0000000    -0.0000296    -0.0000347
    -0.0000299     0.0000000    -0.0000256    -0.0000290    -0.0000086
     0.0000000    -0.0000256     0.0000000    -0.0000272     0.0000000
    -0.0000296    -0.0000290    -0.0000272     0.0000000    -0.0000097
    -0.0000347    -0.0000086     0.0000000    -0.0000097     0.0000000
 l=   3
     0.0000000     0.0000000     0.0000000     0.0000000     0.0000000     0.0000000     0.0000000
     0.0000000     0.0000000     0.0000000     0.0000000     0.0000000     0.0000000     0.0000000
     0.0000000     0.0000000     0.0000000     0.0000000     0.0000000     0.0000000     0.0000000
     0.0000000     0.0000000     0.0000000     0.0000000     0.0000000     0.0000000     0.0000000
     0.0000000     0.0000000     0.0000000     0.0000000     0.0000000     0.0000000     0.0000000
     0.0000000     0.0000000     0.0000000     0.0000000     0.0000000     0.0000000     0.0000000
     0.0000000     0.0000000     0.0000000     0.0000000     0.0000000     0.0000000     0.0000000

 Ion:   35  E_soc:     -0.1883835
 l=   1
     0.0000000    -0.0312022    -0.0314148
    -0.0312022     0.0000000    -0.0314053
    -0.0314148    -0.0314053     0.0000000
 l=   2
     0.0000000    -0.0000265     0.0000000    -0.0000267    -0.0000300
    -0.0000265     0.0000000    -0.0000222    -0.0000266    -0.0000075
     0.0000000    -0.0000222     0.0000000    -0.0000227     0.0000000
    -0.0000267    -0.0000266    -0.0000227     0.0000000    -0.0000073
    -0.0000300    -0.0000075     0.0000000    -0.0000073     0.0000000
 l=   3
     0.0000000     0.0000000     0.0000000     0.0000000     0.0000000     0.0000000     0.0000000
     0.0000000     0.0000000     0.0000000     0.0000000     0.0000000     0.0000000     0.0000000
     0.0000000     0.0000000     0.0000000     0.0000000     0.0000000     0.0000000     0.0000000
     0.0000000     0.0000000     0.0000000     0.0000000     0.0000000     0.0000000     0.0000000
     0.0000000     0.0000000     0.0000000     0.0000000     0.0000000     0.0000000     0.0000000
     0.0000000     0.0000000     0.0000000     0.0000000     0.0000000     0.0000000     0.0000000
     0.0000000     0.0000000     0.0000000     0.0000000     0.0000000     0.0000000     0.0000000

 Ion:   36  E_soc:     -0.1854944
 l=   1
     0.0000000    -0.0308509    -0.0308521
    -0.0308509     0.0000000    -0.0308537
    -0.0308521    -0.0308537     0.0000000
 l=   2
     0.0000000    -0.0000293     0.0000000    -0.0000293    -0.0000342
    -0.0000293     0.0000000    -0.0000256    -0.0000295    -0.0000085
     0.0000000    -0.0000256     0.0000000    -0.0000256     0.0000000
    -0.0000293    -0.0000295    -0.0000256     0.0000000    -0.0000085
    -0.0000342    -0.0000085     0.0000000    -0.0000085     0.0000000
 l=   3
     0.0000000     0.0000000     0.0000000     0.0000000     0.0000000     0.0000000     0.0000000
     0.0000000     0.0000000     0.0000000     0.0000000     0.0000000     0.0000000     0.0000000
     0.0000000     0.0000000     0.0000000     0.0000000     0.0000000     0.0000000     0.0000000
     0.0000000     0.0000000     0.0000000     0.0000000     0.0000000     0.0000000     0.0000000
     0.0000000     0.0000000     0.0000000     0.0000000     0.0000000     0.0000000     0.0000000
     0.0000000     0.0000000     0.0000000     0.0000000     0.0000000     0.0000000     0.0000000
     0.0000000     0.0000000     0.0000000     0.0000000     0.0000000     0.0000000     0.0000000

 Ion:   37  E_soc:     -0.1853449
 l=   1
     0.0000000    -0.0308123    -0.0308617
    -0.0308123     0.0000000    -0.0308038
    -0.0308617    -0.0308038     0.0000000
 l=   2
     0.0000000    -0.0000291     0.0000000    -0.0000297    -0.0000369
    -0.0000291     0.0000000    -0.0000257    -0.0000300    -0.0000084
     0.0000000    -0.0000257     0.0000000    -0.0000262     0.0000000
    -0.0000297    -0.0000300    -0.0000262     0.0000000    -0.0000086
    -0.0000369    -0.0000084     0.0000000    -0.0000086     0.0000000
 l=   3
     0.0000000     0.0000000     0.0000000     0.0000000     0.0000000     0.0000000     0.0000000
     0.0000000     0.0000000     0.0000000     0.0000000     0.0000000     0.0000000     0.0000000
     0.0000000     0.0000000     0.0000000     0.0000000     0.0000000     0.0000000     0.0000000
     0.0000000     0.0000000     0.0000000     0.0000000     0.0000000     0.0000000     0.0000000
     0.0000000     0.0000000     0.0000000     0.0000000     0.0000000     0.0000000     0.0000000
     0.0000000     0.0000000     0.0000000     0.0000000     0.0000000     0.0000000     0.0000000
     0.0000000     0.0000000     0.0000000     0.0000000     0.0000000     0.0000000     0.0000000

 Ion:   38  E_soc:     -0.1854122
 l=   1
     0.0000000    -0.0308164    -0.0308289
    -0.0308164     0.0000000    -0.0308659
    -0.0308289    -0.0308659     0.0000000
 l=   2
     0.0000000    -0.0000300     0.0000000    -0.0000297    -0.0000348
    -0.0000300     0.0000000    -0.0000257    -0.0000291    -0.0000087
     0.0000000    -0.0000257     0.0000000    -0.0000274     0.0000000
    -0.0000297    -0.0000291    -0.0000274     0.0000000    -0.0000097
    -0.0000348    -0.0000087     0.0000000    -0.0000097     0.0000000
 l=   3
     0.0000000     0.0000000     0.0000000     0.0000000     0.0000000     0.0000000     0.0000000
     0.0000000     0.0000000     0.0000000     0.0000000     0.0000000     0.0000000     0.0000000
     0.0000000     0.0000000     0.0000000     0.0000000     0.0000000     0.0000000     0.0000000
     0.0000000     0.0000000     0.0000000     0.0000000     0.0000000     0.0000000     0.0000000
     0.0000000     0.0000000     0.0000000     0.0000000     0.0000000     0.0000000     0.0000000
     0.0000000     0.0000000     0.0000000     0.0000000     0.0000000     0.0000000     0.0000000
     0.0000000     0.0000000     0.0000000     0.0000000     0.0000000     0.0000000     0.0000000

 Ion:   39  E_soc:     -0.1883271
 l=   1
     0.0000000    -0.0312036    -0.0313927
    -0.0312036     0.0000000    -0.0313973
    -0.0313927    -0.0313973     0.0000000
 l=   2
     0.0000000    -0.0000266     0.0000000    -0.0000267    -0.0000303
    -0.0000266     0.0000000    -0.0000224    -0.0000265    -0.0000075
     0.0000000    -0.0000224     0.0000000    -0.0000228     0.0000000
    -0.0000267    -0.0000265    -0.0000228     0.0000000    -0.0000073
    -0.0000303    -0.0000075     0.0000000    -0.0000073     0.0000000
 l=   3
     0.0000000     0.0000000     0.0000000     0.0000000     0.0000000     0.0000000     0.0000000
     0.0000000     0.0000000     0.0000000     0.0000000     0.0000000     0.0000000     0.0000000
     0.0000000     0.0000000     0.0000000     0.0000000     0.0000000     0.0000000     0.0000000
     0.0000000     0.0000000     0.0000000     0.0000000     0.0000000     0.0000000     0.0000000
     0.0000000     0.0000000     0.0000000     0.0000000     0.0000000     0.0000000     0.0000000
     0.0000000     0.0000000     0.0000000     0.0000000     0.0000000     0.0000000     0.0000000
     0.0000000     0.0000000     0.0000000     0.0000000     0.0000000     0.0000000     0.0000000

 Ion:   40  E_soc:     -0.1854482
 l=   1
     0.0000000    -0.0308573    -0.0308432
    -0.0308573     0.0000000    -0.0308334
    -0.0308432    -0.0308334     0.0000000
 l=   2
     0.0000000    -0.0000294     0.0000000    -0.0000293    -0.0000341
    -0.0000294     0.0000000    -0.0000255    -0.0000294    -0.0000085
     0.0000000    -0.0000255     0.0000000    -0.0000255     0.0000000
    -0.0000293    -0.0000294    -0.0000255     0.0000000    -0.0000085
    -0.0000341    -0.0000085     0.0000000    -0.0000085     0.0000000
 l=   3
     0.0000000     0.0000000     0.0000000     0.0000000     0.0000000     0.0000000     0.0000000
     0.0000000     0.0000000     0.0000000     0.0000000     0.0000000     0.0000000     0.0000000
     0.0000000     0.0000000     0.0000000     0.0000000     0.0000000     0.0000000     0.0000000
     0.0000000     0.0000000     0.0000000     0.0000000     0.0000000     0.0000000     0.0000000
     0.0000000     0.0000000     0.0000000     0.0000000     0.0000000     0.0000000     0.0000000
     0.0000000     0.0000000     0.0000000     0.0000000     0.0000000     0.0000000     0.0000000
     0.0000000     0.0000000     0.0000000     0.0000000     0.0000000     0.0000000     0.0000000

 Ion:   41  E_soc:     -0.1853586
 l=   1
     0.0000000    -0.0308240    -0.0308560
    -0.0308240     0.0000000    -0.0308047
    -0.0308560    -0.0308047     0.0000000
 l=   2
     0.0000000    -0.0000291     0.0000000    -0.0000296    -0.0000371
    -0.0000291     0.0000000    -0.0000256    -0.0000300    -0.0000084
     0.0000000    -0.0000256     0.0000000    -0.0000261     0.0000000
    -0.0000296    -0.0000300    -0.0000261     0.0000000    -0.0000086
    -0.0000371    -0.0000084     0.0000000    -0.0000086     0.0000000
 l=   3
     0.0000000     0.0000000     0.0000000     0.0000000     0.0000000     0.0000000     0.0000000
     0.0000000     0.0000000     0.0000000     0.0000000     0.0000000     0.0000000     0.0000000
     0.0000000     0.0000000     0.0000000     0.0000000     0.0000000     0.0000000     0.0000000
     0.0000000     0.0000000     0.0000000     0.0000000     0.0000000     0.0000000     0.0000000
     0.0000000     0.0000000     0.0000000     0.0000000     0.0000000     0.0000000     0.0000000
     0.0000000     0.0000000     0.0000000     0.0000000     0.0000000     0.0000000     0.0000000
     0.0000000     0.0000000     0.0000000     0.0000000     0.0000000     0.0000000     0.0000000

 Ion:   42  E_soc:     -0.1852628
 l=   1
     0.0000000    -0.0308086    -0.0308202
    -0.0308086     0.0000000    -0.0308173
    -0.0308202    -0.0308173     0.0000000
 l=   2
     0.0000000    -0.0000286     0.0000000    -0.0000286    -0.0000332
    -0.0000286     0.0000000    -0.0000249    -0.0000287    -0.0000082
     0.0000000    -0.0000249     0.0000000    -0.0000250     0.0000000
    -0.0000286    -0.0000287    -0.0000250     0.0000000    -0.0000083
    -0.0000332    -0.0000082     0.0000000    -0.0000083     0.0000000
 l=   3
     0.0000000     0.0000000     0.0000000     0.0000000     0.0000000     0.0000000     0.0000000
     0.0000000     0.0000000     0.0000000     0.0000000     0.0000000     0.0000000     0.0000000
     0.0000000     0.0000000     0.0000000     0.0000000     0.0000000     0.0000000     0.0000000
     0.0000000     0.0000000     0.0000000     0.0000000     0.0000000     0.0000000     0.0000000
     0.0000000     0.0000000     0.0000000     0.0000000     0.0000000     0.0000000     0.0000000
     0.0000000     0.0000000     0.0000000     0.0000000     0.0000000     0.0000000     0.0000000
     0.0000000     0.0000000     0.0000000     0.0000000     0.0000000     0.0000000     0.0000000

 Ion:   43  E_soc:     -0.1857174
 l=   1
     0.0000000    -0.0308900    -0.0308794
    -0.0308900     0.0000000    -0.0308936
    -0.0308794    -0.0308936     0.0000000
 l=   2
     0.0000000    -0.0000302     0.0000000    -0.0000302    -0.0000351
    -0.0000302     0.0000000    -0.0000261    -0.0000304    -0.0000088
     0.0000000    -0.0000261     0.0000000    -0.0000262     0.0000000
    -0.0000302    -0.0000304    -0.0000262     0.0000000    -0.0000088
    -0.0000351    -0.0000088     0.0000000    -0.0000088     0.0000000
 l=   3
     0.0000000     0.0000000     0.0000000     0.0000000     0.0000000     0.0000000     0.0000000
     0.0000000     0.0000000     0.0000000     0.0000000     0.0000000     0.0000000     0.0000000
     0.0000000     0.0000000     0.0000000     0.0000000     0.0000000     0.0000000     0.0000000
     0.0000000     0.0000000     0.0000000     0.0000000     0.0000000     0.0000000     0.0000000
     0.0000000     0.0000000     0.0000000     0.0000000     0.0000000     0.0000000     0.0000000
     0.0000000     0.0000000     0.0000000     0.0000000     0.0000000     0.0000000     0.0000000
     0.0000000     0.0000000     0.0000000     0.0000000     0.0000000     0.0000000     0.0000000

 Ion:   44  E_soc:     -0.1857088
 l=   1
     0.0000000    -0.0308888    -0.0308809
    -0.0308888     0.0000000    -0.0308893
    -0.0308809    -0.0308893     0.0000000
 l=   2
     0.0000000    -0.0000301     0.0000000    -0.0000301    -0.0000349
    -0.0000301     0.0000000    -0.0000263    -0.0000301    -0.0000088
     0.0000000    -0.0000263     0.0000000    -0.0000263     0.0000000
    -0.0000301    -0.0000301    -0.0000263     0.0000000    -0.0000087
    -0.0000349    -0.0000088     0.0000000    -0.0000087     0.0000000
 l=   3
     0.0000000     0.0000000     0.0000000     0.0000000     0.0000000     0.0000000     0.0000000
     0.0000000     0.0000000     0.0000000     0.0000000     0.0000000     0.0000000     0.0000000
     0.0000000     0.0000000     0.0000000     0.0000000     0.0000000     0.0000000     0.0000000
     0.0000000     0.0000000     0.0000000     0.0000000     0.0000000     0.0000000     0.0000000
     0.0000000     0.0000000     0.0000000     0.0000000     0.0000000     0.0000000     0.0000000
     0.0000000     0.0000000     0.0000000     0.0000000     0.0000000     0.0000000     0.0000000
     0.0000000     0.0000000     0.0000000     0.0000000     0.0000000     0.0000000     0.0000000

 Ion:   45  E_soc:     -0.1853440
 l=   1
     0.0000000    -0.0308311    -0.0308268
    -0.0308311     0.0000000    -0.0308284
    -0.0308268    -0.0308284     0.0000000
 l=   2
     0.0000000    -0.0000286     0.0000000    -0.0000287    -0.0000333
    -0.0000286     0.0000000    -0.0000249    -0.0000286    -0.0000083
     0.0000000    -0.0000249     0.0000000    -0.0000249     0.0000000
    -0.0000287    -0.0000286    -0.0000249     0.0000000    -0.0000083
    -0.0000333    -0.0000083     0.0000000    -0.0000083     0.0000000
 l=   3
     0.0000000     0.0000000     0.0000000     0.0000000     0.0000000     0.0000000     0.0000000
     0.0000000     0.0000000     0.0000000     0.0000000     0.0000000     0.0000000     0.0000000
     0.0000000     0.0000000     0.0000000     0.0000000     0.0000000     0.0000000     0.0000000
     0.0000000     0.0000000     0.0000000     0.0000000     0.0000000     0.0000000     0.0000000
     0.0000000     0.0000000     0.0000000     0.0000000     0.0000000     0.0000000     0.0000000
     0.0000000     0.0000000     0.0000000     0.0000000     0.0000000     0.0000000     0.0000000
     0.0000000     0.0000000     0.0000000     0.0000000     0.0000000     0.0000000     0.0000000

 Ion:   46  E_soc:     -0.1857094
 l=   1
     0.0000000    -0.0308829    -0.0308930
    -0.0308829     0.0000000    -0.0308833
    -0.0308930    -0.0308833     0.0000000
 l=   2
     0.0000000    -0.0000303     0.0000000    -0.0000303    -0.0000349
    -0.0000303     0.0000000    -0.0000264    -0.0000301    -0.0000088
     0.0000000    -0.0000264     0.0000000    -0.0000262     0.0000000
    -0.0000303    -0.0000301    -0.0000262     0.0000000    -0.0000087
    -0.0000349    -0.0000088     0.0000000    -0.0000087     0.0000000
 l=   3
     0.0000000     0.0000000     0.0000000     0.0000000     0.0000000     0.0000000     0.0000000
     0.0000000     0.0000000     0.0000000     0.0000000     0.0000000     0.0000000     0.0000000
     0.0000000     0.0000000     0.0000000     0.0000000     0.0000000     0.0000000     0.0000000
     0.0000000     0.0000000     0.0000000     0.0000000     0.0000000     0.0000000     0.0000000
     0.0000000     0.0000000     0.0000000     0.0000000     0.0000000     0.0000000     0.0000000
     0.0000000     0.0000000     0.0000000     0.0000000     0.0000000     0.0000000     0.0000000
     0.0000000     0.0000000     0.0000000     0.0000000     0.0000000     0.0000000     0.0000000

 Ion:   47  E_soc:     -0.1853570
 l=   1
     0.0000000    -0.0308341    -0.0308294
    -0.0308341     0.0000000    -0.0308297
    -0.0308294    -0.0308297     0.0000000
 l=   2
     0.0000000    -0.0000285     0.0000000    -0.0000286    -0.0000331
    -0.0000285     0.0000000    -0.0000249    -0.0000285    -0.0000084
     0.0000000    -0.0000249     0.0000000    -0.0000250     0.0000000
    -0.0000286    -0.0000285    -0.0000250     0.0000000    -0.0000083
    -0.0000331    -0.0000084     0.0000000    -0.0000083     0.0000000
 l=   3
     0.0000000     0.0000000     0.0000000     0.0000000     0.0000000     0.0000000     0.0000000
     0.0000000     0.0000000     0.0000000     0.0000000     0.0000000     0.0000000     0.0000000
     0.0000000     0.0000000     0.0000000     0.0000000     0.0000000     0.0000000     0.0000000
     0.0000000     0.0000000     0.0000000     0.0000000     0.0000000     0.0000000     0.0000000
     0.0000000     0.0000000     0.0000000     0.0000000     0.0000000     0.0000000     0.0000000
     0.0000000     0.0000000     0.0000000     0.0000000     0.0000000     0.0000000     0.0000000
     0.0000000     0.0000000     0.0000000     0.0000000     0.0000000     0.0000000     0.0000000

 Ion:   48  E_soc:     -0.1853851
 l=   1
     0.0000000    -0.0308410    -0.0308385
    -0.0308410     0.0000000    -0.0308273
    -0.0308385    -0.0308273     0.0000000
 l=   2
     0.0000000    -0.0000287     0.0000000    -0.0000286    -0.0000333
    -0.0000287     0.0000000    -0.0000249    -0.0000286    -0.0000083
     0.0000000    -0.0000249     0.0000000    -0.0000250     0.0000000
    -0.0000286    -0.0000286    -0.0000250     0.0000000    -0.0000083
    -0.0000333    -0.0000083     0.0000000    -0.0000083     0.0000000
 l=   3
     0.0000000     0.0000000     0.0000000     0.0000000     0.0000000     0.0000000     0.0000000
     0.0000000     0.0000000     0.0000000     0.0000000     0.0000000     0.0000000     0.0000000
     0.0000000     0.0000000     0.0000000     0.0000000     0.0000000     0.0000000     0.0000000
     0.0000000     0.0000000     0.0000000     0.0000000     0.0000000     0.0000000     0.0000000
     0.0000000     0.0000000     0.0000000     0.0000000     0.0000000     0.0000000     0.0000000
     0.0000000     0.0000000     0.0000000     0.0000000     0.0000000     0.0000000     0.0000000
     0.0000000     0.0000000     0.0000000     0.0000000     0.0000000     0.0000000     0.0000000

 Ion:   49  E_soc:     -0.1858067
 l=   1
     0.0000000    -0.0308969    -0.0309068
    -0.0308969     0.0000000    -0.0309043
    -0.0309068    -0.0309043     0.0000000
 l=   2
     0.0000000    -0.0000302     0.0000000    -0.0000302    -0.0000348
    -0.0000302     0.0000000    -0.0000262    -0.0000302    -0.0000088
     0.0000000    -0.0000262     0.0000000    -0.0000261     0.0000000
    -0.0000302    -0.0000302    -0.0000261     0.0000000    -0.0000087
    -0.0000348    -0.0000088     0.0000000    -0.0000087     0.0000000
 l=   3
     0.0000000     0.0000000     0.0000000     0.0000000     0.0000000     0.0000000     0.0000000
     0.0000000     0.0000000     0.0000000     0.0000000     0.0000000     0.0000000     0.0000000
     0.0000000     0.0000000     0.0000000     0.0000000     0.0000000     0.0000000     0.0000000
     0.0000000     0.0000000     0.0000000     0.0000000     0.0000000     0.0000000     0.0000000
     0.0000000     0.0000000     0.0000000     0.0000000     0.0000000     0.0000000     0.0000000
     0.0000000     0.0000000     0.0000000     0.0000000     0.0000000     0.0000000     0.0000000
     0.0000000     0.0000000     0.0000000     0.0000000     0.0000000     0.0000000     0.0000000

 Ion:   50  E_soc:     -0.1853667
 l=   1
     0.0000000    -0.0308079    -0.0308090
    -0.0308079     0.0000000    -0.0308717
    -0.0308090    -0.0308717     0.0000000
 l=   2
     0.0000000    -0.0000300     0.0000000    -0.0000292    -0.0000342
    -0.0000300     0.0000000    -0.0000260    -0.0000296    -0.0000088
     0.0000000    -0.0000260     0.0000000    -0.0000282     0.0000000
    -0.0000292    -0.0000296    -0.0000282     0.0000000    -0.0000089
    -0.0000342    -0.0000088     0.0000000    -0.0000089     0.0000000
 l=   3
     0.0000000     0.0000000     0.0000000     0.0000000     0.0000000     0.0000000     0.0000000
     0.0000000     0.0000000     0.0000000     0.0000000     0.0000000     0.0000000     0.0000000
     0.0000000     0.0000000     0.0000000     0.0000000     0.0000000     0.0000000     0.0000000
     0.0000000     0.0000000     0.0000000     0.0000000     0.0000000     0.0000000     0.0000000
     0.0000000     0.0000000     0.0000000     0.0000000     0.0000000     0.0000000     0.0000000
     0.0000000     0.0000000     0.0000000     0.0000000     0.0000000     0.0000000     0.0000000
     0.0000000     0.0000000     0.0000000     0.0000000     0.0000000     0.0000000     0.0000000

 Ion:   51  E_soc:     -0.1853966
 l=   1
     0.0000000    -0.0308114    -0.0308171
    -0.0308114     0.0000000    -0.0308752
    -0.0308171    -0.0308752     0.0000000
 l=   2
     0.0000000    -0.0000299     0.0000000    -0.0000291    -0.0000340
    -0.0000299     0.0000000    -0.0000260    -0.0000297    -0.0000088
     0.0000000    -0.0000260     0.0000000    -0.0000282     0.0000000
    -0.0000291    -0.0000297    -0.0000282     0.0000000    -0.0000089
    -0.0000340    -0.0000088     0.0000000    -0.0000089     0.0000000
 l=   3
     0.0000000     0.0000000     0.0000000     0.0000000     0.0000000     0.0000000     0.0000000
     0.0000000     0.0000000     0.0000000     0.0000000     0.0000000     0.0000000     0.0000000
     0.0000000     0.0000000     0.0000000     0.0000000     0.0000000     0.0000000     0.0000000
     0.0000000     0.0000000     0.0000000     0.0000000     0.0000000     0.0000000     0.0000000
     0.0000000     0.0000000     0.0000000     0.0000000     0.0000000     0.0000000     0.0000000
     0.0000000     0.0000000     0.0000000     0.0000000     0.0000000     0.0000000     0.0000000
     0.0000000     0.0000000     0.0000000     0.0000000     0.0000000     0.0000000     0.0000000

 Ion:   52  E_soc:     -0.1854721
 l=   1
     0.0000000    -0.0308462    -0.0308554
    -0.0308462     0.0000000    -0.0308445
    -0.0308554    -0.0308445     0.0000000
 l=   2
     0.0000000    -0.0000294     0.0000000    -0.0000292    -0.0000339
    -0.0000294     0.0000000    -0.0000256    -0.0000293    -0.0000085
     0.0000000    -0.0000256     0.0000000    -0.0000256     0.0000000
    -0.0000292    -0.0000293    -0.0000256     0.0000000    -0.0000084
    -0.0000339    -0.0000085     0.0000000    -0.0000084     0.0000000
 l=   3
     0.0000000     0.0000000     0.0000000     0.0000000     0.0000000     0.0000000     0.0000000
     0.0000000     0.0000000     0.0000000     0.0000000     0.0000000     0.0000000     0.0000000
     0.0000000     0.0000000     0.0000000     0.0000000     0.0000000     0.0000000     0.0000000
     0.0000000     0.0000000     0.0000000     0.0000000     0.0000000     0.0000000     0.0000000
     0.0000000     0.0000000     0.0000000     0.0000000     0.0000000     0.0000000     0.0000000
     0.0000000     0.0000000     0.0000000     0.0000000     0.0000000     0.0000000     0.0000000
     0.0000000     0.0000000     0.0000000     0.0000000     0.0000000     0.0000000     0.0000000

 Ion:   53  E_soc:     -0.1854523
 l=   1
     0.0000000    -0.0308361    -0.0308568
    -0.0308361     0.0000000    -0.0308434
    -0.0308568    -0.0308434     0.0000000
 l=   2
     0.0000000    -0.0000292     0.0000000    -0.0000293    -0.0000340
    -0.0000292     0.0000000    -0.0000255    -0.0000293    -0.0000085
     0.0000000    -0.0000255     0.0000000    -0.0000257     0.0000000
    -0.0000293    -0.0000293    -0.0000257     0.0000000    -0.0000085
    -0.0000340    -0.0000085     0.0000000    -0.0000085     0.0000000
 l=   3
     0.0000000     0.0000000     0.0000000     0.0000000     0.0000000     0.0000000     0.0000000
     0.0000000     0.0000000     0.0000000     0.0000000     0.0000000     0.0000000     0.0000000
     0.0000000     0.0000000     0.0000000     0.0000000     0.0000000     0.0000000     0.0000000
     0.0000000     0.0000000     0.0000000     0.0000000     0.0000000     0.0000000     0.0000000
     0.0000000     0.0000000     0.0000000     0.0000000     0.0000000     0.0000000     0.0000000
     0.0000000     0.0000000     0.0000000     0.0000000     0.0000000     0.0000000     0.0000000
     0.0000000     0.0000000     0.0000000     0.0000000     0.0000000     0.0000000     0.0000000

 Ion:   54  E_soc:     -0.1883632
 l=   1
     0.0000000    -0.0313951    -0.0312059
    -0.0313951     0.0000000    -0.0314111
    -0.0312059    -0.0314111     0.0000000
 l=   2
     0.0000000    -0.0000267     0.0000000    -0.0000266    -0.0000296
    -0.0000267     0.0000000    -0.0000222    -0.0000267    -0.0000077
     0.0000000    -0.0000222     0.0000000    -0.0000222     0.0000000
    -0.0000266    -0.0000267    -0.0000222     0.0000000    -0.0000077
    -0.0000296    -0.0000077     0.0000000    -0.0000077     0.0000000
 l=   3
     0.0000000     0.0000000     0.0000000     0.0000000     0.0000000     0.0000000     0.0000000
     0.0000000     0.0000000     0.0000000     0.0000000     0.0000000     0.0000000     0.0000000
     0.0000000     0.0000000     0.0000000     0.0000000     0.0000000     0.0000000     0.0000000
     0.0000000     0.0000000     0.0000000     0.0000000     0.0000000     0.0000000     0.0000000
     0.0000000     0.0000000     0.0000000     0.0000000     0.0000000     0.0000000     0.0000000
     0.0000000     0.0000000     0.0000000     0.0000000     0.0000000     0.0000000     0.0000000
     0.0000000     0.0000000     0.0000000     0.0000000     0.0000000     0.0000000     0.0000000

 Ion:   55  E_soc:     -0.1883080
 l=   1
     0.0000000    -0.0313933    -0.0312017
    -0.0313933     0.0000000    -0.0313892
    -0.0312017    -0.0313892     0.0000000
 l=   2
     0.0000000    -0.0000265     0.0000000    -0.0000265    -0.0000297
    -0.0000265     0.0000000    -0.0000224    -0.0000268    -0.0000077
     0.0000000    -0.0000224     0.0000000    -0.0000224     0.0000000
    -0.0000265    -0.0000268    -0.0000224     0.0000000    -0.0000077
    -0.0000297    -0.0000077     0.0000000    -0.0000077     0.0000000
 l=   3
     0.0000000     0.0000000     0.0000000     0.0000000     0.0000000     0.0000000     0.0000000
     0.0000000     0.0000000     0.0000000     0.0000000     0.0000000     0.0000000     0.0000000
     0.0000000     0.0000000     0.0000000     0.0000000     0.0000000     0.0000000     0.0000000
     0.0000000     0.0000000     0.0000000     0.0000000     0.0000000     0.0000000     0.0000000
     0.0000000     0.0000000     0.0000000     0.0000000     0.0000000     0.0000000     0.0000000
     0.0000000     0.0000000     0.0000000     0.0000000     0.0000000     0.0000000     0.0000000
     0.0000000     0.0000000     0.0000000     0.0000000     0.0000000     0.0000000     0.0000000

 Ion:   56  E_soc:     -0.1853635
 l=   1
     0.0000000    -0.0308713    -0.0308146
    -0.0308713     0.0000000    -0.0308012
    -0.0308146    -0.0308012     0.0000000
 l=   2
     0.0000000    -0.0000292     0.0000000    -0.0000299    -0.0000341
    -0.0000292     0.0000000    -0.0000282    -0.0000297    -0.0000088
     0.0000000    -0.0000282     0.0000000    -0.0000259     0.0000000
    -0.0000299    -0.0000297    -0.0000259     0.0000000    -0.0000089
    -0.0000341    -0.0000088     0.0000000    -0.0000089     0.0000000
 l=   3
     0.0000000     0.0000000     0.0000000     0.0000000     0.0000000     0.0000000     0.0000000
     0.0000000     0.0000000     0.0000000     0.0000000     0.0000000     0.0000000     0.0000000
     0.0000000     0.0000000     0.0000000     0.0000000     0.0000000     0.0000000     0.0000000
     0.0000000     0.0000000     0.0000000     0.0000000     0.0000000     0.0000000     0.0000000
     0.0000000     0.0000000     0.0000000     0.0000000     0.0000000     0.0000000     0.0000000
     0.0000000     0.0000000     0.0000000     0.0000000     0.0000000     0.0000000     0.0000000
     0.0000000     0.0000000     0.0000000     0.0000000     0.0000000     0.0000000     0.0000000

 Ion:   57  E_soc:     -0.1854173
 l=   1
     0.0000000    -0.0308778    -0.0308164
    -0.0308778     0.0000000    -0.0308199
    -0.0308164    -0.0308199     0.0000000
 l=   2
     0.0000000    -0.0000292     0.0000000    -0.0000300    -0.0000341
    -0.0000292     0.0000000    -0.0000281    -0.0000296    -0.0000088
     0.0000000    -0.0000281     0.0000000    -0.0000260     0.0000000
    -0.0000300    -0.0000296    -0.0000260     0.0000000    -0.0000088
    -0.0000341    -0.0000088     0.0000000    -0.0000088     0.0000000
 l=   3
     0.0000000     0.0000000     0.0000000     0.0000000     0.0000000     0.0000000     0.0000000
     0.0000000     0.0000000     0.0000000     0.0000000     0.0000000     0.0000000     0.0000000
     0.0000000     0.0000000     0.0000000     0.0000000     0.0000000     0.0000000     0.0000000
     0.0000000     0.0000000     0.0000000     0.0000000     0.0000000     0.0000000     0.0000000
     0.0000000     0.0000000     0.0000000     0.0000000     0.0000000     0.0000000     0.0000000
     0.0000000     0.0000000     0.0000000     0.0000000     0.0000000     0.0000000     0.0000000
     0.0000000     0.0000000     0.0000000     0.0000000     0.0000000     0.0000000     0.0000000

 Ion:   58  E_soc:     -0.1855072
 l=   1
     0.0000000    -0.0308606    -0.0308570
    -0.0308606     0.0000000    -0.0308457
    -0.0308570    -0.0308457     0.0000000
 l=   2
     0.0000000    -0.0000294     0.0000000    -0.0000293    -0.0000339
    -0.0000294     0.0000000    -0.0000256    -0.0000293    -0.0000086
     0.0000000    -0.0000256     0.0000000    -0.0000255     0.0000000
    -0.0000293    -0.0000293    -0.0000255     0.0000000    -0.0000085
    -0.0000339    -0.0000086     0.0000000    -0.0000085     0.0000000
 l=   3
     0.0000000     0.0000000     0.0000000     0.0000000     0.0000000     0.0000000     0.0000000
     0.0000000     0.0000000     0.0000000     0.0000000     0.0000000     0.0000000     0.0000000
     0.0000000     0.0000000     0.0000000     0.0000000     0.0000000     0.0000000     0.0000000
     0.0000000     0.0000000     0.0000000     0.0000000     0.0000000     0.0000000     0.0000000
     0.0000000     0.0000000     0.0000000     0.0000000     0.0000000     0.0000000     0.0000000
     0.0000000     0.0000000     0.0000000     0.0000000     0.0000000     0.0000000     0.0000000
     0.0000000     0.0000000     0.0000000     0.0000000     0.0000000     0.0000000     0.0000000

 Ion:   59  E_soc:     -0.1853770
 l=   1
     0.0000000    -0.0308106    -0.0308683
    -0.0308106     0.0000000    -0.0308146
    -0.0308683    -0.0308146     0.0000000
 l=   2
     0.0000000    -0.0000296     0.0000000    -0.0000292    -0.0000371
    -0.0000296     0.0000000    -0.0000262    -0.0000300    -0.0000086
     0.0000000    -0.0000262     0.0000000    -0.0000257     0.0000000
    -0.0000292    -0.0000300    -0.0000257     0.0000000    -0.0000085
    -0.0000371    -0.0000086     0.0000000    -0.0000085     0.0000000
 l=   3
     0.0000000     0.0000000     0.0000000     0.0000000     0.0000000     0.0000000     0.0000000
     0.0000000     0.0000000     0.0000000     0.0000000     0.0000000     0.0000000     0.0000000
     0.0000000     0.0000000     0.0000000     0.0000000     0.0000000     0.0000000     0.0000000
     0.0000000     0.0000000     0.0000000     0.0000000     0.0000000     0.0000000     0.0000000
     0.0000000     0.0000000     0.0000000     0.0000000     0.0000000     0.0000000     0.0000000
     0.0000000     0.0000000     0.0000000     0.0000000     0.0000000     0.0000000     0.0000000
     0.0000000     0.0000000     0.0000000     0.0000000     0.0000000     0.0000000     0.0000000

 Ion:   60  E_soc:     -0.1854663
 l=   1
     0.0000000    -0.0308446    -0.0308407
    -0.0308446     0.0000000    -0.0308580
    -0.0308407    -0.0308580     0.0000000
 l=   2
     0.0000000    -0.0000293     0.0000000    -0.0000293    -0.0000340
    -0.0000293     0.0000000    -0.0000255    -0.0000292    -0.0000086
     0.0000000    -0.0000255     0.0000000    -0.0000255     0.0000000
    -0.0000293    -0.0000292    -0.0000255     0.0000000    -0.0000085
    -0.0000340    -0.0000086     0.0000000    -0.0000085     0.0000000
 l=   3
     0.0000000     0.0000000     0.0000000     0.0000000     0.0000000     0.0000000     0.0000000
     0.0000000     0.0000000     0.0000000     0.0000000     0.0000000     0.0000000     0.0000000
     0.0000000     0.0000000     0.0000000     0.0000000     0.0000000     0.0000000     0.0000000
     0.0000000     0.0000000     0.0000000     0.0000000     0.0000000     0.0000000     0.0000000
     0.0000000     0.0000000     0.0000000     0.0000000     0.0000000     0.0000000     0.0000000
     0.0000000     0.0000000     0.0000000     0.0000000     0.0000000     0.0000000     0.0000000
     0.0000000     0.0000000     0.0000000     0.0000000     0.0000000     0.0000000     0.0000000

 Ion:   61  E_soc:     -0.1853711
 l=   1
     0.0000000    -0.0307998    -0.0308748
    -0.0307998     0.0000000    -0.0308163
    -0.0308748    -0.0308163     0.0000000
 l=   2
     0.0000000    -0.0000296     0.0000000    -0.0000290    -0.0000371
    -0.0000296     0.0000000    -0.0000262    -0.0000299    -0.0000085
     0.0000000    -0.0000262     0.0000000    -0.0000257     0.0000000
    -0.0000290    -0.0000299    -0.0000257     0.0000000    -0.0000084
    -0.0000371    -0.0000085     0.0000000    -0.0000084     0.0000000
 l=   3
     0.0000000     0.0000000     0.0000000     0.0000000     0.0000000     0.0000000     0.0000000
     0.0000000     0.0000000     0.0000000     0.0000000     0.0000000     0.0000000     0.0000000
     0.0000000     0.0000000     0.0000000     0.0000000     0.0000000     0.0000000     0.0000000
     0.0000000     0.0000000     0.0000000     0.0000000     0.0000000     0.0000000     0.0000000
     0.0000000     0.0000000     0.0000000     0.0000000     0.0000000     0.0000000     0.0000000
     0.0000000     0.0000000     0.0000000     0.0000000     0.0000000     0.0000000     0.0000000
     0.0000000     0.0000000     0.0000000     0.0000000     0.0000000     0.0000000     0.0000000

 Ion:   62  E_soc:     -0.1854037
 l=   1
     0.0000000    -0.0308803    -0.0308078
    -0.0308803     0.0000000    -0.0308194
    -0.0308078    -0.0308194     0.0000000
 l=   2
     0.0000000    -0.0000298     0.0000000    -0.0000299    -0.0000347
    -0.0000298     0.0000000    -0.0000273    -0.0000291    -0.0000097
     0.0000000    -0.0000273     0.0000000    -0.0000254     0.0000000
    -0.0000299    -0.0000291    -0.0000254     0.0000000    -0.0000085
    -0.0000347    -0.0000097     0.0000000    -0.0000085     0.0000000
 l=   3
     0.0000000     0.0000000     0.0000000     0.0000000     0.0000000     0.0000000     0.0000000
     0.0000000     0.0000000     0.0000000     0.0000000     0.0000000     0.0000000     0.0000000
     0.0000000     0.0000000     0.0000000     0.0000000     0.0000000     0.0000000     0.0000000
     0.0000000     0.0000000     0.0000000     0.0000000     0.0000000     0.0000000     0.0000000
     0.0000000     0.0000000     0.0000000     0.0000000     0.0000000     0.0000000     0.0000000
     0.0000000     0.0000000     0.0000000     0.0000000     0.0000000     0.0000000     0.0000000
     0.0000000     0.0000000     0.0000000     0.0000000     0.0000000     0.0000000     0.0000000

 Ion:   63  E_soc:     -0.1883920
 l=   1
     0.0000000    -0.0314025    -0.0314067
    -0.0314025     0.0000000    -0.0312175
    -0.0314067    -0.0312175     0.0000000
 l=   2
     0.0000000    -0.0000268     0.0000000    -0.0000265    -0.0000300
    -0.0000268     0.0000000    -0.0000226    -0.0000265    -0.0000073
     0.0000000    -0.0000226     0.0000000    -0.0000223     0.0000000
    -0.0000265    -0.0000265    -0.0000223     0.0000000    -0.0000074
    -0.0000300    -0.0000073     0.0000000    -0.0000074     0.0000000
 l=   3
     0.0000000     0.0000000     0.0000000     0.0000000     0.0000000     0.0000000     0.0000000
     0.0000000     0.0000000     0.0000000     0.0000000     0.0000000     0.0000000     0.0000000
     0.0000000     0.0000000     0.0000000     0.0000000     0.0000000     0.0000000     0.0000000
     0.0000000     0.0000000     0.0000000     0.0000000     0.0000000     0.0000000     0.0000000
     0.0000000     0.0000000     0.0000000     0.0000000     0.0000000     0.0000000     0.0000000
     0.0000000     0.0000000     0.0000000     0.0000000     0.0000000     0.0000000     0.0000000
     0.0000000     0.0000000     0.0000000     0.0000000     0.0000000     0.0000000     0.0000000

 Ion:   64  E_soc:     -0.1853807
 l=   1
     0.0000000    -0.0308653    -0.0308171
    -0.0308653     0.0000000    -0.0308133
    -0.0308171    -0.0308133     0.0000000
 l=   2
     0.0000000    -0.0000297     0.0000000    -0.0000300    -0.0000346
    -0.0000297     0.0000000    -0.0000274    -0.0000292    -0.0000097
     0.0000000    -0.0000274     0.0000000    -0.0000254     0.0000000
    -0.0000300    -0.0000292    -0.0000254     0.0000000    -0.0000087
    -0.0000346    -0.0000097     0.0000000    -0.0000087     0.0000000
 l=   3
     0.0000000     0.0000000     0.0000000     0.0000000     0.0000000     0.0000000     0.0000000
     0.0000000     0.0000000     0.0000000     0.0000000     0.0000000     0.0000000     0.0000000
     0.0000000     0.0000000     0.0000000     0.0000000     0.0000000     0.0000000     0.0000000
     0.0000000     0.0000000     0.0000000     0.0000000     0.0000000     0.0000000     0.0000000
     0.0000000     0.0000000     0.0000000     0.0000000     0.0000000     0.0000000     0.0000000
     0.0000000     0.0000000     0.0000000     0.0000000     0.0000000     0.0000000     0.0000000
     0.0000000     0.0000000     0.0000000     0.0000000     0.0000000     0.0000000     0.0000000

 Ion:   65  E_soc:     -0.1882589
 l=   1
     0.0000000    -0.0313744    -0.0313861
    -0.0313744     0.0000000    -0.0311992
    -0.0313861    -0.0311992     0.0000000
 l=   2
     0.0000000    -0.0000268     0.0000000    -0.0000265    -0.0000300
    -0.0000268     0.0000000    -0.0000227    -0.0000266    -0.0000073
     0.0000000    -0.0000227     0.0000000    -0.0000223     0.0000000
    -0.0000265    -0.0000266    -0.0000223     0.0000000    -0.0000074
    -0.0000300    -0.0000073     0.0000000    -0.0000074     0.0000000
 l=   3
     0.0000000     0.0000000     0.0000000     0.0000000     0.0000000     0.0000000     0.0000000
     0.0000000     0.0000000     0.0000000     0.0000000     0.0000000     0.0000000     0.0000000
     0.0000000     0.0000000     0.0000000     0.0000000     0.0000000     0.0000000     0.0000000
     0.0000000     0.0000000     0.0000000     0.0000000     0.0000000     0.0000000     0.0000000
     0.0000000     0.0000000     0.0000000     0.0000000     0.0000000     0.0000000     0.0000000
     0.0000000     0.0000000     0.0000000     0.0000000     0.0000000     0.0000000     0.0000000
     0.0000000     0.0000000     0.0000000     0.0000000     0.0000000     0.0000000     0.0000000



 total charge

# of ion       s       p       d       tot
------------------------------------------
    1        0.407   0.283   9.585  10.274
    2        0.417   0.295   9.583  10.295
    3        0.417   0.295   9.583  10.295
    4        0.415   0.296   9.584  10.295
    5        0.417   0.295   9.583  10.295
    6        0.415   0.296   9.584  10.295
    7        0.415   0.296   9.584  10.295
    8        0.414   0.293   9.584  10.290
    9        0.417   0.295   9.583  10.295
   10        0.407   0.283   9.585  10.274
   11        0.415   0.296   9.584  10.295
   12        0.417   0.295   9.583  10.295
   13        0.415   0.296   9.584  10.295
   14        0.417   0.295   9.583  10.295
   15        0.414   0.293   9.584  10.290
   16        0.415   0.296   9.584  10.295
   17        0.415   0.296   9.584  10.295
   18        0.417   0.295   9.583  10.295
   19        0.414   0.293   9.584  10.290
   20        0.415   0.296   9.584  10.295
   21        0.417   0.295   9.583  10.295
   22        0.407   0.283   9.585  10.274
   23        0.415   0.296   9.584  10.295
   24        0.417   0.295   9.583  10.295
   25        0.417   0.295   9.583  10.295
   26        0.415   0.296   9.584  10.295
   27        0.415   0.296   9.584  10.295
   28        0.414   0.293   9.584  10.290
   29        0.407   0.283   9.585  10.274
   30        0.417   0.295   9.583  10.295
   31        0.417   0.295   9.583  10.295
   32        0.415   0.296   9.584  10.295
   33        0.723   0.156   9.549  10.428
   34        1.282   2.224   0.017   3.523
   35        1.293   2.198   0.017   3.508
   36        1.282   2.222   0.016   3.520
   37        1.282   2.224   0.017   3.523
   38        1.282   2.224   0.017   3.523
   39        1.293   2.198   0.017   3.508
   40        1.282   2.222   0.016   3.520
   41        1.282   2.224   0.017   3.523
   42        1.282   2.220   0.016   3.518
   43        1.282   2.222   0.017   3.520
   44        1.282   2.222   0.017   3.520
   45        1.282   2.221   0.016   3.519
   46        1.282   2.222   0.017   3.520
   47        1.282   2.221   0.016   3.519
   48        1.282   2.221   0.016   3.519
   49        1.282   2.222   0.017   3.520
   50        1.282   2.224   0.017   3.523
   51        1.282   2.224   0.017   3.523
   52        1.282   2.222   0.016   3.520
   53        1.282   2.222   0.016   3.520
   54        1.293   2.198   0.017   3.508
   55        1.293   2.198   0.017   3.508
   56        1.282   2.224   0.017   3.523
   57        1.282   2.224   0.017   3.523
   58        1.282   2.222   0.016   3.520
   59        1.282   2.224   0.017   3.523
   60        1.282   2.222   0.016   3.520
   61        1.282   2.224   0.017   3.523
   62        1.282   2.224   0.017   3.523
   63        1.293   2.198   0.017   3.508
   64        1.282   2.224   0.017   3.523
   65        1.293   2.198   0.017   3.508
--------------------------------------------------
tot         55.077  80.516 316.761 452.354



 magnetization (x)

# of ion       s       p       d       tot
------------------------------------------
    1       -0.005  -0.003   0.002  -0.006
    2       -0.005  -0.003   0.002  -0.006
    3       -0.005  -0.003   0.002  -0.006
    4       -0.004  -0.003   0.002  -0.005
    5       -0.005  -0.003   0.002  -0.006
    6       -0.004  -0.003   0.002  -0.005
    7       -0.004  -0.003   0.002  -0.005
    8       -0.004  -0.003   0.002  -0.006
    9       -0.005  -0.003   0.002  -0.006
   10       -0.005  -0.003   0.002  -0.006
   11       -0.004  -0.003   0.002  -0.005
   12       -0.005  -0.003   0.002  -0.006
   13       -0.004  -0.003   0.002  -0.005
   14       -0.005  -0.003   0.002  -0.006
   15       -0.004  -0.003   0.002  -0.006
   16       -0.004  -0.003   0.002  -0.005
   17       -0.004  -0.003   0.002  -0.005
   18       -0.005  -0.003   0.002  -0.006
   19       -0.004  -0.003   0.002  -0.006
   20       -0.004  -0.003   0.002  -0.005
   21       -0.005  -0.003   0.002  -0.006
   22       -0.005  -0.003   0.002  -0.006
   23       -0.004  -0.003   0.002  -0.005
   24       -0.005  -0.003   0.002  -0.006
   25       -0.005  -0.003   0.002  -0.006
   26       -0.004  -0.003   0.002  -0.005
   27       -0.004  -0.003   0.002  -0.005
   28       -0.004  -0.003   0.002  -0.006
   29       -0.005  -0.003   0.002  -0.006
   30       -0.005  -0.003   0.002  -0.006
   31       -0.005  -0.003   0.002  -0.006
   32       -0.004  -0.003   0.002  -0.005
   33        0.021  -0.003   0.001   0.019
   34        0.007   0.022  -0.000   0.029
   35        0.008   0.025  -0.000   0.032
   36        0.008   0.021  -0.000   0.029
   37        0.008   0.022  -0.000   0.029
   38        0.007   0.022  -0.000   0.029
   39        0.008   0.025  -0.000   0.032
   40        0.008   0.021  -0.000   0.029
   41        0.007   0.022  -0.000   0.029
   42        0.008   0.022  -0.000   0.029
   43        0.008   0.022  -0.000   0.029
   44        0.008   0.022  -0.000   0.029
   45        0.008   0.022  -0.000   0.029
   46        0.008   0.022  -0.000   0.029
   47        0.008   0.022  -0.000   0.029
   48        0.008   0.022  -0.000   0.029
   49        0.008   0.022  -0.000   0.029
   50        0.007   0.022  -0.000   0.029
   51        0.008   0.022  -0.000   0.029
   52        0.008   0.021  -0.000   0.029
   53        0.008   0.021  -0.000   0.029
   54        0.008   0.025  -0.000   0.032
   55        0.007   0.025  -0.000   0.032
   56        0.007   0.022  -0.000   0.029
   57        0.008   0.022  -0.000   0.029
   58        0.008   0.021  -0.000   0.029
   59        0.007   0.022  -0.000   0.029
   60        0.008   0.021  -0.000   0.029
   61        0.008   0.022  -0.000   0.029
   62        0.007   0.022  -0.000   0.029
   63        0.007   0.025  -0.000   0.032
   64        0.008   0.022  -0.000   0.029
   65        0.007   0.025  -0.000   0.032
--------------------------------------------------
tot          0.119   0.610   0.059   0.788



 magnetization (y)

# of ion       s       p       d       tot
------------------------------------------
    1       -0.005  -0.003   0.002  -0.006
    2       -0.005  -0.003   0.002  -0.006
    3       -0.005  -0.003   0.002  -0.006
    4       -0.004  -0.003   0.002  -0.005
    5       -0.005  -0.003   0.002  -0.006
    6       -0.004  -0.003   0.002  -0.005
    7       -0.004  -0.003   0.002  -0.005
    8       -0.004  -0.003   0.002  -0.006
    9       -0.005  -0.003   0.002  -0.006
   10       -0.005  -0.003   0.002  -0.006
   11       -0.004  -0.003   0.002  -0.005
   12       -0.005  -0.003   0.002  -0.006
   13       -0.004  -0.003   0.002  -0.005
   14       -0.005  -0.003   0.002  -0.006
   15       -0.004  -0.003   0.002  -0.006
   16       -0.004  -0.003   0.002  -0.005
   17       -0.004  -0.003   0.002  -0.005
   18       -0.005  -0.003   0.002  -0.006
   19       -0.004  -0.003   0.002  -0.006
   20       -0.004  -0.003   0.002  -0.005
   21       -0.005  -0.003   0.002  -0.006
   22       -0.005  -0.003   0.002  -0.006
   23       -0.004  -0.003   0.002  -0.005
   24       -0.005  -0.003   0.002  -0.005
   25       -0.005  -0.003   0.002  -0.006
   26       -0.004  -0.003   0.002  -0.005
   27       -0.004  -0.003   0.002  -0.005
   28       -0.004  -0.003   0.002  -0.006
   29       -0.005  -0.003   0.002  -0.006
   30       -0.005  -0.003   0.002  -0.006
   31       -0.005  -0.003   0.002  -0.006
   32       -0.004  -0.003   0.002  -0.005
   33        0.021  -0.003   0.001   0.019
   34        0.007   0.022  -0.000   0.029
   35        0.008   0.025  -0.000   0.032
   36        0.008   0.021  -0.000   0.029
   37        0.008   0.022  -0.000   0.029
   38        0.007   0.022  -0.000   0.029
   39        0.007   0.025  -0.000   0.032
   40        0.008   0.021  -0.000   0.029
   41        0.007   0.022  -0.000   0.029
   42        0.008   0.022  -0.000   0.029
   43        0.008   0.022  -0.000   0.029
   44        0.008   0.022  -0.000   0.029
   45        0.008   0.022  -0.000   0.029
   46        0.008   0.022  -0.000   0.029
   47        0.008   0.022  -0.000   0.029
   48        0.008   0.022  -0.000   0.029
   49        0.008   0.022  -0.000   0.029
   50        0.007   0.022  -0.000   0.029
   51        0.007   0.022  -0.000   0.029
   52        0.008   0.021  -0.000   0.029
   53        0.008   0.021  -0.000   0.029
   54        0.007   0.025  -0.000   0.032
   55        0.007   0.025  -0.000   0.032
   56        0.008   0.022  -0.000   0.029
   57        0.007   0.022  -0.000   0.029
   58        0.008   0.021  -0.000   0.029
   59        0.007   0.022  -0.000   0.029
   60        0.008   0.021  -0.000   0.029
   61        0.007   0.022  -0.000   0.029
   62        0.007   0.022  -0.000   0.029
   63        0.008   0.025  -0.000   0.032
   64        0.007   0.022  -0.000   0.029
   65        0.007   0.025  -0.000   0.032
--------------------------------------------------
tot          0.119   0.610   0.059   0.788



 magnetization (z)

# of ion       s       p       d       tot
------------------------------------------
    1       -0.005  -0.003   0.002  -0.006
    2       -0.005  -0.003   0.002  -0.006
    3       -0.005  -0.003   0.002  -0.006
    4       -0.004  -0.003   0.002  -0.005
    5       -0.005  -0.003   0.002  -0.006
    6       -0.004  -0.003   0.002  -0.005
    7       -0.004  -0.003   0.002  -0.005
    8       -0.004  -0.003   0.002  -0.006
    9       -0.005  -0.003   0.002  -0.006
   10       -0.005  -0.003   0.002  -0.006
   11       -0.004  -0.003   0.002  -0.005
   12       -0.005  -0.003   0.002  -0.006
   13       -0.004  -0.003   0.002  -0.005
   14       -0.005  -0.003   0.002  -0.006
   15       -0.004  -0.003   0.002  -0.006
   16       -0.004  -0.003   0.002  -0.005
   17       -0.004  -0.003   0.002  -0.005
   18       -0.005  -0.003   0.002  -0.006
   19       -0.004  -0.003   0.002  -0.006
   20       -0.004  -0.003   0.002  -0.005
   21       -0.005  -0.003   0.002  -0.006
   22       -0.005  -0.003   0.002  -0.006
   23       -0.004  -0.003   0.002  -0.005
   24       -0.005  -0.003   0.002  -0.006
   25       -0.005  -0.003   0.002  -0.006
   26       -0.004  -0.003   0.002  -0.005
   27       -0.004  -0.003   0.002  -0.005
   28       -0.004  -0.003   0.002  -0.006
   29       -0.005  -0.003   0.002  -0.006
   30       -0.005  -0.003   0.002  -0.006
   31       -0.005  -0.003   0.002  -0.006
   32       -0.004  -0.003   0.002  -0.005
   33        0.021  -0.003   0.001   0.019
   34        0.007   0.022  -0.000   0.029
   35        0.008   0.025  -0.000   0.032
   36        0.008   0.021  -0.000   0.029
   37        0.007   0.022  -0.000   0.029
   38        0.007   0.022  -0.000   0.029
   39        0.007   0.025  -0.000   0.032
   40        0.008   0.021  -0.000   0.029
   41        0.007   0.022  -0.000   0.029
   42        0.008   0.022  -0.000   0.029
   43        0.008   0.022  -0.000   0.029
   44        0.008   0.022  -0.000   0.029
   45        0.008   0.022  -0.000   0.029
   46        0.008   0.022  -0.000   0.029
   47        0.008   0.022  -0.000   0.029
   48        0.008   0.022  -0.000   0.029
   49        0.008   0.022  -0.000   0.029
   50        0.007   0.022  -0.000   0.029
   51        0.007   0.022  -0.000   0.029
   52        0.008   0.021  -0.000   0.029
   53        0.008   0.021  -0.000   0.029
   54        0.007   0.025  -0.000   0.032
   55        0.007   0.025  -0.000   0.032
   56        0.008   0.022  -0.000   0.029
   57        0.007   0.022  -0.000   0.029
   58        0.008   0.021  -0.000   0.029
   59        0.007   0.022  -0.000   0.029
   60        0.008   0.021  -0.000   0.029
   61        0.007   0.022  -0.000   0.029
   62        0.007   0.022  -0.000   0.029
   63        0.007   0.025  -0.000   0.032
   64        0.007   0.022  -0.000   0.029
   65        0.007   0.025  -0.000   0.032
--------------------------------------------------
tot          0.119   0.609   0.059   0.788


 total amount of memory used by VASP MPI-rank0   411404. kBytes
=======================================================================

   base                                    :      30000. kBytes
   nonl-proj                               :      40930. kBytes
   fftplans                                :      19052. kBytes
   grid                                    :      37158. kBytes
   one-center                              :       1057. kBytes
   HF                                      :        129. kBytes
   nonlr-proj                              :      12683. kBytes
   wavefun                                 :     105834. kBytes
   fock_wrk                                :     164561. kBytes

  
  
 General timing and accounting informations for this job:
 ========================================================
  
                  Total CPU time used (sec):     1769.832
                            User time (sec):     1740.192
                          System time (sec):       29.640
                         Elapsed time (sec):     1808.717
  
                   Maximum memory used (kb):     1086176.
                   Average memory used (kb):          N/A
  
                          Minor page faults:      1148405
                          Major page faults:          192
                 Voluntary context switches:         6026
