 vasp.6.5.1 10Mar25 (build Mar 18 2026 11:13:34) gamma-only                      
 executed on              LinuxNV date 2026.03.23  21:41:10
 running  128 mpi-ranks, with    8 threads/rank, on    4 nodes
 distrk:  each k-point on  128 cores,    1 groups
 distr:  one band on NCORE=   1 cores,  128 groups
 Offloading initialized ...   16 GPUs detected


--------------------------------------------------------------------------------------------------------


 INCAR:
   SYSTEM = TiO2
   NWRITE = 1     verbosity write-flag
   ISTART = 0     0-new 1-cont 2-samecut job
   ISPIN = 1     1-no, 2-yes
   PREC = Accurate   *
   NELM = 10       max.
   EDIFF = 1.0e-7    stopping-criterion for electronic upd.
   ENCUT = 750
   NSW = 0   *
   IBRION = -1   *  ionic relax: -1:no move
   ISYM = 0      symmetry:0-OFF, 1-ON,2-ON+memory conserving for CD
   POTIM = 0.5   *  for MD, timestep in femtoseconds, for relaxation, a step-size scaling factor
   IWAVPR = 0     * wavefunction is extrapolated forward to new ion positions (0\=no,>10 runs in memory, <10 in temporary file, 1\=simple, 2\=more advanced, 3\=mix of 1 and 2)
   ISMEAR = 0     *  part. occup.:-5 Blochl,-4 tet,-3,-2,-1-fermi,0-Gauss,>0MP
   SIGMA = 0.10   *  broadening in eV -4 tet -1-fermi 0-gauss
   IALGO = 48    * algorithm: use only 8 (CG) or 48 (RMM-DIIS)
   LREAL = .TRUE. * non-local projectors in real space+automatic optim
   GGA = 91
   LWAVE = .F.     * write WAVECAR
   LCHARG = .F.     * write CHGCAR and CHG
   LVTOT = .F.      * write the local potential LOCPOT
   LELF = .FALSE.   create ELFCAR file
   LPLANE = .TRUE.
   NSIM = 4
   NCORE = 1

 POTCAR:   PAW_GGA Ti_sv 07Sep2000                
 POTCAR:   PAW_GGA O 05Jan2001                    
 POTCAR:   PAW_GGA Ti_sv 07Sep2000                
  local pseudopotential read in
  partial core-charges read in
  atomic valenz-charges read in
  non local Contribution for L=            0  read in
    real space projection operators read in
  non local Contribution for L=            0  read in
    real space projection operators read in
  non local Contribution for L=            1  read in
    real space projection operators read in
  non local Contribution for L=            1  read in
    real space projection operators read in
  non local Contribution for L=            2  read in
    real space projection operators read in
  non local Contribution for L=            2  read in
    real space projection operators read in
    PAW grid and wavefunctions read in
 
   number of l-projection  operators is LMAX  =            6
   number of lm-projection operators is LMMAX =           18
 
 POTCAR:   PAW_GGA O 05Jan2001                    
  local pseudopotential read in
  atomic valenz-charges read in
  non local Contribution for L=            0  read in
    real space projection operators read in
  non local Contribution for L=            0  read in
    real space projection operators read in
  non local Contribution for L=            1  read in
    real space projection operators read in
  non local Contribution for L=            1  read in
    real space projection operators read in
    PAW grid and wavefunctions read in
 
   number of l-projection  operators is LMAX  =            4
   number of lm-projection operators is LMMAX =            8
 
 PAW_GGA Ti_sv 07Sep2000                :
 energy of atom  1       EATOM=-1589.1200
 kinetic energy error for atom=    0.0010 (will be added to EATOM!!)
 PAW_GGA O 05Jan2001                    :
 energy of atom  2       EATOM= -433.0277
 kinetic energy error for atom=    0.0059 (will be added to EATOM!!)
 
 
 POSCAR: TeraGrid TiO2 Benchmark, Doubled in X di
  positions in cartesian coordinates
  velocities in cartesian coordinates
  No initial velocities read in


 exchange-correlation table for 91
   RHO(1)=    0.500       N(1)  =     2000
   RHO(2)=  100.500       N(2)  =     4000
 


--------------------------------------------------------------------------------------------------------


 ion  position               nearest neighbor table
     1  0.000  0.000  0.268-   377 1.84   365 1.96   849 1.96   528 1.96  1012 1.96
     2  0.500  0.000  0.268-   378 1.84   527 1.96  1011 1.96   850 1.96   366 1.96
     3  0.083  0.000  0.268-   379 1.84   367 1.96   851 1.96   849 1.96   365 1.96
     4  0.583  0.000  0.268-   380 1.84   368 1.96   852 1.96   850 1.96   366 1.96
     5  0.042  0.167  0.256-   361 1.85   363 1.85   365 2.06   369 2.06   373 2.10   375 2.10
     6  0.542  0.167  0.256-   362 1.85   364 1.85   366 2.06   370 2.06   374 2.10   376 2.10
     7  0.125  0.167  0.256-   363 1.85   441 1.85   367 2.06   371 2.06   375 2.10   453 2.10
     8  0.625  0.167  0.256-   364 1.85   442 1.85   368 2.06   372 2.06   376 2.10   454 2.10
     9  0.000  0.167  0.377-   373 1.89   385 1.99   381 1.99   548 1.99   544 1.99   393 2.10
    10  0.500  0.167  0.377-   374 1.89   547 1.99   543 1.99   386 1.99   382 1.99   394 2.10
    11  0.083  0.167  0.377-   375 1.89   387 1.99   383 1.99   385 1.99   381 1.99   395 2.10
    12  0.583  0.167  0.377-   376 1.89   388 1.99   384 1.99   386 1.99   382 1.99   396 2.10
    13  0.042  0.000  0.384-   389 1.92   391 1.92   385 1.98   861 1.98   377 2.02   379 2.02
    14  0.542  0.000  0.384-   390 1.92   392 1.92   386 1.98   862 1.98   378 2.02   380 2.02
    15  0.125  0.000  0.384-   391 1.92   469 1.92   387 1.98   863 1.98   379 2.02   457 2.02
    16  0.625  0.000  0.384-   392 1.92   470 1.92   388 1.98   864 1.98   380 2.02   458 2.02
    17  0.000  0.000  0.500-   397 1.97   881 1.97   560 1.97  1044 1.97   409 2.01   389 2.01
    18  0.500  0.000  0.500-   559 1.97  1043 1.97   882 1.97   398 1.97   410 2.01   390 2.01
    19  0.083  0.000  0.500-   399 1.97   883 1.97   881 1.97   397 1.97   411 2.01   391 2.01
    20  0.583  0.000  0.500-   400 1.97   884 1.97   882 1.97   398 1.97   412 2.01   392 2.01
    21  0.042  0.167  0.500-   405 1.97   407 1.97   393 1.97   395 1.97   397 2.00   401 2.00
    22  0.542  0.167  0.500-   406 1.97   408 1.97   394 1.97   396 1.97   398 2.00   402 2.00
    23  0.125  0.167  0.500-   407 1.97   485 1.97   473 1.97   395 1.97   399 2.00   403 2.00
    24  0.625  0.167  0.500-   408 1.97   396 1.97   486 1.97   474 1.97   400 2.00   404 2.00
    25  0.000  0.167  0.623-   425 1.89   417 1.99   413 1.99   580 1.99   576 1.99   405 2.10
    26  0.500  0.167  0.623-   426 1.89   579 1.99   575 1.99   418 1.99   414 1.99   406 2.10
    27  0.083  0.167  0.623-   427 1.89   419 1.99   415 1.99   417 1.99   413 1.99   407 2.10
    28  0.583  0.167  0.623-   428 1.89   420 1.99   416 1.99   418 1.99   414 1.99   408 2.10
    29  0.042  0.000  0.616-   409 1.92   411 1.92   417 1.98   893 1.98   421 2.02   423 2.02
    30  0.542  0.000  0.616-   410 1.92   412 1.92   418 1.98   894 1.98   422 2.02   424 2.02
    31  0.125  0.000  0.616-   411 1.92   489 1.92   419 1.98   895 1.98   501 2.02   423 2.02
    32  0.625  0.000  0.616-   412 1.92   490 1.92   420 1.98   896 1.98   424 2.02   502 2.02
    33  0.000  0.000  0.732-   421 1.84   429 1.96   913 1.96   592 1.96  1076 1.96
    34  0.500  0.000  0.732-   422 1.84   591 1.96  1075 1.96   914 1.96   430 1.96
    35  0.083  0.000  0.732-   423 1.84   431 1.96   915 1.96   913 1.96   429 1.96
    36  0.583  0.000  0.732-   424 1.84   432 1.96   916 1.96   914 1.96   430 1.96
    37  0.042  0.167  0.744-   437 1.85   439 1.85   429 2.06   433 2.06   425 2.10   427 2.10
    38  0.542  0.167  0.744-   438 1.85   440 1.85   430 2.06   434 2.06   426 2.10   428 2.10
    39  0.125  0.167  0.744-   439 1.85   517 1.85   431 2.06   435 2.06   505 2.10   427 2.10
    40  0.625  0.167  0.744-   440 1.85   518 1.85   432 2.06   436 2.06   428 2.10   506 2.10
    41  0.167  0.000  0.268-   457 1.84   367 1.96   851 1.96   445 1.96   929 1.96
    42  0.667  0.000  0.268-   458 1.84   446 1.96   930 1.96   852 1.96   368 1.96
    43  0.250  0.000  0.268-   459 1.84   447 1.96   445 1.96   929 1.96   931 1.96
    44  0.750  0.000  0.268-   460 1.84   448 1.96   932 1.96   930 1.96   446 1.96
    45  0.208  0.167  0.256-   443 1.85   441 1.85   445 2.06   449 2.06   455 2.10   453 2.10
    46  0.708  0.167  0.256-   442 1.85   444 1.85   446 2.06   450 2.06   454 2.10   456 2.10
    47  0.292  0.167  0.256-   443 1.85   521 1.85   447 2.06   451 2.06   455 2.10   533 2.10
    48  0.792  0.167  0.256-   444 1.85   522 1.85   448 2.06   452 2.06   456 2.10   534 2.10
    49  0.167  0.167  0.377-   453 1.89   387 1.99   383 1.99   465 1.99   461 1.99   473 2.10
    50  0.667  0.167  0.377-   454 1.89   466 1.99   462 1.99   388 1.99   384 1.99   474 2.10
    51  0.250  0.167  0.377-   455 1.89   465 1.99   467 1.99   461 1.99   463 1.99   475 2.10
    52  0.750  0.167  0.377-   456 1.89   468 1.99   464 1.99   466 1.99   462 1.99   476 2.10
    53  0.208  0.000  0.384-   471 1.92   469 1.92   465 1.98   941 1.98   459 2.02   457 2.02
    54  0.708  0.000  0.384-   470 1.92   472 1.92   466 1.98   942 1.98   458 2.02   460 2.02
    55  0.292  0.000  0.384-   471 1.92   549 1.92   467 1.98   943 1.98   459 2.02   537 2.02
    56  0.792  0.000  0.384-   472 1.92   550 1.92   468 1.98   944 1.98   460 2.02   538 2.02
    57  0.167  0.000  0.500-   399 1.97   883 1.97   477 1.97   961 1.97   489 2.01   469 2.01
    58  0.667  0.000  0.500-   478 1.97   962 1.97   884 1.97   400 1.97   490 2.01   470 2.01
    59  0.250  0.000  0.500-   477 1.97   479 1.97   961 1.97   963 1.97   491 2.01   471 2.01
    60  0.750  0.000  0.500-   480 1.97   964 1.97   962 1.97   478 1.97   492 2.01   472 2.01
    61  0.208  0.167  0.500-   487 1.97   485 1.97   475 1.97   473 1.97   477 2.00   481 2.00
    62  0.708  0.167  0.500-   486 1.97   474 1.97   488 1.97   476 1.97   478 2.00   482 2.00
    63  0.292  0.167  0.500-   487 1.97   565 1.97   475 1.97   553 1.97   479 2.00   483 2.00
    64  0.792  0.167  0.500-   488 1.97   476 1.97   566 1.97   554 1.97   480 2.00   484 2.00
    65  0.167  0.167  0.623-   505 1.89   419 1.99   415 1.99   497 1.99   493 1.99   485 2.10
    66  0.667  0.167  0.623-   506 1.89   498 1.99   494 1.99   420 1.99   416 1.99   486 2.10
    67  0.250  0.167  0.623-   507 1.89   499 1.99   497 1.99   495 1.99   493 1.99   487 2.10
    68  0.750  0.167  0.623-   508 1.89   500 1.99   496 1.99   498 1.99   494 1.99   488 2.10
    69  0.208  0.000  0.616-   491 1.92   489 1.92   497 1.98   973 1.98   503 2.02   501 2.02
    70  0.708  0.000  0.616-   490 1.92   492 1.92   498 1.98   974 1.98   502 2.02   504 2.02
    71  0.292  0.000  0.616-   491 1.92   569 1.92   499 1.98   975 1.98   503 2.02   581 2.02
    72  0.792  0.000  0.616-   492 1.92   570 1.92   500 1.98   976 1.98   504 2.02   582 2.02
    73  0.167  0.000  0.732-   501 1.84   431 1.96   915 1.96   509 1.96   993 1.96
    74  0.667  0.000  0.732-   502 1.84   510 1.96   994 1.96   916 1.96   432 1.96
    75  0.250  0.000  0.732-   503 1.84   509 1.96   511 1.96   993 1.96   995 1.96
    76  0.750  0.000  0.732-   504 1.84   512 1.96   996 1.96   994 1.96   510 1.96
    77  0.208  0.167  0.744-   519 1.85   517 1.85   509 2.06   513 2.06   507 2.10   505 2.10
    78  0.708  0.167  0.744-   518 1.85   520 1.85   510 2.06   514 2.06   506 2.10   508 2.10
    79  0.292  0.167  0.744-   519 1.85   597 1.85   511 2.06   515 2.06   507 2.10   585 2.10
    80  0.792  0.167  0.744-   520 1.85   598 1.85   512 2.06   516 2.06   508 2.10   586 2.10
    81  0.333  0.000  0.268-   537 1.84   525 1.96  1009 1.96   931 1.96   447 1.96
    82  0.833  0.000  0.268-   538 1.84   526 1.96  1010 1.96   932 1.96   448 1.96
    83  0.417  0.000  0.268-   539 1.84   525 1.96  1009 1.96   527 1.96  1011 1.96
    84  0.917  0.000  0.268-   540 1.84   528 1.96  1012 1.96  1010 1.96   526 1.96
    85  0.375  0.167  0.256-   521 1.85   523 1.85   525 2.06   529 2.06   533 2.10   535 2.10
    86  0.875  0.167  0.256-   522 1.85   524 1.85   526 2.06   530 2.06   534 2.10   536 2.10
    87  0.458  0.167  0.256-   362 1.85   523 1.85   527 2.06   531 2.06   374 2.10   535 2.10
    88  0.958  0.167  0.256-   524 1.85   361 1.85   528 2.06   532 2.06   536 2.10   373 2.10
    89  0.333  0.167  0.377-   533 1.89   545 1.99   541 1.99   467 1.99   463 1.99   553 2.10
    90  0.833  0.167  0.377-   534 1.89   546 1.99   542 1.99   468 1.99   464 1.99   554 2.10
    91  0.417  0.167  0.377-   535 1.89   545 1.99   541 1.99   547 1.99   543 1.99   555 2.10
    92  0.917  0.167  0.377-   536 1.89   548 1.99   544 1.99   546 1.99   542 1.99   556 2.10
    93  0.375  0.000  0.384-   549 1.92   551 1.92   545 1.98  1021 1.98   537 2.02   539 2.02
    94  0.875  0.000  0.384-   550 1.92   552 1.92   546 1.98  1022 1.98   538 2.02   540 2.02
    95  0.458  0.000  0.384-   390 1.92   551 1.92   547 1.98  1023 1.98   378 2.02   539 2.02
    96  0.958  0.000  0.384-   552 1.92   389 1.92   548 1.98  1024 1.98   540 2.02   377 2.02
    97  0.333  0.000  0.500-   557 1.97  1041 1.97   963 1.97   479 1.97   569 2.01   549 2.01
    98  0.833  0.000  0.500-   558 1.97  1042 1.97   964 1.97   480 1.97   570 2.01   550 2.01
    99  0.417  0.000  0.500-   557 1.97  1041 1.97   559 1.97  1043 1.97   571 2.01   551 2.01
   100  0.917  0.000  0.500-   560 1.97  1044 1.97  1042 1.97   558 1.97   572 2.01   552 2.01
   101  0.375  0.167  0.500-   565 1.97   567 1.97   553 1.97   555 1.97   557 2.00   561 2.00
   102  0.875  0.167  0.500-   566 1.97   554 1.97   568 1.97   556 1.97   558 2.00   562 2.00
   103  0.458  0.167  0.500-   406 1.97   394 1.97   567 1.97   555 1.97   559 2.00   563 2.00
   104  0.958  0.167  0.500-   568 1.97   556 1.97   405 1.97   393 1.97   560 2.00   564 2.00
   105  0.333  0.167  0.623-   585 1.89   577 1.99   573 1.99   499 1.99   495 1.99   565 2.10
   106  0.833  0.167  0.623-   586 1.89   578 1.99   574 1.99   500 1.99   496 1.99   566 2.10
   107  0.417  0.167  0.623-   587 1.89   577 1.99   573 1.99   579 1.99   575 1.99   567 2.10
   108  0.917  0.167  0.623-   588 1.89   580 1.99   576 1.99   578 1.99   574 1.99   568 2.10
   109  0.375  0.000  0.616-   569 1.92   571 1.92   577 1.98  1053 1.98   583 2.02   581 2.02
   110  0.875  0.000  0.616-   570 1.92   572 1.92   578 1.98  1054 1.98   582 2.02   584 2.02
   111  0.458  0.000  0.616-   410 1.92   571 1.92   579 1.98  1055 1.98   422 2.02   583 2.02
   112  0.958  0.000  0.616-   572 1.92   409 1.92   580 1.98  1056 1.98   584 2.02   421 2.02
   113  0.333  0.000  0.732-   581 1.84   589 1.96  1073 1.96   995 1.96   511 1.96
   114  0.833  0.000  0.732-   582 1.84   590 1.96  1074 1.96   996 1.96   512 1.96
   115  0.417  0.000  0.732-   583 1.84   589 1.96  1073 1.96   591 1.96  1075 1.96
   116  0.917  0.000  0.732-   584 1.84   592 1.96  1076 1.96  1074 1.96   590 1.96
   117  0.375  0.167  0.744-   597 1.85   599 1.85   589 2.06   593 2.06   585 2.10   587 2.10
   118  0.875  0.167  0.744-   598 1.85   600 1.85   590 2.06   594 2.06   586 2.10   588 2.10
   119  0.458  0.167  0.744-   438 1.85   599 1.85   591 2.06   595 2.06   426 2.10   587 2.10
   120  0.958  0.167  0.744-   600 1.85   437 1.85   592 2.06   596 2.06   588 2.10   425 2.10
   121  0.000  0.333  0.268-   617 1.84   605 1.96   369 1.96   532 1.96   768 1.96
   122  0.500  0.333  0.268-   618 1.84   531 1.96   767 1.96   370 1.96   606 1.96
   123  0.083  0.333  0.268-   619 1.84   607 1.96   371 1.96   369 1.96   605 1.96
   124  0.583  0.333  0.268-   620 1.84   608 1.96   372 1.96   370 1.96   606 1.96
   125  0.042  0.500  0.256-   601 1.85   603 1.85   605 2.06   609 2.06   613 2.10   615 2.10
   126  0.542  0.500  0.256-   602 1.85   604 1.85   606 2.06   610 2.06   614 2.10   616 2.10
   127  0.125  0.500  0.256-   603 1.85   681 1.85   611 2.06   607 2.06   615 2.10   693 2.10
   128  0.625  0.500  0.256-   604 1.85   682 1.85   612 2.06   608 2.06   616 2.10   694 2.10
   129  0.000  0.500  0.377-   613 1.89   621 1.99   625 1.99   784 1.99   788 1.99   633 2.10
   130  0.500  0.500  0.377-   614 1.89   783 1.99   787 1.99   622 1.99   626 1.99   634 2.10
   131  0.083  0.500  0.377-   615 1.89   623 1.99   627 1.99   625 1.99   621 1.99   635 2.10
   132  0.583  0.500  0.377-   616 1.89   624 1.99   628 1.99   626 1.99   622 1.99   636 2.10
   133  0.042  0.333  0.384-   629 1.92   631 1.92   625 1.98   381 1.98   617 2.02   619 2.02
   134  0.542  0.333  0.384-   630 1.92   632 1.92   626 1.98   382 1.98   618 2.02   620 2.02
   135  0.125  0.333  0.384-   631 1.92   709 1.92   627 1.98   383 1.98   697 2.02   619 2.02
   136  0.625  0.333  0.384-   632 1.92   710 1.92   628 1.98   384 1.98   620 2.02   698 2.02
   137  0.000  0.333  0.500-   401 1.97   637 1.97   564 1.97   800 1.97   649 2.01   629 2.01
   138  0.500  0.333  0.500-   563 1.97   799 1.97   638 1.97   402 1.97   650 2.01   630 2.01
   139  0.083  0.333  0.500-   403 1.97   639 1.97   637 1.97   401 1.97   651 2.01   631 2.01
   140  0.583  0.333  0.500-   404 1.97   640 1.97   638 1.97   402 1.97   652 2.01   632 2.01
   141  0.042  0.500  0.500-   645 1.97   647 1.97   633 1.97   635 1.97   637 2.00   641 2.00
   142  0.542  0.500  0.500-   646 1.97   648 1.97   634 1.97   636 1.97   638 2.00   642 2.00
   143  0.125  0.500  0.500-   647 1.97   725 1.97   713 1.97   635 1.97   643 2.00   639 2.00
   144  0.625  0.500  0.500-   648 1.97   636 1.97   726 1.97   714 1.97   644 2.00   640 2.00
   145  0.000  0.500  0.623-   665 1.89   657 1.99   653 1.99   816 1.99   820 1.99   645 2.10
   146  0.500  0.500  0.623-   666 1.89   815 1.99   819 1.99   658 1.99   654 1.99   646 2.10
   147  0.083  0.500  0.623-   667 1.89   659 1.99   655 1.99   653 1.99   657 1.99   647 2.10
   148  0.583  0.500  0.623-   668 1.89   660 1.99   656 1.99   654 1.99   658 1.99   648 2.10
   149  0.042  0.333  0.616-   649 1.92   651 1.92   657 1.98   413 1.98   661 2.02   663 2.02
   150  0.542  0.333  0.616-   650 1.92   652 1.92   658 1.98   414 1.98   662 2.02   664 2.02
   151  0.125  0.333  0.616-   651 1.92   729 1.92   659 1.98   415 1.98   663 2.02   741 2.02
   152  0.625  0.333  0.616-   652 1.92   730 1.92   660 1.98   416 1.98   664 2.02   742 2.02
   153  0.000  0.333  0.732-   661 1.84   433 1.96   669 1.96   596 1.96   832 1.96
   154  0.500  0.333  0.732-   662 1.84   595 1.96   831 1.96   670 1.96   434 1.96
   155  0.083  0.333  0.732-   663 1.84   435 1.96   671 1.96   669 1.96   433 1.96
   156  0.583  0.333  0.732-   664 1.84   436 1.96   672 1.96   670 1.96   434 1.96
   157  0.042  0.500  0.744-   677 1.85   679 1.85   669 2.06   673 2.06   665 2.10   667 2.10
   158  0.542  0.500  0.744-   678 1.85   680 1.85   670 2.06   674 2.06   666 2.10   668 2.10
   159  0.125  0.500  0.744-   679 1.85   757 1.85   671 2.06   675 2.06   745 2.10   667 2.10
   160  0.625  0.500  0.744-   680 1.85   758 1.85   672 2.06   676 2.06   668 2.10   746 2.10
   161  0.167  0.333  0.268-   697 1.84   607 1.96   371 1.96   685 1.96   449 1.96
   162  0.667  0.333  0.268-   698 1.84   686 1.96   450 1.96   372 1.96   608 1.96
   163  0.250  0.333  0.268-   699 1.84   451 1.96   685 1.96   687 1.96   449 1.96
   164  0.750  0.333  0.268-   700 1.84   688 1.96   452 1.96   450 1.96   686 1.96
   165  0.208  0.500  0.256-   683 1.85   681 1.85   685 2.06   689 2.06   695 2.10   693 2.10
   166  0.708  0.500  0.256-   682 1.85   684 1.85   686 2.06   690 2.06   694 2.10   696 2.10
   167  0.292  0.500  0.256-   683 1.85   761 1.85   691 2.06   687 2.06   695 2.10   773 2.10
   168  0.792  0.500  0.256-   684 1.85   762 1.85   692 2.06   688 2.06   696 2.10   774 2.10
   169  0.167  0.500  0.377-   693 1.89   627 1.99   623 1.99   701 1.99   705 1.99   713 2.10
   170  0.667  0.500  0.377-   694 1.89   702 1.99   706 1.99   628 1.99   624 1.99   714 2.10
   171  0.250  0.500  0.377-   695 1.89   701 1.99   703 1.99   705 1.99   707 1.99   715 2.10
   172  0.750  0.500  0.377-   696 1.89   704 1.99   708 1.99   706 1.99   702 1.99   716 2.10
   173  0.208  0.333  0.384-   711 1.92   709 1.92   705 1.98   461 1.98   699 2.02   697 2.02
   174  0.708  0.333  0.384-   710 1.92   712 1.92   706 1.98   462 1.98   698 2.02   700 2.02
   175  0.292  0.333  0.384-   711 1.92   789 1.92   707 1.98   463 1.98   699 2.02   777 2.02
   176  0.792  0.333  0.384-   712 1.92   790 1.92   708 1.98   464 1.98   700 2.02   778 2.02
   177  0.167  0.333  0.500-   403 1.97   639 1.97   481 1.97   717 1.97   729 2.01   709 2.01
   178  0.667  0.333  0.500-   482 1.97   718 1.97   640 1.97   404 1.97   730 2.01   710 2.01
   179  0.250  0.333  0.500-   481 1.97   483 1.97   717 1.97   719 1.97   731 2.01   711 2.01
   180  0.750  0.333  0.500-   484 1.97   720 1.97   718 1.97   482 1.97   732 2.01   712 2.01
   181  0.208  0.500  0.500-   727 1.97   725 1.97   715 1.97   713 1.97   717 2.00   721 2.00
   182  0.708  0.500  0.500-   726 1.97   714 1.97   728 1.97   716 1.97   718 2.00   722 2.00
   183  0.292  0.500  0.500-   727 1.97   805 1.97   715 1.97   793 1.97   723 2.00   719 2.00
   184  0.792  0.500  0.500-   728 1.97   716 1.97   806 1.97   794 1.97   724 2.00   720 2.00
   185  0.167  0.500  0.623-   745 1.89   659 1.99   655 1.99   737 1.99   733 1.99   725 2.10
   186  0.667  0.500  0.623-   746 1.89   738 1.99   734 1.99   660 1.99   656 1.99   726 2.10
   187  0.250  0.500  0.623-   747 1.89   735 1.99   737 1.99   739 1.99   733 1.99   727 2.10
   188  0.750  0.500  0.623-   748 1.89   740 1.99   736 1.99   734 1.99   738 1.99   728 2.10
   189  0.208  0.333  0.616-   731 1.92   729 1.92   737 1.98   493 1.98   743 2.02   741 2.02
   190  0.708  0.333  0.616-   730 1.92   732 1.92   738 1.98   494 1.98   742 2.02   744 2.02
   191  0.292  0.333  0.616-   731 1.92   809 1.92   739 1.98   495 1.98   743 2.02   821 2.02
   192  0.792  0.333  0.616-   732 1.92   810 1.92   740 1.98   496 1.98   744 2.02   822 2.02
   193  0.167  0.333  0.732-   741 1.84   671 1.96   435 1.96   513 1.96   749 1.96
   194  0.667  0.333  0.732-   742 1.84   514 1.96   750 1.96   436 1.96   672 1.96
   195  0.250  0.333  0.732-   743 1.84   515 1.96   513 1.96   749 1.96   751 1.96
   196  0.750  0.333  0.732-   744 1.84   516 1.96   752 1.96   750 1.96   514 1.96
   197  0.208  0.500  0.744-   759 1.85   757 1.85   749 2.06   753 2.06   747 2.10   745 2.10
   198  0.708  0.500  0.744-   758 1.85   760 1.85   750 2.06   754 2.06   746 2.10   748 2.10
   199  0.292  0.500  0.744-   759 1.85   837 1.85   751 2.06   755 2.06   747 2.10   825 2.10
   200  0.792  0.500  0.744-   760 1.85   838 1.85   752 2.06   756 2.06   748 2.10   826 2.10
   201  0.333  0.333  0.268-   777 1.84   765 1.96   529 1.96   451 1.96   687 1.96
   202  0.833  0.333  0.268-   778 1.84   766 1.96   530 1.96   452 1.96   688 1.96
   203  0.417  0.333  0.268-   779 1.84   765 1.96   529 1.96   767 1.96   531 1.96
   204  0.917  0.333  0.268-   780 1.84   768 1.96   532 1.96   530 1.96   766 1.96
   205  0.375  0.500  0.256-   761 1.85   763 1.85   765 2.06   769 2.06   773 2.10   775 2.10
   206  0.875  0.500  0.256-   762 1.85   764 1.85   766 2.06   770 2.06   774 2.10   776 2.10
   207  0.458  0.500  0.256-   602 1.85   763 1.85   767 2.06   771 2.06   614 2.10   775 2.10
   208  0.958  0.500  0.256-   764 1.85   601 1.85   768 2.06   772 2.06   776 2.10   613 2.10
   209  0.333  0.500  0.377-   773 1.89   781 1.99   785 1.99   707 1.99   703 1.99   793 2.10
   210  0.833  0.500  0.377-   774 1.89   782 1.99   786 1.99   708 1.99   704 1.99   794 2.10
   211  0.417  0.500  0.377-   775 1.89   781 1.99   785 1.99   783 1.99   787 1.99   795 2.10
   212  0.917  0.500  0.377-   776 1.89   784 1.99   788 1.99   786 1.99   782 1.99   796 2.10
   213  0.375  0.333  0.384-   789 1.92   791 1.92   785 1.98   541 1.98   779 2.02   777 2.02
   214  0.875  0.333  0.384-   790 1.92   792 1.92   786 1.98   542 1.98   778 2.02   780 2.02
   215  0.458  0.333  0.384-   630 1.92   791 1.92   787 1.98   543 1.98   618 2.02   779 2.02
   216  0.958  0.333  0.384-   792 1.92   629 1.92   788 1.98   544 1.98   780 2.02   617 2.02
   217  0.333  0.333  0.500-   561 1.97   797 1.97   719 1.97   483 1.97   809 2.01   789 2.01
   218  0.833  0.333  0.500-   562 1.97   798 1.97   720 1.97   484 1.97   810 2.01   790 2.01
   219  0.417  0.333  0.500-   561 1.97   797 1.97   563 1.97   799 1.97   811 2.01   791 2.01
   220  0.917  0.333  0.500-   564 1.97   800 1.97   798 1.97   562 1.97   812 2.01   792 2.01
   221  0.375  0.500  0.500-   805 1.97   807 1.97   793 1.97   795 1.97   797 2.00   801 2.00
   222  0.875  0.500  0.500-   806 1.97   794 1.97   808 1.97   796 1.97   798 2.00   802 2.00
   223  0.458  0.500  0.500-   646 1.97   634 1.97   807 1.97   795 1.97   803 2.00   799 2.00
   224  0.958  0.500  0.500-   808 1.97   796 1.97   645 1.97   633 1.97   804 2.00   800 2.00
   225  0.333  0.500  0.623-   825 1.89   817 1.99   813 1.99   739 1.99   735 1.99   805 2.10
   226  0.833  0.500  0.623-   826 1.89   818 1.99   814 1.99   740 1.99   736 1.99   806 2.10
   227  0.417  0.500  0.623-   827 1.89   817 1.99   813 1.99   819 1.99   815 1.99   807 2.10
   228  0.917  0.500  0.623-   828 1.89   820 1.99   816 1.99   814 1.99   818 1.99   808 2.10
   229  0.375  0.333  0.616-   809 1.92   811 1.92   817 1.98   573 1.98   821 2.02   823 2.02
   230  0.875  0.333  0.616-   810 1.92   812 1.92   818 1.98   574 1.98   822 2.02   824 2.02
   231  0.458  0.333  0.616-   650 1.92   811 1.92   819 1.98   575 1.98   662 2.02   823 2.02
   232  0.958  0.333  0.616-   812 1.92   649 1.92   820 1.98   576 1.98   824 2.02   661 2.02
   233  0.333  0.333  0.732-   821 1.84   593 1.96   829 1.96   515 1.96   751 1.96
   234  0.833  0.333  0.732-   822 1.84   594 1.96   830 1.96   516 1.96   752 1.96
   235  0.417  0.333  0.732-   823 1.84   593 1.96   829 1.96   595 1.96   831 1.96
   236  0.917  0.333  0.732-   824 1.84   596 1.96   832 1.96   830 1.96   594 1.96
   237  0.375  0.500  0.744-   837 1.85   839 1.85   829 2.06   833 2.06   825 2.10   827 2.10
   238  0.875  0.500  0.744-   838 1.85   840 1.85   830 2.06   834 2.06   826 2.10   828 2.10
   239  0.458  0.500  0.744-   678 1.85   839 1.85   835 2.06   831 2.06   666 2.10   827 2.10
   240  0.958  0.500  0.744-   840 1.85   677 1.85   836 2.06   832 2.06   828 2.10   665 2.10
   241  0.000  0.667  0.268-   857 1.84   845 1.96   609 1.96   772 1.96  1008 1.96
   242  0.500  0.667  0.268-   858 1.84   771 1.96  1007 1.96   610 1.96   846 1.96
   243  0.083  0.667  0.268-   859 1.84   847 1.96   611 1.96   609 1.96   845 1.96
   244  0.583  0.667  0.268-   860 1.84   848 1.96   612 1.96   610 1.96   846 1.96
   245  0.042  0.833  0.256-   841 1.85   843 1.85   849 2.06   845 2.06   853 2.10   855 2.10
   246  0.542  0.833  0.256-   842 1.85   844 1.85   850 2.06   846 2.06   854 2.10   856 2.10
   247  0.125  0.833  0.256-   843 1.85   921 1.85   851 2.06   847 2.06   855 2.10   933 2.10
   248  0.625  0.833  0.256-   844 1.85   922 1.85   852 2.06   848 2.06   856 2.10   934 2.10
   249  0.000  0.833  0.377-   853 1.89   861 1.99   865 1.99  1024 1.99  1028 1.99   873 2.10
   250  0.500  0.833  0.377-   854 1.89  1023 1.99  1027 1.99   862 1.99   866 1.99   874 2.10
   251  0.083  0.833  0.377-   855 1.89   863 1.99   867 1.99   861 1.99   865 1.99   875 2.10
   252  0.583  0.833  0.377-   856 1.89   864 1.99   868 1.99   862 1.99   866 1.99   876 2.10
   253  0.042  0.667  0.384-   869 1.92   871 1.92   621 1.98   865 1.98   857 2.02   859 2.02
   254  0.542  0.667  0.384-   870 1.92   872 1.92   622 1.98   866 1.98   858 2.02   860 2.02
   255  0.125  0.667  0.384-   871 1.92   949 1.92   623 1.98   867 1.98   937 2.02   859 2.02
   256  0.625  0.667  0.384-   872 1.92   950 1.92   624 1.98   868 1.98   860 2.02   938 2.02
   257  0.000  0.667  0.500-   641 1.97   877 1.97   804 1.97  1040 1.97   889 2.01   869 2.01
   258  0.500  0.667  0.500-   803 1.97  1039 1.97   878 1.97   642 1.97   890 2.01   870 2.01
   259  0.083  0.667  0.500-   643 1.97   879 1.97   877 1.97   641 1.97   891 2.01   871 2.01
   260  0.583  0.667  0.500-   644 1.97   880 1.97   878 1.97   642 1.97   892 2.01   872 2.01
   261  0.042  0.833  0.500-   885 1.97   887 1.97   873 1.97   875 1.97   881 2.00   877 2.00
   262  0.542  0.833  0.500-   886 1.97   888 1.97   874 1.97   876 1.97   882 2.00   878 2.00
   263  0.125  0.833  0.500-   887 1.97   965 1.97   953 1.97   875 1.97   883 2.00   879 2.00
   264  0.625  0.833  0.500-   888 1.97   876 1.97   966 1.97   954 1.97   884 2.00   880 2.00
   265  0.000  0.833  0.623-   905 1.89   893 1.99   897 1.99  1056 1.99  1060 1.99   885 2.10
   266  0.500  0.833  0.623-   906 1.89  1055 1.99  1059 1.99   894 1.99   898 1.99   886 2.10
   267  0.083  0.833  0.623-   907 1.89   895 1.99   899 1.99   893 1.99   897 1.99   887 2.10
   268  0.583  0.833  0.623-   908 1.89   896 1.99   900 1.99   894 1.99   898 1.99   888 2.10
   269  0.042  0.667  0.616-   889 1.92   891 1.92   653 1.98   897 1.98   901 2.02   903 2.02
   270  0.542  0.667  0.616-   890 1.92   892 1.92   654 1.98   898 1.98   902 2.02   904 2.02
   271  0.125  0.667  0.616-   891 1.92   969 1.92   655 1.98   899 1.98   903 2.02   981 2.02
   272  0.625  0.667  0.616-   892 1.92   970 1.92   656 1.98   900 1.98   904 2.02   982 2.02
   273  0.000  0.667  0.732-   901 1.84   673 1.96   909 1.96   836 1.96  1072 1.96
   274  0.500  0.667  0.732-   902 1.84   835 1.96  1071 1.96   910 1.96   674 1.96
   275  0.083  0.667  0.732-   903 1.84   675 1.96   911 1.96   909 1.96   673 1.96
   276  0.583  0.667  0.732-   904 1.84   676 1.96   912 1.96   910 1.96   674 1.96
   277  0.042  0.833  0.744-   917 1.85   919 1.85   913 2.06   909 2.06   905 2.10   907 2.10
   278  0.542  0.833  0.744-   918 1.85   920 1.85   914 2.06   910 2.06   906 2.10   908 2.10
   279  0.125  0.833  0.744-   919 1.85   997 1.85   915 2.06   911 2.06   985 2.10   907 2.10
   280  0.625  0.833  0.744-   920 1.85   998 1.85   916 2.06   912 2.06   908 2.10   986 2.10
   281  0.167  0.667  0.268-   937 1.84   847 1.96   611 1.96   925 1.96   689 1.96
   282  0.667  0.667  0.268-   938 1.84   926 1.96   690 1.96   612 1.96   848 1.96
   283  0.250  0.667  0.268-   939 1.84   691 1.96   925 1.96   927 1.96   689 1.96
   284  0.750  0.667  0.268-   940 1.84   928 1.96   692 1.96   690 1.96   926 1.96
   285  0.208  0.833  0.256-   923 1.85   921 1.85   929 2.06   925 2.06   935 2.10   933 2.10
   286  0.708  0.833  0.256-   922 1.85   924 1.85   930 2.06   926 2.06   934 2.10   936 2.10
   287  0.292  0.833  0.256-   923 1.85  1001 1.85   931 2.06   927 2.06   935 2.10  1013 2.10
   288  0.792  0.833  0.256-   924 1.85  1002 1.85   932 2.06   928 2.06   936 2.10  1014 2.10
   289  0.167  0.833  0.377-   933 1.89   863 1.99   867 1.99   941 1.99   945 1.99   953 2.10
   290  0.667  0.833  0.377-   934 1.89   942 1.99   946 1.99   864 1.99   868 1.99   954 2.10
   291  0.250  0.833  0.377-   935 1.89   941 1.99   943 1.99   945 1.99   947 1.99   955 2.10
   292  0.750  0.833  0.377-   936 1.89   944 1.99   948 1.99   942 1.99   946 1.99   956 2.10
   293  0.208  0.667  0.384-   951 1.92   949 1.92   701 1.98   945 1.98   939 2.02   937 2.02
   294  0.708  0.667  0.384-   950 1.92   952 1.92   702 1.98   946 1.98   938 2.02   940 2.02
   295  0.292  0.667  0.384-   951 1.92  1029 1.92   703 1.98   947 1.98   939 2.02  1017 2.02
   296  0.792  0.667  0.384-   952 1.92  1030 1.92   704 1.98   948 1.98   940 2.02  1018 2.02
   297  0.167  0.667  0.500-   643 1.97   879 1.97   721 1.97   957 1.97   969 2.01   949 2.01
   298  0.667  0.667  0.500-   722 1.97   958 1.97   880 1.97   644 1.97   970 2.01   950 2.01
   299  0.250  0.667  0.500-   721 1.97   723 1.97   957 1.97   959 1.97   971 2.01   951 2.01
   300  0.750  0.667  0.500-   724 1.97   960 1.97   958 1.97   722 1.97   972 2.01   952 2.01
   301  0.208  0.833  0.500-   967 1.97   965 1.97   955 1.97   953 1.97   961 2.00   957 2.00
   302  0.708  0.833  0.500-   966 1.97   954 1.97   968 1.97   956 1.97   962 2.00   958 2.00
   303  0.292  0.833  0.500-   967 1.97  1045 1.97   955 1.97  1033 1.97   963 2.00   959 2.00
   304  0.792  0.833  0.500-   968 1.97   956 1.97  1046 1.97  1034 1.97   964 2.00   960 2.00
   305  0.167  0.833  0.623-   985 1.89   895 1.99   899 1.99   973 1.99   977 1.99   965 2.10
   306  0.667  0.833  0.623-   986 1.89   974 1.99   978 1.99   896 1.99   900 1.99   966 2.10
   307  0.250  0.833  0.623-   987 1.89   975 1.99   973 1.99   979 1.99   977 1.99   967 2.10
   308  0.750  0.833  0.623-   988 1.89   976 1.99   980 1.99   974 1.99   978 1.99   968 2.10
   309  0.208  0.667  0.616-   971 1.92   969 1.92   733 1.98   977 1.98   983 2.02   981 2.02
   310  0.708  0.667  0.616-   970 1.92   972 1.92   734 1.98   978 1.98   982 2.02   984 2.02
   311  0.292  0.667  0.616-   971 1.92  1049 1.92   735 1.98   979 1.98   983 2.02  1061 2.02
   312  0.792  0.667  0.616-   972 1.92  1050 1.92   736 1.98   980 1.98   984 2.02  1062 2.02
   313  0.167  0.667  0.732-   981 1.84   911 1.96   675 1.96   753 1.96   989 1.96
   314  0.667  0.667  0.732-   982 1.84   754 1.96   990 1.96   676 1.96   912 1.96
   315  0.250  0.667  0.732-   983 1.84   755 1.96   753 1.96   989 1.96   991 1.96
   316  0.750  0.667  0.732-   984 1.84   756 1.96   992 1.96   990 1.96   754 1.96
   317  0.208  0.833  0.744-   999 1.85   997 1.85   993 2.06   989 2.06   987 2.10   985 2.10
   318  0.708  0.833  0.744-   998 1.85  1000 1.85   994 2.06   990 2.06   986 2.10   988 2.10
   319  0.292  0.833  0.744-   999 1.85  1077 1.85   995 2.06   991 2.06   987 2.10  1065 2.10
   320  0.792  0.833  0.744-  1000 1.85  1078 1.85   996 2.06   992 2.06   988 2.10  1066 2.10
   321  0.333  0.667  0.268-  1017 1.84  1005 1.96   769 1.96   691 1.96   927 1.96
   322  0.833  0.667  0.268-  1018 1.84  1006 1.96   770 1.96   692 1.96   928 1.96
   323  0.417  0.667  0.268-  1019 1.84  1005 1.96   769 1.96  1007 1.96   771 1.96
   324  0.917  0.667  0.268-  1020 1.84  1008 1.96   772 1.96   770 1.96  1006 1.96
   325  0.375  0.833  0.256-  1001 1.85  1003 1.85  1009 2.06  1005 2.06  1013 2.10  1015 2.10
   326  0.875  0.833  0.256-  1002 1.85  1004 1.85  1010 2.06  1006 2.06  1014 2.10  1016 2.10
   327  0.458  0.833  0.256-   842 1.85  1003 1.85  1011 2.06  1007 2.06   854 2.10  1015 2.10
   328  0.958  0.833  0.256-  1004 1.85   841 1.85  1012 2.06  1008 2.06  1016 2.10   853 2.10
   329  0.333  0.833  0.377-  1013 1.89  1021 1.99  1025 1.99   943 1.99   947 1.99  1033 2.10
   330  0.833  0.833  0.377-  1014 1.89  1022 1.99  1026 1.99   944 1.99   948 1.99  1034 2.10
   331  0.417  0.833  0.377-  1015 1.89  1021 1.99  1025 1.99  1023 1.99  1027 1.99  1035 2.10
   332  0.917  0.833  0.377-  1016 1.89  1024 1.99  1028 1.99  1022 1.99  1026 1.99  1036 2.10
   333  0.375  0.667  0.384-  1029 1.92  1031 1.92   781 1.98  1025 1.98  1019 2.02  1017 2.02
   334  0.875  0.667  0.384-  1030 1.92  1032 1.92   782 1.98  1026 1.98  1018 2.02  1020 2.02
   335  0.458  0.667  0.384-   870 1.92  1031 1.92   783 1.98  1027 1.98   858 2.02  1019 2.02
   336  0.958  0.667  0.384-  1032 1.92   869 1.92   784 1.98  1028 1.98  1020 2.02   857 2.02
   337  0.333  0.667  0.500-   801 1.97  1037 1.97   959 1.97   723 1.97  1049 2.01  1029 2.01
   338  0.833  0.667  0.500-   802 1.97  1038 1.97   960 1.97   724 1.97  1050 2.01  1030 2.01
   339  0.417  0.667  0.500-   801 1.97  1037 1.97   803 1.97  1039 1.97  1051 2.01  1031 2.01
   340  0.917  0.667  0.500-   804 1.97  1040 1.97  1038 1.97   802 1.97  1052 2.01  1032 2.01
   341  0.375  0.833  0.500-  1045 1.97  1047 1.97  1033 1.97  1035 1.97  1041 2.00  1037 2.00
   342  0.875  0.833  0.500-  1046 1.97  1034 1.97  1048 1.97  1036 1.97  1042 2.00  1038 2.00
   343  0.458  0.833  0.500-   886 1.97   874 1.97  1047 1.97  1035 1.97  1043 2.00  1039 2.00
   344  0.958  0.833  0.500-  1048 1.97  1036 1.97   885 1.97   873 1.97  1044 2.00  1040 2.00
   345  0.333  0.833  0.623-  1065 1.89  1053 1.99  1057 1.99   975 1.99   979 1.99  1045 2.10
   346  0.833  0.833  0.623-  1066 1.89  1054 1.99  1058 1.99   976 1.99   980 1.99  1046 2.10
   347  0.417  0.833  0.623-  1067 1.89  1053 1.99  1057 1.99  1055 1.99  1059 1.99  1047 2.10
   348  0.917  0.833  0.623-  1068 1.89  1056 1.99  1060 1.99  1054 1.99  1058 1.99  1048 2.10
   349  0.375  0.667  0.616-  1049 1.92  1051 1.92   813 1.98  1057 1.98  1061 2.02  1063 2.02
   350  0.875  0.667  0.616-  1050 1.92  1052 1.92   814 1.98  1058 1.98  1062 2.02  1064 2.02
   351  0.458  0.667  0.616-   890 1.92  1051 1.92   815 1.98  1059 1.98   902 2.02  1063 2.02
   352  0.958  0.667  0.616-  1052 1.92   889 1.92   816 1.98  1060 1.98  1064 2.02   901 2.02
   353  0.333  0.667  0.732-  1061 1.84   833 1.96  1069 1.96   755 1.96   991 1.96
   354  0.833  0.667  0.732-  1062 1.84   834 1.96  1070 1.96   756 1.96   992 1.96
   355  0.417  0.667  0.732-  1063 1.84   833 1.96  1069 1.96   835 1.96  1071 1.96
   356  0.917  0.667  0.732-  1064 1.84   836 1.96  1072 1.96  1070 1.96   834 1.96
   357  0.375  0.833  0.744-  1077 1.85  1079 1.85  1073 2.06  1069 2.06  1065 2.10  1067 2.10
   358  0.875  0.833  0.744-  1078 1.85  1080 1.85  1074 2.06  1070 2.06  1066 2.10  1068 2.10
   359  0.458  0.833  0.744-   918 1.85  1079 1.85  1075 2.06  1071 2.06   906 2.10  1067 2.10
   360  0.958  0.833  0.744-  1080 1.85   917 1.85  1076 2.06  1072 2.06  1068 2.10   905 2.10
   361  0.000  0.167  0.216-     5 1.85    88 1.85
   362  0.500  0.167  0.216-    87 1.85     6 1.85
   363  0.083  0.167  0.216-     7 1.85     5 1.85
   364  0.583  0.167  0.216-     8 1.85     6 1.85
   365  0.042  0.062  0.256-     1 1.96     3 1.96     5 2.06
   366  0.542  0.062  0.256-     2 1.96     4 1.96     6 2.06
   367  0.125  0.062  0.256-     3 1.96    41 1.96     7 2.06
   368  0.625  0.062  0.256-     4 1.96    42 1.96     8 2.06
   369  0.042  0.271  0.256-   121 1.96   123 1.96     5 2.06
   370  0.542  0.271  0.256-   122 1.96   124 1.96     6 2.06
   371  0.125  0.271  0.256-   123 1.96   161 1.96     7 2.06
   372  0.625  0.271  0.256-   124 1.96   162 1.96     8 2.06
   373  0.000  0.167  0.309-     9 1.89     5 2.10    88 2.10
   374  0.500  0.167  0.309-    10 1.89    87 2.10     6 2.10
   375  0.083  0.167  0.309-    11 1.89     7 2.10     5 2.10
   376  0.583  0.167  0.309-    12 1.89     8 2.10     6 2.10
   377  0.000  0.000  0.334-     1 1.84    13 2.02    96 2.02
   378  0.500  0.000  0.334-     2 1.84    95 2.02    14 2.02
   379  0.083  0.000  0.334-     3 1.84    15 2.02    13 2.02
   380  0.583  0.000  0.334-     4 1.84    16 2.02    14 2.02
   381  0.042  0.233  0.381-   133 1.98     9 1.99    11 1.99
   382  0.542  0.233  0.381-   134 1.98    10 1.99    12 1.99
   383  0.125  0.233  0.381-   135 1.98    49 1.99    11 1.99
   384  0.625  0.233  0.381-   136 1.98    12 1.99    50 1.99
   385  0.042  0.100  0.381-    13 1.98     9 1.99    11 1.99
   386  0.542  0.100  0.381-    14 1.98    10 1.99    12 1.99
   387  0.125  0.100  0.381-    15 1.98    11 1.99    49 1.99
   388  0.625  0.100  0.381-    16 1.98    12 1.99    50 1.99
   389  0.000  0.000  0.428-    13 1.92    96 1.92    17 2.01
   390  0.500  0.000  0.428-    95 1.92    14 1.92    18 2.01
   391  0.083  0.000  0.428-    15 1.92    13 1.92    19 2.01
   392  0.583  0.000  0.428-    16 1.92    14 1.92    20 2.01
   393  0.000  0.167  0.453-    21 1.97   104 1.97     9 2.10
   394  0.500  0.167  0.453-   103 1.97    22 1.97    10 2.10
   395  0.083  0.167  0.453-    23 1.97    21 1.97    11 2.10
   396  0.583  0.167  0.453-    24 1.97    22 1.97    12 2.10
   397  0.042  0.065  0.500-    17 1.97    19 1.97    21 2.00
   398  0.542  0.065  0.500-    18 1.97    20 1.97    22 2.00
   399  0.125  0.065  0.500-    19 1.97    57 1.97    23 2.00
   400  0.625  0.065  0.500-    20 1.97    58 1.97    24 2.00
   401  0.042  0.268  0.500-   137 1.97   139 1.97    21 2.00
   402  0.542  0.268  0.500-   138 1.97   140 1.97    22 2.00
   403  0.125  0.268  0.500-   139 1.97   177 1.97    23 2.00
   404  0.625  0.268  0.500-   140 1.97   178 1.97    24 2.00
   405  0.000  0.167  0.547-    21 1.97   104 1.97    25 2.10
   406  0.500  0.167  0.547-   103 1.97    22 1.97    26 2.10
   407  0.083  0.167  0.547-    23 1.97    21 1.97    27 2.10
   408  0.583  0.167  0.547-    24 1.97    22 1.97    28 2.10
   409  0.000  0.000  0.572-    29 1.92   112 1.92    17 2.01
   410  0.500  0.000  0.572-   111 1.92    30 1.92    18 2.01
   411  0.083  0.000  0.572-    31 1.92    29 1.92    19 2.01
   412  0.583  0.000  0.572-    32 1.92    30 1.92    20 2.01
   413  0.042  0.233  0.619-   149 1.98    25 1.99    27 1.99
   414  0.542  0.233  0.619-   150 1.98    26 1.99    28 1.99
   415  0.125  0.233  0.619-   151 1.98    65 1.99    27 1.99
   416  0.625  0.233  0.619-   152 1.98    28 1.99    66 1.99
   417  0.042  0.100  0.619-    29 1.98    25 1.99    27 1.99
   418  0.542  0.100  0.619-    30 1.98    26 1.99    28 1.99
   419  0.125  0.100  0.619-    31 1.98    27 1.99    65 1.99
   420  0.625  0.100  0.619-    32 1.98    28 1.99    66 1.99
   421  0.000  0.000  0.666-    33 1.84    29 2.02   112 2.02
   422  0.500  0.000  0.666-    34 1.84   111 2.02    30 2.02
   423  0.083  0.000  0.666-    35 1.84    31 2.02    29 2.02
   424  0.583  0.000  0.666-    36 1.84    32 2.02    30 2.02
   425  0.000  0.167  0.691-    25 1.89    37 2.10   120 2.10
   426  0.500  0.167  0.691-    26 1.89   119 2.10    38 2.10
   427  0.083  0.167  0.691-    27 1.89    39 2.10    37 2.10
   428  0.583  0.167  0.691-    28 1.89    40 2.10    38 2.10
   429  0.042  0.062  0.744-    33 1.96    35 1.96    37 2.06
   430  0.542  0.062  0.744-    34 1.96    36 1.96    38 2.06
   431  0.125  0.062  0.744-    35 1.96    73 1.96    39 2.06
   432  0.625  0.062  0.744-    36 1.96    74 1.96    40 2.06
   433  0.042  0.271  0.744-   153 1.96   155 1.96    37 2.06
   434  0.542  0.271  0.744-   154 1.96   156 1.96    38 2.06
   435  0.125  0.271  0.744-   155 1.96   193 1.96    39 2.06
   436  0.625  0.271  0.744-   156 1.96   194 1.96    40 2.06
   437  0.000  0.167  0.784-    37 1.85   120 1.85
   438  0.500  0.167  0.784-   119 1.85    38 1.85
   439  0.083  0.167  0.784-    39 1.85    37 1.85
   440  0.583  0.167  0.784-    40 1.85    38 1.85
   441  0.167  0.167  0.216-     7 1.85    45 1.85
   442  0.667  0.167  0.216-    46 1.85     8 1.85
   443  0.250  0.167  0.216-    45 1.85    47 1.85
   444  0.750  0.167  0.216-    48 1.85    46 1.85
   445  0.208  0.062  0.256-    43 1.96    41 1.96    45 2.06
   446  0.708  0.062  0.256-    42 1.96    44 1.96    46 2.06
   447  0.292  0.062  0.256-    43 1.96    81 1.96    47 2.06
   448  0.792  0.062  0.256-    44 1.96    82 1.96    48 2.06
   449  0.208  0.271  0.256-   163 1.96   161 1.96    45 2.06
   450  0.708  0.271  0.256-   162 1.96   164 1.96    46 2.06
   451  0.292  0.271  0.256-   163 1.96   201 1.96    47 2.06
   452  0.792  0.271  0.256-   164 1.96   202 1.96    48 2.06
   453  0.167  0.167  0.309-    49 1.89     7 2.10    45 2.10
   454  0.667  0.167  0.309-    50 1.89    46 2.10     8 2.10
   455  0.250  0.167  0.309-    51 1.89    47 2.10    45 2.10
   456  0.750  0.167  0.309-    52 1.89    48 2.10    46 2.10
   457  0.167  0.000  0.334-    41 1.84    15 2.02    53 2.02
   458  0.667  0.000  0.334-    42 1.84    54 2.02    16 2.02
   459  0.250  0.000  0.334-    43 1.84    53 2.02    55 2.02
   460  0.750  0.000  0.334-    44 1.84    56 2.02    54 2.02
   461  0.208  0.233  0.381-   173 1.98    51 1.99    49 1.99
   462  0.708  0.233  0.381-   174 1.98    50 1.99    52 1.99
   463  0.292  0.233  0.381-   175 1.98    51 1.99    89 1.99
   464  0.792  0.233  0.381-   176 1.98    52 1.99    90 1.99
   465  0.208  0.100  0.381-    53 1.98    51 1.99    49 1.99
   466  0.708  0.100  0.381-    54 1.98    50 1.99    52 1.99
   467  0.292  0.100  0.381-    55 1.98    51 1.99    89 1.99
   468  0.792  0.100  0.381-    56 1.98    52 1.99    90 1.99
   469  0.167  0.000  0.428-    15 1.92    53 1.92    57 2.01
   470  0.667  0.000  0.428-    54 1.92    16 1.92    58 2.01
   471  0.250  0.000  0.428-    53 1.92    55 1.92    59 2.01
   472  0.750  0.000  0.428-    56 1.92    54 1.92    60 2.01
   473  0.167  0.167  0.453-    23 1.97    61 1.97    49 2.10
   474  0.667  0.167  0.453-    62 1.97    24 1.97    50 2.10
   475  0.250  0.167  0.453-    61 1.97    63 1.97    51 2.10
   476  0.750  0.167  0.453-    64 1.97    62 1.97    52 2.10
   477  0.208  0.065  0.500-    59 1.97    57 1.97    61 2.00
   478  0.708  0.065  0.500-    58 1.97    60 1.97    62 2.00
   479  0.292  0.065  0.500-    59 1.97    97 1.97    63 2.00
   480  0.792  0.065  0.500-    60 1.97    98 1.97    64 2.00
   481  0.208  0.268  0.500-   179 1.97   177 1.97    61 2.00
   482  0.708  0.268  0.500-   178 1.97   180 1.97    62 2.00
   483  0.292  0.268  0.500-   179 1.97   217 1.97    63 2.00
   484  0.792  0.268  0.500-   180 1.97   218 1.97    64 2.00
   485  0.167  0.167  0.547-    23 1.97    61 1.97    65 2.10
   486  0.667  0.167  0.547-    62 1.97    24 1.97    66 2.10
   487  0.250  0.167  0.547-    61 1.97    63 1.97    67 2.10
   488  0.750  0.167  0.547-    64 1.97    62 1.97    68 2.10
   489  0.167  0.000  0.572-    31 1.92    69 1.92    57 2.01
   490  0.667  0.000  0.572-    70 1.92    32 1.92    58 2.01
   491  0.250  0.000  0.572-    69 1.92    71 1.92    59 2.01
   492  0.750  0.000  0.572-    72 1.92    70 1.92    60 2.01
   493  0.208  0.233  0.619-   189 1.98    67 1.99    65 1.99
   494  0.708  0.233  0.619-   190 1.98    66 1.99    68 1.99
   495  0.292  0.233  0.619-   191 1.98    67 1.99   105 1.99
   496  0.792  0.233  0.619-   192 1.98    68 1.99   106 1.99
   497  0.208  0.100  0.619-    69 1.98    67 1.99    65 1.99
   498  0.708  0.100  0.619-    70 1.98    66 1.99    68 1.99
   499  0.292  0.100  0.619-    71 1.98    67 1.99   105 1.99
   500  0.792  0.100  0.619-    72 1.98    68 1.99   106 1.99
   501  0.167  0.000  0.666-    73 1.84    31 2.02    69 2.02
   502  0.667  0.000  0.666-    74 1.84    70 2.02    32 2.02
   503  0.250  0.000  0.666-    75 1.84    71 2.02    69 2.02
   504  0.750  0.000  0.666-    76 1.84    72 2.02    70 2.02
   505  0.167  0.167  0.691-    65 1.89    39 2.10    77 2.10
   506  0.667  0.167  0.691-    66 1.89    78 2.10    40 2.10
   507  0.250  0.167  0.691-    67 1.89    77 2.10    79 2.10
   508  0.750  0.167  0.691-    68 1.89    80 2.10    78 2.10
   509  0.208  0.062  0.744-    75 1.96    73 1.96    77 2.06
   510  0.708  0.062  0.744-    74 1.96    76 1.96    78 2.06
   511  0.292  0.062  0.744-    75 1.96   113 1.96    79 2.06
   512  0.792  0.062  0.744-    76 1.96   114 1.96    80 2.06
   513  0.208  0.271  0.744-   195 1.96   193 1.96    77 2.06
   514  0.708  0.271  0.744-   194 1.96   196 1.96    78 2.06
   515  0.292  0.271  0.744-   195 1.96   233 1.96    79 2.06
   516  0.792  0.271  0.744-   196 1.96   234 1.96    80 2.06
   517  0.167  0.167  0.784-    39 1.85    77 1.85
   518  0.667  0.167  0.784-    78 1.85    40 1.85
   519  0.250  0.167  0.784-    77 1.85    79 1.85
   520  0.750  0.167  0.784-    80 1.85    78 1.85
   521  0.333  0.167  0.216-    85 1.85    47 1.85
   522  0.833  0.167  0.216-    86 1.85    48 1.85
   523  0.417  0.167  0.216-    85 1.85    87 1.85
   524  0.917  0.167  0.216-    88 1.85    86 1.85
   525  0.375  0.062  0.256-    81 1.96    83 1.96    85 2.06
   526  0.875  0.062  0.256-    82 1.96    84 1.96    86 2.06
   527  0.458  0.062  0.256-     2 1.96    83 1.96    87 2.06
   528  0.958  0.062  0.256-    84 1.96     1 1.96    88 2.06
   529  0.375  0.271  0.256-   201 1.96   203 1.96    85 2.06
   530  0.875  0.271  0.256-   202 1.96   204 1.96    86 2.06
   531  0.458  0.271  0.256-   122 1.96   203 1.96    87 2.06
   532  0.958  0.271  0.256-   204 1.96   121 1.96    88 2.06
   533  0.333  0.167  0.309-    89 1.89    85 2.10    47 2.10
   534  0.833  0.167  0.309-    90 1.89    86 2.10    48 2.10
   535  0.417  0.167  0.309-    91 1.89    85 2.10    87 2.10
   536  0.917  0.167  0.309-    92 1.89    88 2.10    86 2.10
   537  0.333  0.000  0.334-    81 1.84    93 2.02    55 2.02
   538  0.833  0.000  0.334-    82 1.84    94 2.02    56 2.02
   539  0.417  0.000  0.334-    83 1.84    93 2.02    95 2.02
   540  0.917  0.000  0.334-    84 1.84    96 2.02    94 2.02
   541  0.375  0.233  0.381-   213 1.98    91 1.99    89 1.99
   542  0.875  0.233  0.381-   214 1.98    90 1.99    92 1.99
   543  0.458  0.233  0.381-   215 1.98    10 1.99    91 1.99
   544  0.958  0.233  0.381-   216 1.98    92 1.99     9 1.99
   545  0.375  0.100  0.381-    93 1.98    91 1.99    89 1.99
   546  0.875  0.100  0.381-    94 1.98    90 1.99    92 1.99
   547  0.458  0.100  0.381-    95 1.98    10 1.99    91 1.99
   548  0.958  0.100  0.381-    96 1.98    92 1.99     9 1.99
   549  0.333  0.000  0.428-    93 1.92    55 1.92    97 2.01
   550  0.833  0.000  0.428-    94 1.92    56 1.92    98 2.01
   551  0.417  0.000  0.428-    93 1.92    95 1.92    99 2.01
   552  0.917  0.000  0.428-    96 1.92    94 1.92   100 2.01
   553  0.333  0.167  0.453-   101 1.97    63 1.97    89 2.10
   554  0.833  0.167  0.453-   102 1.97    64 1.97    90 2.10
   555  0.417  0.167  0.453-   101 1.97   103 1.97    91 2.10
   556  0.917  0.167  0.453-   104 1.97   102 1.97    92 2.10
   557  0.375  0.065  0.500-    97 1.97    99 1.97   101 2.00
   558  0.875  0.065  0.500-    98 1.97   100 1.97   102 2.00
   559  0.458  0.065  0.500-    18 1.97    99 1.97   103 2.00
   560  0.958  0.065  0.500-   100 1.97    17 1.97   104 2.00
   561  0.375  0.268  0.500-   217 1.97   219 1.97   101 2.00
   562  0.875  0.268  0.500-   218 1.97   220 1.97   102 2.00
   563  0.458  0.268  0.500-   138 1.97   219 1.97   103 2.00
   564  0.958  0.268  0.500-   220 1.97   137 1.97   104 2.00
   565  0.333  0.167  0.547-   101 1.97    63 1.97   105 2.10
   566  0.833  0.167  0.547-   102 1.97    64 1.97   106 2.10
   567  0.417  0.167  0.547-   101 1.97   103 1.97   107 2.10
   568  0.917  0.167  0.547-   104 1.97   102 1.97   108 2.10
   569  0.333  0.000  0.572-   109 1.92    71 1.92    97 2.01
   570  0.833  0.000  0.572-   110 1.92    72 1.92    98 2.01
   571  0.417  0.000  0.572-   109 1.92   111 1.92    99 2.01
   572  0.917  0.000  0.572-   112 1.92   110 1.92   100 2.01
   573  0.375  0.233  0.619-   229 1.98   107 1.99   105 1.99
   574  0.875  0.233  0.619-   230 1.98   106 1.99   108 1.99
   575  0.458  0.233  0.619-   231 1.98    26 1.99   107 1.99
   576  0.958  0.233  0.619-   232 1.98   108 1.99    25 1.99
   577  0.375  0.100  0.619-   109 1.98   107 1.99   105 1.99
   578  0.875  0.100  0.619-   110 1.98   106 1.99   108 1.99
   579  0.458  0.100  0.619-   111 1.98    26 1.99   107 1.99
   580  0.958  0.100  0.619-   112 1.98   108 1.99    25 1.99
   581  0.333  0.000  0.666-   113 1.84   109 2.02    71 2.02
   582  0.833  0.000  0.666-   114 1.84   110 2.02    72 2.02
   583  0.417  0.000  0.666-   115 1.84   109 2.02   111 2.02
   584  0.917  0.000  0.666-   116 1.84   112 2.02   110 2.02
   585  0.333  0.167  0.691-   105 1.89   117 2.10    79 2.10
   586  0.833  0.167  0.691-   106 1.89   118 2.10    80 2.10
   587  0.417  0.167  0.691-   107 1.89   117 2.10   119 2.10
   588  0.917  0.167  0.691-   108 1.89   120 2.10   118 2.10
   589  0.375  0.062  0.744-   113 1.96   115 1.96   117 2.06
   590  0.875  0.062  0.744-   114 1.96   116 1.96   118 2.06
   591  0.458  0.062  0.744-    34 1.96   115 1.96   119 2.06
   592  0.958  0.062  0.744-   116 1.96    33 1.96   120 2.06
   593  0.375  0.271  0.744-   233 1.96   235 1.96   117 2.06
   594  0.875  0.271  0.744-   234 1.96   236 1.96   118 2.06
   595  0.458  0.271  0.744-   154 1.96   235 1.96   119 2.06
   596  0.958  0.271  0.744-   236 1.96   153 1.96   120 2.06
   597  0.333  0.167  0.784-   117 1.85    79 1.85
   598  0.833  0.167  0.784-   118 1.85    80 1.85
   599  0.417  0.167  0.784-   117 1.85   119 1.85
   600  0.917  0.167  0.784-   120 1.85   118 1.85
   601  0.000  0.500  0.216-   125 1.85   208 1.85
   602  0.500  0.500  0.216-   207 1.85   126 1.85
   603  0.083  0.500  0.216-   127 1.85   125 1.85
   604  0.583  0.500  0.216-   128 1.85   126 1.85
   605  0.042  0.396  0.256-   121 1.96   123 1.96   125 2.06
   606  0.542  0.396  0.256-   122 1.96   124 1.96   126 2.06
   607  0.125  0.396  0.256-   123 1.96   161 1.96   127 2.06
   608  0.625  0.396  0.256-   124 1.96   162 1.96   128 2.06
   609  0.042  0.604  0.256-   241 1.96   243 1.96   125 2.06
   610  0.542  0.604  0.256-   242 1.96   244 1.96   126 2.06
   611  0.125  0.604  0.256-   243 1.96   281 1.96   127 2.06
   612  0.625  0.604  0.256-   244 1.96   282 1.96   128 2.06
   613  0.000  0.500  0.309-   129 1.89   125 2.10   208 2.10
   614  0.500  0.500  0.309-   130 1.89   207 2.10   126 2.10
   615  0.083  0.500  0.309-   131 1.89   127 2.10   125 2.10
   616  0.583  0.500  0.309-   132 1.89   128 2.10   126 2.10
   617  0.000  0.333  0.334-   121 1.84   133 2.02   216 2.02
   618  0.500  0.333  0.334-   122 1.84   215 2.02   134 2.02
   619  0.083  0.333  0.334-   123 1.84   135 2.02   133 2.02
   620  0.583  0.333  0.334-   124 1.84   136 2.02   134 2.02
   621  0.042  0.567  0.381-   253 1.98   129 1.99   131 1.99
   622  0.542  0.567  0.381-   254 1.98   130 1.99   132 1.99
   623  0.125  0.567  0.381-   255 1.98   169 1.99   131 1.99
   624  0.625  0.567  0.381-   256 1.98   132 1.99   170 1.99
   625  0.042  0.433  0.381-   133 1.98   129 1.99   131 1.99
   626  0.542  0.433  0.381-   134 1.98   130 1.99   132 1.99
   627  0.125  0.433  0.381-   135 1.98   131 1.99   169 1.99
   628  0.625  0.433  0.381-   136 1.98   132 1.99   170 1.99
   629  0.000  0.333  0.428-   133 1.92   216 1.92   137 2.01
   630  0.500  0.333  0.428-   215 1.92   134 1.92   138 2.01
   631  0.083  0.333  0.428-   135 1.92   133 1.92   139 2.01
   632  0.583  0.333  0.428-   136 1.92   134 1.92   140 2.01
   633  0.000  0.500  0.453-   141 1.97   224 1.97   129 2.10
   634  0.500  0.500  0.453-   223 1.97   142 1.97   130 2.10
   635  0.083  0.500  0.453-   143 1.97   141 1.97   131 2.10
   636  0.583  0.500  0.453-   144 1.97   142 1.97   132 2.10
   637  0.042  0.399  0.500-   137 1.97   139 1.97   141 2.00
   638  0.542  0.399  0.500-   138 1.97   140 1.97   142 2.00
   639  0.125  0.399  0.500-   139 1.97   177 1.97   143 2.00
   640  0.625  0.399  0.500-   140 1.97   178 1.97   144 2.00
   641  0.042  0.601  0.500-   257 1.97   259 1.97   141 2.00
   642  0.542  0.601  0.500-   258 1.97   260 1.97   142 2.00
   643  0.125  0.601  0.500-   259 1.97   297 1.97   143 2.00
   644  0.625  0.601  0.500-   260 1.97   298 1.97   144 2.00
   645  0.000  0.500  0.547-   141 1.97   224 1.97   145 2.10
   646  0.500  0.500  0.547-   223 1.97   142 1.97   146 2.10
   647  0.083  0.500  0.547-   143 1.97   141 1.97   147 2.10
   648  0.583  0.500  0.547-   144 1.97   142 1.97   148 2.10
   649  0.000  0.333  0.572-   149 1.92   232 1.92   137 2.01
   650  0.500  0.333  0.572-   231 1.92   150 1.92   138 2.01
   651  0.083  0.333  0.572-   151 1.92   149 1.92   139 2.01
   652  0.583  0.333  0.572-   152 1.92   150 1.92   140 2.01
   653  0.042  0.567  0.619-   269 1.98   145 1.99   147 1.99
   654  0.542  0.567  0.619-   270 1.98   146 1.99   148 1.99
   655  0.125  0.567  0.619-   271 1.98   185 1.99   147 1.99
   656  0.625  0.567  0.619-   272 1.98   148 1.99   186 1.99
   657  0.042  0.433  0.619-   149 1.98   145 1.99   147 1.99
   658  0.542  0.433  0.619-   150 1.98   146 1.99   148 1.99
   659  0.125  0.433  0.619-   151 1.98   147 1.99   185 1.99
   660  0.625  0.433  0.619-   152 1.98   148 1.99   186 1.99
   661  0.000  0.333  0.666-   153 1.84   149 2.02   232 2.02
   662  0.500  0.333  0.666-   154 1.84   231 2.02   150 2.02
   663  0.083  0.333  0.666-   155 1.84   151 2.02   149 2.02
   664  0.583  0.333  0.666-   156 1.84   152 2.02   150 2.02
   665  0.000  0.500  0.691-   145 1.89   157 2.10   240 2.10
   666  0.500  0.500  0.691-   146 1.89   239 2.10   158 2.10
   667  0.083  0.500  0.691-   147 1.89   159 2.10   157 2.10
   668  0.583  0.500  0.691-   148 1.89   160 2.10   158 2.10
   669  0.042  0.396  0.744-   153 1.96   155 1.96   157 2.06
   670  0.542  0.396  0.744-   154 1.96   156 1.96   158 2.06
   671  0.125  0.396  0.744-   155 1.96   193 1.96   159 2.06
   672  0.625  0.396  0.744-   156 1.96   194 1.96   160 2.06
   673  0.042  0.604  0.744-   273 1.96   275 1.96   157 2.06
   674  0.542  0.604  0.744-   274 1.96   276 1.96   158 2.06
   675  0.125  0.604  0.744-   275 1.96   313 1.96   159 2.06
   676  0.625  0.604  0.744-   276 1.96   314 1.96   160 2.06
   677  0.000  0.500  0.784-   157 1.85   240 1.85
   678  0.500  0.500  0.784-   239 1.85   158 1.85
   679  0.083  0.500  0.784-   159 1.85   157 1.85
   680  0.583  0.500  0.784-   160 1.85   158 1.85
   681  0.167  0.500  0.216-   127 1.85   165 1.85
   682  0.667  0.500  0.216-   166 1.85   128 1.85
   683  0.250  0.500  0.216-   165 1.85   167 1.85
   684  0.750  0.500  0.216-   168 1.85   166 1.85
   685  0.208  0.396  0.256-   163 1.96   161 1.96   165 2.06
   686  0.708  0.396  0.256-   162 1.96   164 1.96   166 2.06
   687  0.292  0.396  0.256-   163 1.96   201 1.96   167 2.06
   688  0.792  0.396  0.256-   164 1.96   202 1.96   168 2.06
   689  0.208  0.604  0.256-   283 1.96   281 1.96   165 2.06
   690  0.708  0.604  0.256-   282 1.96   284 1.96   166 2.06
   691  0.292  0.604  0.256-   283 1.96   321 1.96   167 2.06
   692  0.792  0.604  0.256-   284 1.96   322 1.96   168 2.06
   693  0.167  0.500  0.309-   169 1.89   127 2.10   165 2.10
   694  0.667  0.500  0.309-   170 1.89   166 2.10   128 2.10
   695  0.250  0.500  0.309-   171 1.89   167 2.10   165 2.10
   696  0.750  0.500  0.309-   172 1.89   168 2.10   166 2.10
   697  0.167  0.333  0.334-   161 1.84   135 2.02   173 2.02
   698  0.667  0.333  0.334-   162 1.84   174 2.02   136 2.02
   699  0.250  0.333  0.334-   163 1.84   173 2.02   175 2.02
   700  0.750  0.333  0.334-   164 1.84   176 2.02   174 2.02
   701  0.208  0.567  0.381-   293 1.98   171 1.99   169 1.99
   702  0.708  0.567  0.381-   294 1.98   170 1.99   172 1.99
   703  0.292  0.567  0.381-   295 1.98   171 1.99   209 1.99
   704  0.792  0.567  0.381-   296 1.98   172 1.99   210 1.99
   705  0.208  0.433  0.381-   173 1.98   171 1.99   169 1.99
   706  0.708  0.433  0.381-   174 1.98   170 1.99   172 1.99
   707  0.292  0.433  0.381-   175 1.98   171 1.99   209 1.99
   708  0.792  0.433  0.381-   176 1.98   172 1.99   210 1.99
   709  0.167  0.333  0.428-   135 1.92   173 1.92   177 2.01
   710  0.667  0.333  0.428-   174 1.92   136 1.92   178 2.01
   711  0.250  0.333  0.428-   173 1.92   175 1.92   179 2.01
   712  0.750  0.333  0.428-   176 1.92   174 1.92   180 2.01
   713  0.167  0.500  0.453-   143 1.97   181 1.97   169 2.10
   714  0.667  0.500  0.453-   182 1.97   144 1.97   170 2.10
   715  0.250  0.500  0.453-   181 1.97   183 1.97   171 2.10
   716  0.750  0.500  0.453-   184 1.97   182 1.97   172 2.10
   717  0.208  0.399  0.500-   179 1.97   177 1.97   181 2.00
   718  0.708  0.399  0.500-   178 1.97   180 1.97   182 2.00
   719  0.292  0.399  0.500-   179 1.97   217 1.97   183 2.00
   720  0.792  0.399  0.500-   180 1.97   218 1.97   184 2.00
   721  0.208  0.601  0.500-   299 1.97   297 1.97   181 2.00
   722  0.708  0.601  0.500-   298 1.97   300 1.97   182 2.00
   723  0.292  0.601  0.500-   299 1.97   337 1.97   183 2.00
   724  0.792  0.601  0.500-   300 1.97   338 1.97   184 2.00
   725  0.167  0.500  0.547-   143 1.97   181 1.97   185 2.10
   726  0.667  0.500  0.547-   182 1.97   144 1.97   186 2.10
   727  0.250  0.500  0.547-   181 1.97   183 1.97   187 2.10
   728  0.750  0.500  0.547-   184 1.97   182 1.97   188 2.10
   729  0.167  0.333  0.572-   151 1.92   189 1.92   177 2.01
   730  0.667  0.333  0.572-   190 1.92   152 1.92   178 2.01
   731  0.250  0.333  0.572-   189 1.92   191 1.92   179 2.01
   732  0.750  0.333  0.572-   192 1.92   190 1.92   180 2.01
   733  0.208  0.567  0.619-   309 1.98   187 1.99   185 1.99
   734  0.708  0.567  0.619-   310 1.98   186 1.99   188 1.99
   735  0.292  0.567  0.619-   311 1.98   187 1.99   225 1.99
   736  0.792  0.567  0.619-   312 1.98   188 1.99   226 1.99
   737  0.208  0.433  0.619-   189 1.98   187 1.99   185 1.99
   738  0.708  0.433  0.619-   190 1.98   186 1.99   188 1.99
   739  0.292  0.433  0.619-   191 1.98   187 1.99   225 1.99
   740  0.792  0.433  0.619-   192 1.98   188 1.99   226 1.99
   741  0.167  0.333  0.666-   193 1.84   151 2.02   189 2.02
   742  0.667  0.333  0.666-   194 1.84   190 2.02   152 2.02
   743  0.250  0.333  0.666-   195 1.84   191 2.02   189 2.02
   744  0.750  0.333  0.666-   196 1.84   192 2.02   190 2.02
   745  0.167  0.500  0.691-   185 1.89   159 2.10   197 2.10
   746  0.667  0.500  0.691-   186 1.89   198 2.10   160 2.10
   747  0.250  0.500  0.691-   187 1.89   197 2.10   199 2.10
   748  0.750  0.500  0.691-   188 1.89   200 2.10   198 2.10
   749  0.208  0.396  0.744-   195 1.96   193 1.96   197 2.06
   750  0.708  0.396  0.744-   194 1.96   196 1.96   198 2.06
   751  0.292  0.396  0.744-   195 1.96   233 1.96   199 2.06
   752  0.792  0.396  0.744-   196 1.96   234 1.96   200 2.06
   753  0.208  0.604  0.744-   315 1.96   313 1.96   197 2.06
   754  0.708  0.604  0.744-   314 1.96   316 1.96   198 2.06
   755  0.292  0.604  0.744-   315 1.96   353 1.96   199 2.06
   756  0.792  0.604  0.744-   316 1.96   354 1.96   200 2.06
   757  0.167  0.500  0.784-   159 1.85   197 1.85
   758  0.667  0.500  0.784-   198 1.85   160 1.85
   759  0.250  0.500  0.784-   197 1.85   199 1.85
   760  0.750  0.500  0.784-   200 1.85   198 1.85
   761  0.333  0.500  0.216-   205 1.85   167 1.85
   762  0.833  0.500  0.216-   206 1.85   168 1.85
   763  0.417  0.500  0.216-   205 1.85   207 1.85
   764  0.917  0.500  0.216-   208 1.85   206 1.85
   765  0.375  0.396  0.256-   201 1.96   203 1.96   205 2.06
   766  0.875  0.396  0.256-   202 1.96   204 1.96   206 2.06
   767  0.458  0.396  0.256-   122 1.96   203 1.96   207 2.06
   768  0.958  0.396  0.256-   204 1.96   121 1.96   208 2.06
   769  0.375  0.604  0.256-   321 1.96   323 1.96   205 2.06
   770  0.875  0.604  0.256-   322 1.96   324 1.96   206 2.06
   771  0.458  0.604  0.256-   242 1.96   323 1.96   207 2.06
   772  0.958  0.604  0.256-   324 1.96   241 1.96   208 2.06
   773  0.333  0.500  0.309-   209 1.89   205 2.10   167 2.10
   774  0.833  0.500  0.309-   210 1.89   206 2.10   168 2.10
   775  0.417  0.500  0.309-   211 1.89   205 2.10   207 2.10
   776  0.917  0.500  0.309-   212 1.89   208 2.10   206 2.10
   777  0.333  0.333  0.334-   201 1.84   213 2.02   175 2.02
   778  0.833  0.333  0.334-   202 1.84   214 2.02   176 2.02
   779  0.417  0.333  0.334-   203 1.84   213 2.02   215 2.02
   780  0.917  0.333  0.334-   204 1.84   216 2.02   214 2.02
   781  0.375  0.567  0.381-   333 1.98   211 1.99   209 1.99
   782  0.875  0.567  0.381-   334 1.98   210 1.99   212 1.99
   783  0.458  0.567  0.381-   335 1.98   130 1.99   211 1.99
   784  0.958  0.567  0.381-   336 1.98   212 1.99   129 1.99
   785  0.375  0.433  0.381-   213 1.98   211 1.99   209 1.99
   786  0.875  0.433  0.381-   214 1.98   210 1.99   212 1.99
   787  0.458  0.433  0.381-   215 1.98   130 1.99   211 1.99
   788  0.958  0.433  0.381-   216 1.98   212 1.99   129 1.99
   789  0.333  0.333  0.428-   213 1.92   175 1.92   217 2.01
   790  0.833  0.333  0.428-   214 1.92   176 1.92   218 2.01
   791  0.417  0.333  0.428-   213 1.92   215 1.92   219 2.01
   792  0.917  0.333  0.428-   216 1.92   214 1.92   220 2.01
   793  0.333  0.500  0.453-   221 1.97   183 1.97   209 2.10
   794  0.833  0.500  0.453-   222 1.97   184 1.97   210 2.10
   795  0.417  0.500  0.453-   221 1.97   223 1.97   211 2.10
   796  0.917  0.500  0.453-   224 1.97   222 1.97   212 2.10
   797  0.375  0.399  0.500-   217 1.97   219 1.97   221 2.00
   798  0.875  0.399  0.500-   218 1.97   220 1.97   222 2.00
   799  0.458  0.399  0.500-   138 1.97   219 1.97   223 2.00
   800  0.958  0.399  0.500-   220 1.97   137 1.97   224 2.00
   801  0.375  0.601  0.500-   337 1.97   339 1.97   221 2.00
   802  0.875  0.601  0.500-   338 1.97   340 1.97   222 2.00
   803  0.458  0.601  0.500-   258 1.97   339 1.97   223 2.00
   804  0.958  0.601  0.500-   340 1.97   257 1.97   224 2.00
   805  0.333  0.500  0.547-   221 1.97   183 1.97   225 2.10
   806  0.833  0.500  0.547-   222 1.97   184 1.97   226 2.10
   807  0.417  0.500  0.547-   221 1.97   223 1.97   227 2.10
   808  0.917  0.500  0.547-   224 1.97   222 1.97   228 2.10
   809  0.333  0.333  0.572-   229 1.92   191 1.92   217 2.01
   810  0.833  0.333  0.572-   230 1.92   192 1.92   218 2.01
   811  0.417  0.333  0.572-   229 1.92   231 1.92   219 2.01
   812  0.917  0.333  0.572-   232 1.92   230 1.92   220 2.01
   813  0.375  0.567  0.619-   349 1.98   227 1.99   225 1.99
   814  0.875  0.567  0.619-   350 1.98   226 1.99   228 1.99
   815  0.458  0.567  0.619-   351 1.98   146 1.99   227 1.99
   816  0.958  0.567  0.619-   352 1.98   228 1.99   145 1.99
   817  0.375  0.433  0.619-   229 1.98   227 1.99   225 1.99
   818  0.875  0.433  0.619-   230 1.98   226 1.99   228 1.99
   819  0.458  0.433  0.619-   231 1.98   146 1.99   227 1.99
   820  0.958  0.433  0.619-   232 1.98   228 1.99   145 1.99
   821  0.333  0.333  0.666-   233 1.84   229 2.02   191 2.02
   822  0.833  0.333  0.666-   234 1.84   230 2.02   192 2.02
   823  0.417  0.333  0.666-   235 1.84   229 2.02   231 2.02
   824  0.917  0.333  0.666-   236 1.84   232 2.02   230 2.02
   825  0.333  0.500  0.691-   225 1.89   237 2.10   199 2.10
   826  0.833  0.500  0.691-   226 1.89   238 2.10   200 2.10
   827  0.417  0.500  0.691-   227 1.89   237 2.10   239 2.10
   828  0.917  0.500  0.691-   228 1.89   240 2.10   238 2.10
   829  0.375  0.396  0.744-   233 1.96   235 1.96   237 2.06
   830  0.875  0.396  0.744-   234 1.96   236 1.96   238 2.06
   831  0.458  0.396  0.744-   154 1.96   235 1.96   239 2.06
   832  0.958  0.396  0.744-   236 1.96   153 1.96   240 2.06
   833  0.375  0.604  0.744-   353 1.96   355 1.96   237 2.06
   834  0.875  0.604  0.744-   354 1.96   356 1.96   238 2.06
   835  0.458  0.604  0.744-   274 1.96   355 1.96   239 2.06
   836  0.958  0.604  0.744-   356 1.96   273 1.96   240 2.06
   837  0.333  0.500  0.784-   237 1.85   199 1.85
   838  0.833  0.500  0.784-   238 1.85   200 1.85
   839  0.417  0.500  0.784-   237 1.85   239 1.85
   840  0.917  0.500  0.784-   240 1.85   238 1.85
   841  0.000  0.833  0.216-   245 1.85   328 1.85
   842  0.500  0.833  0.216-   327 1.85   246 1.85
   843  0.083  0.833  0.216-   247 1.85   245 1.85
   844  0.583  0.833  0.216-   248 1.85   246 1.85
   845  0.042  0.729  0.256-   241 1.96   243 1.96   245 2.06
   846  0.542  0.729  0.256-   242 1.96   244 1.96   246 2.06
   847  0.125  0.729  0.256-   243 1.96   281 1.96   247 2.06
   848  0.625  0.729  0.256-   244 1.96   282 1.96   248 2.06
   849  0.042  0.938  0.256-     1 1.96     3 1.96   245 2.06
   850  0.542  0.938  0.256-     2 1.96     4 1.96   246 2.06
   851  0.125  0.938  0.256-     3 1.96    41 1.96   247 2.06
   852  0.625  0.938  0.256-     4 1.96    42 1.96   248 2.06
   853  0.000  0.833  0.309-   249 1.89   245 2.10   328 2.10
   854  0.500  0.833  0.309-   250 1.89   327 2.10   246 2.10
   855  0.083  0.833  0.309-   251 1.89   247 2.10   245 2.10
   856  0.583  0.833  0.309-   252 1.89   248 2.10   246 2.10
   857  0.000  0.667  0.334-   241 1.84   253 2.02   336 2.02
   858  0.500  0.667  0.334-   242 1.84   335 2.02   254 2.02
   859  0.083  0.667  0.334-   243 1.84   255 2.02   253 2.02
   860  0.583  0.667  0.334-   244 1.84   256 2.02   254 2.02
   861  0.042  0.900  0.381-    13 1.98   249 1.99   251 1.99
   862  0.542  0.900  0.381-    14 1.98   250 1.99   252 1.99
   863  0.125  0.900  0.381-    15 1.98   251 1.99   289 1.99
   864  0.625  0.900  0.381-    16 1.98   252 1.99   290 1.99
   865  0.042  0.767  0.381-   253 1.98   249 1.99   251 1.99
   866  0.542  0.767  0.381-   254 1.98   250 1.99   252 1.99
   867  0.125  0.767  0.381-   255 1.98   251 1.99   289 1.99
   868  0.625  0.767  0.381-   256 1.98   252 1.99   290 1.99
   869  0.000  0.667  0.428-   253 1.92   336 1.92   257 2.01
   870  0.500  0.667  0.428-   335 1.92   254 1.92   258 2.01
   871  0.083  0.667  0.428-   255 1.92   253 1.92   259 2.01
   872  0.583  0.667  0.428-   256 1.92   254 1.92   260 2.01
   873  0.000  0.833  0.453-   261 1.97   344 1.97   249 2.10
   874  0.500  0.833  0.453-   343 1.97   262 1.97   250 2.10
   875  0.083  0.833  0.453-   263 1.97   261 1.97   251 2.10
   876  0.583  0.833  0.453-   264 1.97   262 1.97   252 2.10
   877  0.042  0.732  0.500-   257 1.97   259 1.97   261 2.00
   878  0.542  0.732  0.500-   258 1.97   260 1.97   262 2.00
   879  0.125  0.732  0.500-   259 1.97   297 1.97   263 2.00
   880  0.625  0.732  0.500-   260 1.97   298 1.97   264 2.00
   881  0.042  0.935  0.500-    17 1.97    19 1.97   261 2.00
   882  0.542  0.935  0.500-    18 1.97    20 1.97   262 2.00
   883  0.125  0.935  0.500-    19 1.97    57 1.97   263 2.00
   884  0.625  0.935  0.500-    20 1.97    58 1.97   264 2.00
   885  0.000  0.833  0.547-   261 1.97   344 1.97   265 2.10
   886  0.500  0.833  0.547-   343 1.97   262 1.97   266 2.10
   887  0.083  0.833  0.547-   263 1.97   261 1.97   267 2.10
   888  0.583  0.833  0.547-   264 1.97   262 1.97   268 2.10
   889  0.000  0.667  0.572-   269 1.92   352 1.92   257 2.01
   890  0.500  0.667  0.572-   351 1.92   270 1.92   258 2.01
   891  0.083  0.667  0.572-   271 1.92   269 1.92   259 2.01
   892  0.583  0.667  0.572-   272 1.92   270 1.92   260 2.01
   893  0.042  0.900  0.619-    29 1.98   265 1.99   267 1.99
   894  0.542  0.900  0.619-    30 1.98   266 1.99   268 1.99
   895  0.125  0.900  0.619-    31 1.98   267 1.99   305 1.99
   896  0.625  0.900  0.619-    32 1.98   268 1.99   306 1.99
   897  0.042  0.767  0.619-   269 1.98   265 1.99   267 1.99
   898  0.542  0.767  0.619-   270 1.98   266 1.99   268 1.99
   899  0.125  0.767  0.619-   271 1.98   267 1.99   305 1.99
   900  0.625  0.767  0.619-   272 1.98   268 1.99   306 1.99
   901  0.000  0.667  0.666-   273 1.84   269 2.02   352 2.02
   902  0.500  0.667  0.666-   274 1.84   351 2.02   270 2.02
   903  0.083  0.667  0.666-   275 1.84   271 2.02   269 2.02
   904  0.583  0.667  0.666-   276 1.84   272 2.02   270 2.02
   905  0.000  0.833  0.691-   265 1.89   277 2.10   360 2.10
   906  0.500  0.833  0.691-   266 1.89   359 2.10   278 2.10
   907  0.083  0.833  0.691-   267 1.89   279 2.10   277 2.10
   908  0.583  0.833  0.691-   268 1.89   280 2.10   278 2.10
   909  0.042  0.729  0.744-   273 1.96   275 1.96   277 2.06
   910  0.542  0.729  0.744-   274 1.96   276 1.96   278 2.06
   911  0.125  0.729  0.744-   275 1.96   313 1.96   279 2.06
   912  0.625  0.729  0.744-   276 1.96   314 1.96   280 2.06
   913  0.042  0.938  0.744-    33 1.96    35 1.96   277 2.06
   914  0.542  0.938  0.744-    34 1.96    36 1.96   278 2.06
   915  0.125  0.938  0.744-    35 1.96    73 1.96   279 2.06
   916  0.625  0.938  0.744-    36 1.96    74 1.96   280 2.06
   917  0.000  0.833  0.784-   277 1.85   360 1.85
   918  0.500  0.833  0.784-   359 1.85   278 1.85
   919  0.083  0.833  0.784-   279 1.85   277 1.85
   920  0.583  0.833  0.784-   280 1.85   278 1.85
   921  0.167  0.833  0.216-   247 1.85   285 1.85
   922  0.667  0.833  0.216-   286 1.85   248 1.85
   923  0.250  0.833  0.216-   285 1.85   287 1.85
   924  0.750  0.833  0.216-   288 1.85   286 1.85
   925  0.208  0.729  0.256-   283 1.96   281 1.96   285 2.06
   926  0.708  0.729  0.256-   282 1.96   284 1.96   286 2.06
   927  0.292  0.729  0.256-   283 1.96   321 1.96   287 2.06
   928  0.792  0.729  0.256-   284 1.96   322 1.96   288 2.06
   929  0.208  0.938  0.256-    43 1.96    41 1.96   285 2.06
   930  0.708  0.938  0.256-    42 1.96    44 1.96   286 2.06
   931  0.292  0.938  0.256-    43 1.96    81 1.96   287 2.06
   932  0.792  0.938  0.256-    44 1.96    82 1.96   288 2.06
   933  0.167  0.833  0.309-   289 1.89   247 2.10   285 2.10
   934  0.667  0.833  0.309-   290 1.89   286 2.10   248 2.10
   935  0.250  0.833  0.309-   291 1.89   287 2.10   285 2.10
   936  0.750  0.833  0.309-   292 1.89   288 2.10   286 2.10
   937  0.167  0.667  0.334-   281 1.84   255 2.02   293 2.02
   938  0.667  0.667  0.334-   282 1.84   294 2.02   256 2.02
   939  0.250  0.667  0.334-   283 1.84   293 2.02   295 2.02
   940  0.750  0.667  0.334-   284 1.84   296 2.02   294 2.02
   941  0.208  0.900  0.381-    53 1.98   291 1.99   289 1.99
   942  0.708  0.900  0.381-    54 1.98   290 1.99   292 1.99
   943  0.292  0.900  0.381-    55 1.98   291 1.99   329 1.99
   944  0.792  0.900  0.381-    56 1.98   292 1.99   330 1.99
   945  0.208  0.767  0.381-   293 1.98   291 1.99   289 1.99
   946  0.708  0.767  0.381-   294 1.98   290 1.99   292 1.99
   947  0.292  0.767  0.381-   295 1.98   291 1.99   329 1.99
   948  0.792  0.767  0.381-   296 1.98   292 1.99   330 1.99
   949  0.167  0.667  0.428-   255 1.92   293 1.92   297 2.01
   950  0.667  0.667  0.428-   294 1.92   256 1.92   298 2.01
   951  0.250  0.667  0.428-   293 1.92   295 1.92   299 2.01
   952  0.750  0.667  0.428-   296 1.92   294 1.92   300 2.01
   953  0.167  0.833  0.453-   263 1.97   301 1.97   289 2.10
   954  0.667  0.833  0.453-   302 1.97   264 1.97   290 2.10
   955  0.250  0.833  0.453-   301 1.97   303 1.97   291 2.10
   956  0.750  0.833  0.453-   304 1.97   302 1.97   292 2.10
   957  0.208  0.732  0.500-   299 1.97   297 1.97   301 2.00
   958  0.708  0.732  0.500-   298 1.97   300 1.97   302 2.00
   959  0.292  0.732  0.500-   299 1.97   337 1.97   303 2.00
   960  0.792  0.732  0.500-   300 1.97   338 1.97   304 2.00
   961  0.208  0.935  0.500-    59 1.97    57 1.97   301 2.00
   962  0.708  0.935  0.500-    58 1.97    60 1.97   302 2.00
   963  0.292  0.935  0.500-    59 1.97    97 1.97   303 2.00
   964  0.792  0.935  0.500-    60 1.97    98 1.97   304 2.00
   965  0.167  0.833  0.547-   263 1.97   301 1.97   305 2.10
   966  0.667  0.833  0.547-   302 1.97   264 1.97   306 2.10
   967  0.250  0.833  0.547-   301 1.97   303 1.97   307 2.10
   968  0.750  0.833  0.547-   304 1.97   302 1.97   308 2.10
   969  0.167  0.667  0.572-   271 1.92   309 1.92   297 2.01
   970  0.667  0.667  0.572-   310 1.92   272 1.92   298 2.01
   971  0.250  0.667  0.572-   309 1.92   311 1.92   299 2.01
   972  0.750  0.667  0.572-   312 1.92   310 1.92   300 2.01
   973  0.208  0.900  0.619-    69 1.98   307 1.99   305 1.99
   974  0.708  0.900  0.619-    70 1.98   306 1.99   308 1.99
   975  0.292  0.900  0.619-    71 1.98   307 1.99   345 1.99
   976  0.792  0.900  0.619-    72 1.98   308 1.99   346 1.99
   977  0.208  0.767  0.619-   309 1.98   307 1.99   305 1.99
   978  0.708  0.767  0.619-   310 1.98   306 1.99   308 1.99
   979  0.292  0.767  0.619-   311 1.98   307 1.99   345 1.99
   980  0.792  0.767  0.619-   312 1.98   308 1.99   346 1.99
   981  0.167  0.667  0.666-   313 1.84   271 2.02   309 2.02
   982  0.667  0.667  0.666-   314 1.84   310 2.02   272 2.02
   983  0.250  0.667  0.666-   315 1.84   311 2.02   309 2.02
   984  0.750  0.667  0.666-   316 1.84   312 2.02   310 2.02
   985  0.167  0.833  0.691-   305 1.89   279 2.10   317 2.10
   986  0.667  0.833  0.691-   306 1.89   318 2.10   280 2.10
   987  0.250  0.833  0.691-   307 1.89   317 2.10   319 2.10
   988  0.750  0.833  0.691-   308 1.89   320 2.10   318 2.10
   989  0.208  0.729  0.744-   315 1.96   313 1.96   317 2.06
   990  0.708  0.729  0.744-   314 1.96   316 1.96   318 2.06
   991  0.292  0.729  0.744-   315 1.96   353 1.96   319 2.06
   992  0.792  0.729  0.744-   316 1.96   354 1.96   320 2.06
   993  0.208  0.938  0.744-    75 1.96    73 1.96   317 2.06
   994  0.708  0.938  0.744-    74 1.96    76 1.96   318 2.06
   995  0.292  0.938  0.744-    75 1.96   113 1.96   319 2.06
   996  0.792  0.938  0.744-    76 1.96   114 1.96   320 2.06
   997  0.167  0.833  0.784-   279 1.85   317 1.85
   998  0.667  0.833  0.784-   318 1.85   280 1.85
   999  0.250  0.833  0.784-   317 1.85   319 1.85
  1000  0.750  0.833  0.784-   320 1.85   318 1.85
  1001  0.333  0.833  0.216-   325 1.85   287 1.85
  1002  0.833  0.833  0.216-   326 1.85   288 1.85
  1003  0.417  0.833  0.216-   325 1.85   327 1.85
  1004  0.917  0.833  0.216-   328 1.85   326 1.85
  1005  0.375  0.729  0.256-   321 1.96   323 1.96   325 2.06
  1006  0.875  0.729  0.256-   322 1.96   324 1.96   326 2.06
  1007  0.458  0.729  0.256-   242 1.96   323 1.96   327 2.06
  1008  0.958  0.729  0.256-   324 1.96   241 1.96   328 2.06
  1009  0.375  0.938  0.256-    81 1.96    83 1.96   325 2.06
  1010  0.875  0.938  0.256-    82 1.96    84 1.96   326 2.06
  1011  0.458  0.938  0.256-     2 1.96    83 1.96   327 2.06
  1012  0.958  0.938  0.256-    84 1.96     1 1.96   328 2.06
  1013  0.333  0.833  0.309-   329 1.89   325 2.10   287 2.10
  1014  0.833  0.833  0.309-   330 1.89   326 2.10   288 2.10
  1015  0.417  0.833  0.309-   331 1.89   325 2.10   327 2.10
  1016  0.917  0.833  0.309-   332 1.89   328 2.10   326 2.10
  1017  0.333  0.667  0.334-   321 1.84   333 2.02   295 2.02
  1018  0.833  0.667  0.334-   322 1.84   334 2.02   296 2.02
  1019  0.417  0.667  0.334-   323 1.84   333 2.02   335 2.02
  1020  0.917  0.667  0.334-   324 1.84   336 2.02   334 2.02
  1021  0.375  0.900  0.381-    93 1.98   329 1.99   331 1.99
  1022  0.875  0.900  0.381-    94 1.98   330 1.99   332 1.99
  1023  0.458  0.900  0.381-    95 1.98   250 1.99   331 1.99
  1024  0.958  0.900  0.381-    96 1.98   332 1.99   249 1.99
  1025  0.375  0.767  0.381-   333 1.98   331 1.99   329 1.99
  1026  0.875  0.767  0.381-   334 1.98   330 1.99   332 1.99
  1027  0.458  0.767  0.381-   335 1.98   250 1.99   331 1.99
  1028  0.958  0.767  0.381-   336 1.98   332 1.99   249 1.99
  1029  0.333  0.667  0.428-   333 1.92   295 1.92   337 2.01
  1030  0.833  0.667  0.428-   334 1.92   296 1.92   338 2.01
  1031  0.417  0.667  0.428-   333 1.92   335 1.92   339 2.01
  1032  0.917  0.667  0.428-   336 1.92   334 1.92   340 2.01
  1033  0.333  0.833  0.453-   341 1.97   303 1.97   329 2.10
  1034  0.833  0.833  0.453-   342 1.97   304 1.97   330 2.10
  1035  0.417  0.833  0.453-   341 1.97   343 1.97   331 2.10
  1036  0.917  0.833  0.453-   344 1.97   342 1.97   332 2.10
  1037  0.375  0.732  0.500-   337 1.97   339 1.97   341 2.00
  1038  0.875  0.732  0.500-   338 1.97   340 1.97   342 2.00
  1039  0.458  0.732  0.500-   258 1.97   339 1.97   343 2.00
  1040  0.958  0.732  0.500-   340 1.97   257 1.97   344 2.00
  1041  0.375  0.935  0.500-    97 1.97    99 1.97   341 2.00
  1042  0.875  0.935  0.500-    98 1.97   100 1.97   342 2.00
  1043  0.458  0.935  0.500-    18 1.97    99 1.97   343 2.00
  1044  0.958  0.935  0.500-   100 1.97    17 1.97   344 2.00
  1045  0.333  0.833  0.547-   341 1.97   303 1.97   345 2.10
  1046  0.833  0.833  0.547-   342 1.97   304 1.97   346 2.10
  1047  0.417  0.833  0.547-   341 1.97   343 1.97   347 2.10
  1048  0.917  0.833  0.547-   344 1.97   342 1.97   348 2.10
  1049  0.333  0.667  0.572-   349 1.92   311 1.92   337 2.01
  1050  0.833  0.667  0.572-   350 1.92   312 1.92   338 2.01
  1051  0.417  0.667  0.572-   349 1.92   351 1.92   339 2.01
  1052  0.917  0.667  0.572-   352 1.92   350 1.92   340 2.01
  1053  0.375  0.900  0.619-   109 1.98   345 1.99   347 1.99
  1054  0.875  0.900  0.619-   110 1.98   346 1.99   348 1.99
  1055  0.458  0.900  0.619-   111 1.98   266 1.99   347 1.99
  1056  0.958  0.900  0.619-   112 1.98   348 1.99   265 1.99
  1057  0.375  0.767  0.619-   349 1.98   347 1.99   345 1.99
  1058  0.875  0.767  0.619-   350 1.98   346 1.99   348 1.99
  1059  0.458  0.767  0.619-   351 1.98   266 1.99   347 1.99
  1060  0.958  0.767  0.619-   352 1.98   348 1.99   265 1.99
  1061  0.333  0.667  0.666-   353 1.84   349 2.02   311 2.02
  1062  0.833  0.667  0.666-   354 1.84   350 2.02   312 2.02
  1063  0.417  0.667  0.666-   355 1.84   349 2.02   351 2.02
  1064  0.917  0.667  0.666-   356 1.84   352 2.02   350 2.02
  1065  0.333  0.833  0.691-   345 1.89   357 2.10   319 2.10
  1066  0.833  0.833  0.691-   346 1.89   358 2.10   320 2.10
  1067  0.417  0.833  0.691-   347 1.89   357 2.10   359 2.10
  1068  0.917  0.833  0.691-   348 1.89   360 2.10   358 2.10
  1069  0.375  0.729  0.744-   353 1.96   355 1.96   357 2.06
  1070  0.875  0.729  0.744-   354 1.96   356 1.96   358 2.06
  1071  0.458  0.729  0.744-   274 1.96   355 1.96   359 2.06
  1072  0.958  0.729  0.744-   356 1.96   273 1.96   360 2.06
  1073  0.375  0.938  0.744-   113 1.96   115 1.96   357 2.06
  1074  0.875  0.938  0.744-   114 1.96   116 1.96   358 2.06
  1075  0.458  0.938  0.744-    34 1.96   115 1.96   359 2.06
  1076  0.958  0.938  0.744-   116 1.96    33 1.96   360 2.06
  1077  0.333  0.833  0.784-   357 1.85   319 1.85
  1078  0.833  0.833  0.784-   358 1.85   320 1.85
  1079  0.417  0.833  0.784-   357 1.85   359 1.85
  1080  0.917  0.833  0.784-   360 1.85   358 1.85
 

IMPORTANT INFORMATION: All symmetrisations will be switched off!
NOSYMM: (Re-)initialisation of all symmetry stuff for point group C_1.


----------------------------------------------------------------------------------------

                                     Primitive cell                                     

  volume of cell :   19527.7888

  direct lattice vectors                    reciprocal lattice vectors
    35.655696000  0.000000000  0.000000000     0.028046010  0.000000000  0.000000000
     0.000000000 19.745271000  0.000000000     0.000000000  0.050645038  0.000000000
     0.000000000  0.000000000 27.737100000     0.000000000  0.000000000  0.036052796

  length of vectors
    35.655696000 19.745271000 27.737100000     0.028046010  0.050645038  0.036052796

  position of ions in fractional coordinates (direct lattice)
     0.000000000  0.000000000  0.268034307
     0.499998654  0.000000000  0.268034307
     0.083333333  0.000000000  0.268034307
     0.583334567  0.000000000  0.268034307
     0.041666667  0.166666667  0.255754224
     0.541666611  0.166666667  0.255754224
     0.125000000  0.166666667  0.255754224
     0.624999720  0.166666667  0.255754224
     0.000000000  0.166666667  0.377426933
     0.499998654  0.166666667  0.377426933
     0.083333333  0.166666667  0.377426933
     0.583334567  0.166666667  0.377426933
     0.041666667  0.000000000  0.383704025
     0.541666611  0.000000000  0.383704025
     0.125000000  0.000000000  0.383704025
     0.624999720  0.000000000  0.383704025
     0.000000000  0.000000000  0.499999391
     0.499998654  0.000000000  0.499999391
     0.083333333  0.000000000  0.499999391
     0.583334567  0.000000000  0.499999391
     0.041666667  0.166666667  0.499999391
     0.541666611  0.166666667  0.499999391
     0.125000000  0.166666667  0.499999391
     0.624999720  0.166666667  0.499999391
     0.000000000  0.166666667  0.622571848
     0.499998654  0.166666667  0.622571848
     0.083333333  0.166666667  0.622571848
     0.583334567  0.166666667  0.622571848
     0.041666667  0.000000000  0.616294757
     0.541666611  0.000000000  0.616294757
     0.125000000  0.000000000  0.616294757
     0.624999720  0.000000000  0.616294757
     0.000000000  0.000000000  0.731964475
     0.499998654  0.000000000  0.731964475
     0.083333333  0.000000000  0.731964475
     0.583334567  0.000000000  0.731964475
     0.041666667  0.166666667  0.744244558
     0.541666611  0.166666667  0.744244558
     0.125000000  0.166666667  0.744244558
     0.624999720  0.166666667  0.744244558
     0.166666667  0.000000000  0.268034307
     0.666667676  0.000000000  0.268034307
     0.250000000  0.000000000  0.268034307
     0.750000785  0.000000000  0.268034307
     0.208333333  0.166666667  0.255754224
     0.708332829  0.166666667  0.255754224
     0.291666667  0.166666667  0.255754224
     0.791665937  0.166666667  0.255754224
     0.166666667  0.166666667  0.377426933
     0.666667676  0.166666667  0.377426933
     0.250000000  0.166666667  0.377426933
     0.750000785  0.166666667  0.377426933
     0.208333333  0.000000000  0.383704025
     0.708332829  0.000000000  0.383704025
     0.291666667  0.000000000  0.383704025
     0.791665937  0.000000000  0.383704025
     0.166666667  0.000000000  0.499999391
     0.666667676  0.000000000  0.499999391
     0.250000000  0.000000000  0.499999391
     0.750000785  0.000000000  0.499999391
     0.208333333  0.166666667  0.499999391
     0.708332829  0.166666667  0.499999391
     0.291666667  0.166666667  0.499999391
     0.791665937  0.166666667  0.499999391
     0.166666667  0.166666667  0.622571848
     0.666667676  0.166666667  0.622571848
     0.250000000  0.166666667  0.622571848
     0.750000785  0.166666667  0.622571848
     0.208333333  0.000000000  0.616294757
     0.708332829  0.000000000  0.616294757
     0.291666667  0.000000000  0.616294757
     0.791665937  0.000000000  0.616294757
     0.166666667  0.000000000  0.731964475
     0.666667676  0.000000000  0.731964475
     0.250000000  0.000000000  0.731964475
     0.750000785  0.000000000  0.731964475
     0.208333333  0.166666667  0.744244558
     0.708332829  0.166666667  0.744244558
     0.291666667  0.166666667  0.744244558
     0.791665937  0.166666667  0.744244558
     0.333333333  0.000000000  0.268034307
     0.833333894  0.000000000  0.268034307
     0.416666667  0.000000000  0.268034307
     0.916667003  0.000000000  0.268034307
     0.375000000  0.166666667  0.255754224
     0.874999046  0.166666667  0.255754224
     0.458333333  0.166666667  0.255754224
     0.958332155  0.166666667  0.255754224
     0.333333333  0.166666667  0.377426933
     0.833333894  0.166666667  0.377426933
     0.416666667  0.166666667  0.377426933
     0.916667003  0.166666667  0.377426933
     0.375000000  0.000000000  0.383704025
     0.874999046  0.000000000  0.383704025
     0.458333333  0.000000000  0.383704025
     0.958332155  0.000000000  0.383704025
     0.333333333  0.000000000  0.499999391
     0.833333894  0.000000000  0.499999391
     0.416666667  0.000000000  0.499999391
     0.916667003  0.000000000  0.499999391
     0.375000000  0.166666667  0.499999391
     0.874999046  0.166666667  0.499999391
     0.458333333  0.166666667  0.499999391
     0.958332155  0.166666667  0.499999391
     0.333333333  0.166666667  0.622571848
     0.833333894  0.166666667  0.622571848
     0.416666667  0.166666667  0.622571848
     0.916667003  0.166666667  0.622571848
     0.375000000  0.000000000  0.616294757
     0.874999046  0.000000000  0.616294757
     0.458333333  0.000000000  0.616294757
     0.958332155  0.000000000  0.616294757
     0.333333333  0.000000000  0.731964475
     0.833333894  0.000000000  0.731964475
     0.416666667  0.000000000  0.731964475
     0.916667003  0.000000000  0.731964475
     0.375000000  0.166666667  0.744244558
     0.874999046  0.166666667  0.744244558
     0.458333333  0.166666667  0.744244558
     0.958332155  0.166666667  0.744244558
     0.000000000  0.333333333  0.268034307
     0.499998654  0.333333333  0.268034307
     0.083333333  0.333333333  0.268034307
     0.583334567  0.333333333  0.268034307
     0.041666667  0.500000000  0.255754224
     0.541666611  0.500000000  0.255754224
     0.125000000  0.500000000  0.255754224
     0.624999720  0.500000000  0.255754224
     0.000000000  0.500000000  0.377426933
     0.499998654  0.500000000  0.377426933
     0.083333333  0.500000000  0.377426933
     0.583334567  0.500000000  0.377426933
     0.041666667  0.333333333  0.383704025
     0.541666611  0.333333333  0.383704025
     0.125000000  0.333333333  0.383704025
     0.624999720  0.333333333  0.383704025
     0.000000000  0.333333333  0.499999391
     0.499998654  0.333333333  0.499999391
     0.083333333  0.333333333  0.499999391
     0.583334567  0.333333333  0.499999391
     0.041666667  0.500000000  0.499999391
     0.541666611  0.500000000  0.499999391
     0.125000000  0.500000000  0.499999391
     0.624999720  0.500000000  0.499999391
     0.000000000  0.500000000  0.622571848
     0.499998654  0.500000000  0.622571848
     0.083333333  0.500000000  0.622571848
     0.583334567  0.500000000  0.622571848
     0.041666667  0.333333333  0.616294757
     0.541666611  0.333333333  0.616294757
     0.125000000  0.333333333  0.616294757
     0.624999720  0.333333333  0.616294757
     0.000000000  0.333333333  0.731964475
     0.499998654  0.333333333  0.731964475
     0.083333333  0.333333333  0.731964475
     0.583334567  0.333333333  0.731964475
     0.041666667  0.500000000  0.744244558
     0.541666611  0.500000000  0.744244558
     0.125000000  0.500000000  0.744244558
     0.624999720  0.500000000  0.744244558
     0.166666667  0.333333333  0.268034307
     0.666667676  0.333333333  0.268034307
     0.250000000  0.333333333  0.268034307
     0.750000785  0.333333333  0.268034307
     0.208333333  0.500000000  0.255754224
     0.708332829  0.500000000  0.255754224
     0.291666667  0.500000000  0.255754224
     0.791665937  0.500000000  0.255754224
     0.166666667  0.500000000  0.377426933
     0.666667676  0.500000000  0.377426933
     0.250000000  0.500000000  0.377426933
     0.750000785  0.500000000  0.377426933
     0.208333333  0.333333333  0.383704025
     0.708332829  0.333333333  0.383704025
     0.291666667  0.333333333  0.383704025
     0.791665937  0.333333333  0.383704025
     0.166666667  0.333333333  0.499999391
     0.666667676  0.333333333  0.499999391
     0.250000000  0.333333333  0.499999391
     0.750000785  0.333333333  0.499999391
     0.208333333  0.500000000  0.499999391
     0.708332829  0.500000000  0.499999391
     0.291666667  0.500000000  0.499999391
     0.791665937  0.500000000  0.499999391
     0.166666667  0.500000000  0.622571848
     0.666667676  0.500000000  0.622571848
     0.250000000  0.500000000  0.622571848
     0.750000785  0.500000000  0.622571848
     0.208333333  0.333333333  0.616294757
     0.708332829  0.333333333  0.616294757
     0.291666667  0.333333333  0.616294757
     0.791665937  0.333333333  0.616294757
     0.166666667  0.333333333  0.731964475
     0.666667676  0.333333333  0.731964475
     0.250000000  0.333333333  0.731964475
     0.750000785  0.333333333  0.731964475
     0.208333333  0.500000000  0.744244558
     0.708332829  0.500000000  0.744244558
     0.291666667  0.500000000  0.744244558
     0.791665937  0.500000000  0.744244558
     0.333333333  0.333333333  0.268034307
     0.833333894  0.333333333  0.268034307
     0.416666667  0.333333333  0.268034307
     0.916667003  0.333333333  0.268034307
     0.375000000  0.500000000  0.255754224
     0.874999046  0.500000000  0.255754224
     0.458333333  0.500000000  0.255754224
     0.958332155  0.500000000  0.255754224
     0.333333333  0.500000000  0.377426933
     0.833333894  0.500000000  0.377426933
     0.416666667  0.500000000  0.377426933
     0.916667003  0.500000000  0.377426933
     0.375000000  0.333333333  0.383704025
     0.874999046  0.333333333  0.383704025
     0.458333333  0.333333333  0.383704025
     0.958332155  0.333333333  0.383704025
     0.333333333  0.333333333  0.499999391
     0.833333894  0.333333333  0.499999391
     0.416666667  0.333333333  0.499999391
     0.916667003  0.333333333  0.499999391
     0.375000000  0.500000000  0.499999391
     0.874999046  0.500000000  0.499999391
     0.458333333  0.500000000  0.499999391
     0.958332155  0.500000000  0.499999391
     0.333333333  0.500000000  0.622571848
     0.833333894  0.500000000  0.622571848
     0.416666667  0.500000000  0.622571848
     0.916667003  0.500000000  0.622571848
     0.375000000  0.333333333  0.616294757
     0.874999046  0.333333333  0.616294757
     0.458333333  0.333333333  0.616294757
     0.958332155  0.333333333  0.616294757
     0.333333333  0.333333333  0.731964475
     0.833333894  0.333333333  0.731964475
     0.416666667  0.333333333  0.731964475
     0.916667003  0.333333333  0.731964475
     0.375000000  0.500000000  0.744244558
     0.874999046  0.500000000  0.744244558
     0.458333333  0.500000000  0.744244558
     0.958332155  0.500000000  0.744244558
     0.000000000  0.666666667  0.268034307
     0.499998654  0.666666667  0.268034307
     0.083333333  0.666666667  0.268034307
     0.583334567  0.666666667  0.268034307
     0.041666667  0.833333333  0.255754224
     0.541666611  0.833333333  0.255754224
     0.125000000  0.833333333  0.255754224
     0.624999720  0.833333333  0.255754224
     0.000000000  0.833333333  0.377426933
     0.499998654  0.833333333  0.377426933
     0.083333333  0.833333333  0.377426933
     0.583334567  0.833333333  0.377426933
     0.041666667  0.666666667  0.383704025
     0.541666611  0.666666667  0.383704025
     0.125000000  0.666666667  0.383704025
     0.624999720  0.666666667  0.383704025
     0.000000000  0.666666667  0.499999391
     0.499998654  0.666666667  0.499999391
     0.083333333  0.666666667  0.499999391
     0.583334567  0.666666667  0.499999391
     0.041666667  0.833333333  0.499999391
     0.541666611  0.833333333  0.499999391
     0.125000000  0.833333333  0.499999391
     0.624999720  0.833333333  0.499999391
     0.000000000  0.833333333  0.622571848
     0.499998654  0.833333333  0.622571848
     0.083333333  0.833333333  0.622571848
     0.583334567  0.833333333  0.622571848
     0.041666667  0.666666667  0.616294757
     0.541666611  0.666666667  0.616294757
     0.125000000  0.666666667  0.616294757
     0.624999720  0.666666667  0.616294757
     0.000000000  0.666666667  0.731964475
     0.499998654  0.666666667  0.731964475
     0.083333333  0.666666667  0.731964475
     0.583334567  0.666666667  0.731964475
     0.041666667  0.833333333  0.744244558
     0.541666611  0.833333333  0.744244558
     0.125000000  0.833333333  0.744244558
     0.624999720  0.833333333  0.744244558
     0.166666667  0.666666667  0.268034307
     0.666667676  0.666666667  0.268034307
     0.250000000  0.666666667  0.268034307
     0.750000785  0.666666667  0.268034307
     0.208333333  0.833333333  0.255754224
     0.708332829  0.833333333  0.255754224
     0.291666667  0.833333333  0.255754224
     0.791665937  0.833333333  0.255754224
     0.166666667  0.833333333  0.377426933
     0.666667676  0.833333333  0.377426933
     0.250000000  0.833333333  0.377426933
     0.750000785  0.833333333  0.377426933
     0.208333333  0.666666667  0.383704025
     0.708332829  0.666666667  0.383704025
     0.291666667  0.666666667  0.383704025
     0.791665937  0.666666667  0.383704025
     0.166666667  0.666666667  0.499999391
     0.666667676  0.666666667  0.499999391
     0.250000000  0.666666667  0.499999391
     0.750000785  0.666666667  0.499999391
     0.208333333  0.833333333  0.499999391
     0.708332829  0.833333333  0.499999391
     0.291666667  0.833333333  0.499999391
     0.791665937  0.833333333  0.499999391
     0.166666667  0.833333333  0.622571848
     0.666667676  0.833333333  0.622571848
     0.250000000  0.833333333  0.622571848
     0.750000785  0.833333333  0.622571848
     0.208333333  0.666666667  0.616294757
     0.708332829  0.666666667  0.616294757
     0.291666667  0.666666667  0.616294757
     0.791665937  0.666666667  0.616294757
     0.166666667  0.666666667  0.731964475
     0.666667676  0.666666667  0.731964475
     0.250000000  0.666666667  0.731964475
     0.750000785  0.666666667  0.731964475
     0.208333333  0.833333333  0.744244558
     0.708332829  0.833333333  0.744244558
     0.291666667  0.833333333  0.744244558
     0.791665937  0.833333333  0.744244558
     0.333333333  0.666666667  0.268034307
     0.833333894  0.666666667  0.268034307
     0.416666667  0.666666667  0.268034307
     0.916667003  0.666666667  0.268034307
     0.375000000  0.833333333  0.255754224
     0.874999046  0.833333333  0.255754224
     0.458333333  0.833333333  0.255754224
     0.958332155  0.833333333  0.255754224
     0.333333333  0.833333333  0.377426933
     0.833333894  0.833333333  0.377426933
     0.416666667  0.833333333  0.377426933
     0.916667003  0.833333333  0.377426933
     0.375000000  0.666666667  0.383704025
     0.874999046  0.666666667  0.383704025
     0.458333333  0.666666667  0.383704025
     0.958332155  0.666666667  0.383704025
     0.333333333  0.666666667  0.499999391
     0.833333894  0.666666667  0.499999391
     0.416666667  0.666666667  0.499999391
     0.916667003  0.666666667  0.499999391
     0.375000000  0.833333333  0.499999391
     0.874999046  0.833333333  0.499999391
     0.458333333  0.833333333  0.499999391
     0.958332155  0.833333333  0.499999391
     0.333333333  0.833333333  0.622571848
     0.833333894  0.833333333  0.622571848
     0.416666667  0.833333333  0.622571848
     0.916667003  0.833333333  0.622571848
     0.375000000  0.666666667  0.616294757
     0.874999046  0.666666667  0.616294757
     0.458333333  0.666666667  0.616294757
     0.958332155  0.666666667  0.616294757
     0.333333333  0.666666667  0.731964475
     0.833333894  0.666666667  0.731964475
     0.416666667  0.666666667  0.731964475
     0.916667003  0.666666667  0.731964475
     0.375000000  0.833333333  0.744244558
     0.874999046  0.833333333  0.744244558
     0.458333333  0.833333333  0.744244558
     0.958332155  0.833333333  0.744244558
     0.000000000  0.166666667  0.216094601
     0.499998654  0.166666667  0.216094601
     0.083333333  0.166666667  0.216094601
     0.583334567  0.166666667  0.216094601
     0.041666667  0.062458111  0.256340397
     0.541666611  0.062458111  0.256340397
     0.125000000  0.062458111  0.256340397
     0.624999720  0.062458111  0.256340397
     0.041666667  0.270875222  0.256340397
     0.541666611  0.270875222  0.256340397
     0.125000000  0.270875222  0.256340397
     0.624999720  0.270875222  0.256340397
     0.000000000  0.166666667  0.309183199
     0.499998654  0.166666667  0.309183199
     0.083333333  0.166666667  0.309183199
     0.583334567  0.166666667  0.309183199
     0.000000000  0.000000000  0.334447401
     0.499998654  0.000000000  0.334447401
     0.083333333  0.000000000  0.334447401
     0.583334567  0.000000000  0.334447401
     0.041666667  0.233373700  0.380895943
     0.541666611  0.233373700  0.380895943
     0.125000000  0.233373700  0.380895943
     0.624999720  0.233373700  0.380895943
     0.041666667  0.099959633  0.380895943
     0.541666611  0.099959633  0.380895943
     0.125000000  0.099959633  0.380895943
     0.624999720  0.099959633  0.380895943
     0.000000000  0.000000000  0.427533879
     0.499998654  0.000000000  0.427533879
     0.083333333  0.000000000  0.427533879
     0.583334567  0.000000000  0.427533879
     0.000000000  0.166666667  0.453310542
     0.499998654  0.166666667  0.453310542
     0.083333333  0.166666667  0.453310542
     0.583334567  0.166666667  0.453310542
     0.041666667  0.065168825  0.499999391
     0.541666611  0.065168825  0.499999391
     0.125000000  0.065168825  0.499999391
     0.624999720  0.065168825  0.499999391
     0.041666667  0.268164508  0.499999391
     0.541666611  0.268164508  0.499999391
     0.125000000  0.268164508  0.499999391
     0.624999720  0.268164508  0.499999391
     0.000000000  0.166666667  0.546688240
     0.499998654  0.166666667  0.546688240
     0.083333333  0.166666667  0.546688240
     0.583334567  0.166666667  0.546688240
     0.000000000  0.000000000  0.572464903
     0.499998654  0.000000000  0.572464903
     0.083333333  0.000000000  0.572464903
     0.583334567  0.000000000  0.572464903
     0.041666667  0.233373700  0.619102838
     0.541666611  0.233373700  0.619102838
     0.125000000  0.233373700  0.619102838
     0.624999720  0.233373700  0.619102838
     0.041666667  0.099959633  0.619102838
     0.541666611  0.099959633  0.619102838
     0.125000000  0.099959633  0.619102838
     0.624999720  0.099959633  0.619102838
     0.000000000  0.000000000  0.665551381
     0.499998654  0.000000000  0.665551381
     0.083333333  0.000000000  0.665551381
     0.583334567  0.000000000  0.665551381
     0.000000000  0.166666667  0.690815583
     0.499998654  0.166666667  0.690815583
     0.083333333  0.166666667  0.690815583
     0.583334567  0.166666667  0.690815583
     0.041666667  0.062458111  0.743658385
     0.541666611  0.062458111  0.743658385
     0.125000000  0.062458111  0.743658385
     0.624999720  0.062458111  0.743658385
     0.041666667  0.270875222  0.743658385
     0.541666611  0.270875222  0.743658385
     0.125000000  0.270875222  0.743658385
     0.624999720  0.270875222  0.743658385
     0.000000000  0.166666667  0.783904181
     0.499998654  0.166666667  0.783904181
     0.083333333  0.166666667  0.783904181
     0.583334567  0.166666667  0.783904181
     0.166666667  0.166666667  0.216094601
     0.666667676  0.166666667  0.216094601
     0.250000000  0.166666667  0.216094601
     0.750000785  0.166666667  0.216094601
     0.208333333  0.062458111  0.256340397
     0.708332829  0.062458111  0.256340397
     0.291666667  0.062458111  0.256340397
     0.791665937  0.062458111  0.256340397
     0.208333333  0.270875222  0.256340397
     0.708332829  0.270875222  0.256340397
     0.291666667  0.270875222  0.256340397
     0.791665937  0.270875222  0.256340397
     0.166666667  0.166666667  0.309183199
     0.666667676  0.166666667  0.309183199
     0.250000000  0.166666667  0.309183199
     0.750000785  0.166666667  0.309183199
     0.166666667  0.000000000  0.334447401
     0.666667676  0.000000000  0.334447401
     0.250000000  0.000000000  0.334447401
     0.750000785  0.000000000  0.334447401
     0.208333333  0.233373700  0.380895943
     0.708332829  0.233373700  0.380895943
     0.291666667  0.233373700  0.380895943
     0.791665937  0.233373700  0.380895943
     0.208333333  0.099959633  0.380895943
     0.708332829  0.099959633  0.380895943
     0.291666667  0.099959633  0.380895943
     0.791665937  0.099959633  0.380895943
     0.166666667  0.000000000  0.427533879
     0.666667676  0.000000000  0.427533879
     0.250000000  0.000000000  0.427533879
     0.750000785  0.000000000  0.427533879
     0.166666667  0.166666667  0.453310542
     0.666667676  0.166666667  0.453310542
     0.250000000  0.166666667  0.453310542
     0.750000785  0.166666667  0.453310542
     0.208333333  0.065168825  0.499999391
     0.708332829  0.065168825  0.499999391
     0.291666667  0.065168825  0.499999391
     0.791665937  0.065168825  0.499999391
     0.208333333  0.268164508  0.499999391
     0.708332829  0.268164508  0.499999391
     0.291666667  0.268164508  0.499999391
     0.791665937  0.268164508  0.499999391
     0.166666667  0.166666667  0.546688240
     0.666667676  0.166666667  0.546688240
     0.250000000  0.166666667  0.546688240
     0.750000785  0.166666667  0.546688240
     0.166666667  0.000000000  0.572464903
     0.666667676  0.000000000  0.572464903
     0.250000000  0.000000000  0.572464903
     0.750000785  0.000000000  0.572464903
     0.208333333  0.233373700  0.619102838
     0.708332829  0.233373700  0.619102838
     0.291666667  0.233373700  0.619102838
     0.791665937  0.233373700  0.619102838
     0.208333333  0.099959633  0.619102838
     0.708332829  0.099959633  0.619102838
     0.291666667  0.099959633  0.619102838
     0.791665937  0.099959633  0.619102838
     0.166666667  0.000000000  0.665551381
     0.666667676  0.000000000  0.665551381
     0.250000000  0.000000000  0.665551381
     0.750000785  0.000000000  0.665551381
     0.166666667  0.166666667  0.690815583
     0.666667676  0.166666667  0.690815583
     0.250000000  0.166666667  0.690815583
     0.750000785  0.166666667  0.690815583
     0.208333333  0.062458111  0.743658385
     0.708332829  0.062458111  0.743658385
     0.291666667  0.062458111  0.743658385
     0.791665937  0.062458111  0.743658385
     0.208333333  0.270875222  0.743658385
     0.708332829  0.270875222  0.743658385
     0.291666667  0.270875222  0.743658385
     0.791665937  0.270875222  0.743658385
     0.166666667  0.166666667  0.783904181
     0.666667676  0.166666667  0.783904181
     0.250000000  0.166666667  0.783904181
     0.750000785  0.166666667  0.783904181
     0.333333333  0.166666667  0.216094601
     0.833333894  0.166666667  0.216094601
     0.416666667  0.166666667  0.216094601
     0.916667003  0.166666667  0.216094601
     0.375000000  0.062458111  0.256340397
     0.874999046  0.062458111  0.256340397
     0.458333333  0.062458111  0.256340397
     0.958332155  0.062458111  0.256340397
     0.375000000  0.270875222  0.256340397
     0.874999046  0.270875222  0.256340397
     0.458333333  0.270875222  0.256340397
     0.958332155  0.270875222  0.256340397
     0.333333333  0.166666667  0.309183199
     0.833333894  0.166666667  0.309183199
     0.416666667  0.166666667  0.309183199
     0.916667003  0.166666667  0.309183199
     0.333333333  0.000000000  0.334447401
     0.833333894  0.000000000  0.334447401
     0.416666667  0.000000000  0.334447401
     0.916667003  0.000000000  0.334447401
     0.375000000  0.233373700  0.380895943
     0.874999046  0.233373700  0.380895943
     0.458333333  0.233373700  0.380895943
     0.958332155  0.233373700  0.380895943
     0.375000000  0.099959633  0.380895943
     0.874999046  0.099959633  0.380895943
     0.458333333  0.099959633  0.380895943
     0.958332155  0.099959633  0.380895943
     0.333333333  0.000000000  0.427533879
     0.833333894  0.000000000  0.427533879
     0.416666667  0.000000000  0.427533879
     0.916667003  0.000000000  0.427533879
     0.333333333  0.166666667  0.453310542
     0.833333894  0.166666667  0.453310542
     0.416666667  0.166666667  0.453310542
     0.916667003  0.166666667  0.453310542
     0.375000000  0.065168825  0.499999391
     0.874999046  0.065168825  0.499999391
     0.458333333  0.065168825  0.499999391
     0.958332155  0.065168825  0.499999391
     0.375000000  0.268164508  0.499999391
     0.874999046  0.268164508  0.499999391
     0.458333333  0.268164508  0.499999391
     0.958332155  0.268164508  0.499999391
     0.333333333  0.166666667  0.546688240
     0.833333894  0.166666667  0.546688240
     0.416666667  0.166666667  0.546688240
     0.916667003  0.166666667  0.546688240
     0.333333333  0.000000000  0.572464903
     0.833333894  0.000000000  0.572464903
     0.416666667  0.000000000  0.572464903
     0.916667003  0.000000000  0.572464903
     0.375000000  0.233373700  0.619102838
     0.874999046  0.233373700  0.619102838
     0.458333333  0.233373700  0.619102838
     0.958332155  0.233373700  0.619102838
     0.375000000  0.099959633  0.619102838
     0.874999046  0.099959633  0.619102838
     0.458333333  0.099959633  0.619102838
     0.958332155  0.099959633  0.619102838
     0.333333333  0.000000000  0.665551381
     0.833333894  0.000000000  0.665551381
     0.416666667  0.000000000  0.665551381
     0.916667003  0.000000000  0.665551381
     0.333333333  0.166666667  0.690815583
     0.833333894  0.166666667  0.690815583
     0.416666667  0.166666667  0.690815583
     0.916667003  0.166666667  0.690815583
     0.375000000  0.062458111  0.743658385
     0.874999046  0.062458111  0.743658385
     0.458333333  0.062458111  0.743658385
     0.958332155  0.062458111  0.743658385
     0.375000000  0.270875222  0.743658385
     0.874999046  0.270875222  0.743658385
     0.458333333  0.270875222  0.743658385
     0.958332155  0.270875222  0.743658385
     0.333333333  0.166666667  0.783904181
     0.833333894  0.166666667  0.783904181
     0.416666667  0.166666667  0.783904181
     0.916667003  0.166666667  0.783904181
     0.000000000  0.500000000  0.216094601
     0.499998654  0.500000000  0.216094601
     0.083333333  0.500000000  0.216094601
     0.583334567  0.500000000  0.216094601
     0.041666667  0.395791444  0.256340397
     0.541666611  0.395791444  0.256340397
     0.125000000  0.395791444  0.256340397
     0.624999720  0.395791444  0.256340397
     0.041666667  0.604208556  0.256340397
     0.541666611  0.604208556  0.256340397
     0.125000000  0.604208556  0.256340397
     0.624999720  0.604208556  0.256340397
     0.000000000  0.500000000  0.309183199
     0.499998654  0.500000000  0.309183199
     0.083333333  0.500000000  0.309183199
     0.583334567  0.500000000  0.309183199
     0.000000000  0.333333333  0.334447401
     0.499998654  0.333333333  0.334447401
     0.083333333  0.333333333  0.334447401
     0.583334567  0.333333333  0.334447401
     0.041666667  0.566707033  0.380895943
     0.541666611  0.566707033  0.380895943
     0.125000000  0.566707033  0.380895943
     0.624999720  0.566707033  0.380895943
     0.041666667  0.433292967  0.380895943
     0.541666611  0.433292967  0.380895943
     0.125000000  0.433292967  0.380895943
     0.624999720  0.433292967  0.380895943
     0.000000000  0.333333333  0.427533879
     0.499998654  0.333333333  0.427533879
     0.083333333  0.333333333  0.427533879
     0.583334567  0.333333333  0.427533879
     0.000000000  0.500000000  0.453310542
     0.499998654  0.500000000  0.453310542
     0.083333333  0.500000000  0.453310542
     0.583334567  0.500000000  0.453310542
     0.041666667  0.398502159  0.499999391
     0.541666611  0.398502159  0.499999391
     0.125000000  0.398502159  0.499999391
     0.624999720  0.398502159  0.499999391
     0.041666667  0.601497841  0.499999391
     0.541666611  0.601497841  0.499999391
     0.125000000  0.601497841  0.499999391
     0.624999720  0.601497841  0.499999391
     0.000000000  0.500000000  0.546688240
     0.499998654  0.500000000  0.546688240
     0.083333333  0.500000000  0.546688240
     0.583334567  0.500000000  0.546688240
     0.000000000  0.333333333  0.572464903
     0.499998654  0.333333333  0.572464903
     0.083333333  0.333333333  0.572464903
     0.583334567  0.333333333  0.572464903
     0.041666667  0.566707033  0.619102838
     0.541666611  0.566707033  0.619102838
     0.125000000  0.566707033  0.619102838
     0.624999720  0.566707033  0.619102838
     0.041666667  0.433292967  0.619102838
     0.541666611  0.433292967  0.619102838
     0.125000000  0.433292967  0.619102838
     0.624999720  0.433292967  0.619102838
     0.000000000  0.333333333  0.665551381
     0.499998654  0.333333333  0.665551381
     0.083333333  0.333333333  0.665551381
     0.583334567  0.333333333  0.665551381
     0.000000000  0.500000000  0.690815583
     0.499998654  0.500000000  0.690815583
     0.083333333  0.500000000  0.690815583
     0.583334567  0.500000000  0.690815583
     0.041666667  0.395791444  0.743658385
     0.541666611  0.395791444  0.743658385
     0.125000000  0.395791444  0.743658385
     0.624999720  0.395791444  0.743658385
     0.041666667  0.604208556  0.743658385
     0.541666611  0.604208556  0.743658385
     0.125000000  0.604208556  0.743658385
     0.624999720  0.604208556  0.743658385
     0.000000000  0.500000000  0.783904181
     0.499998654  0.500000000  0.783904181
     0.083333333  0.500000000  0.783904181
     0.583334567  0.500000000  0.783904181
     0.166666667  0.500000000  0.216094601
     0.666667676  0.500000000  0.216094601
     0.250000000  0.500000000  0.216094601
     0.750000785  0.500000000  0.216094601
     0.208333333  0.395791444  0.256340397
     0.708332829  0.395791444  0.256340397
     0.291666667  0.395791444  0.256340397
     0.791665937  0.395791444  0.256340397
     0.208333333  0.604208556  0.256340397
     0.708332829  0.604208556  0.256340397
     0.291666667  0.604208556  0.256340397
     0.791665937  0.604208556  0.256340397
     0.166666667  0.500000000  0.309183199
     0.666667676  0.500000000  0.309183199
     0.250000000  0.500000000  0.309183199
     0.750000785  0.500000000  0.309183199
     0.166666667  0.333333333  0.334447401
     0.666667676  0.333333333  0.334447401
     0.250000000  0.333333333  0.334447401
     0.750000785  0.333333333  0.334447401
     0.208333333  0.566707033  0.380895943
     0.708332829  0.566707033  0.380895943
     0.291666667  0.566707033  0.380895943
     0.791665937  0.566707033  0.380895943
     0.208333333  0.433292967  0.380895943
     0.708332829  0.433292967  0.380895943
     0.291666667  0.433292967  0.380895943
     0.791665937  0.433292967  0.380895943
     0.166666667  0.333333333  0.427533879
     0.666667676  0.333333333  0.427533879
     0.250000000  0.333333333  0.427533879
     0.750000785  0.333333333  0.427533879
     0.166666667  0.500000000  0.453310542
     0.666667676  0.500000000  0.453310542
     0.250000000  0.500000000  0.453310542
     0.750000785  0.500000000  0.453310542
     0.208333333  0.398502159  0.499999391
     0.708332829  0.398502159  0.499999391
     0.291666667  0.398502159  0.499999391
     0.791665937  0.398502159  0.499999391
     0.208333333  0.601497841  0.499999391
     0.708332829  0.601497841  0.499999391
     0.291666667  0.601497841  0.499999391
     0.791665937  0.601497841  0.499999391
     0.166666667  0.500000000  0.546688240
     0.666667676  0.500000000  0.546688240
     0.250000000  0.500000000  0.546688240
     0.750000785  0.500000000  0.546688240
     0.166666667  0.333333333  0.572464903
     0.666667676  0.333333333  0.572464903
     0.250000000  0.333333333  0.572464903
     0.750000785  0.333333333  0.572464903
     0.208333333  0.566707033  0.619102838
     0.708332829  0.566707033  0.619102838
     0.291666667  0.566707033  0.619102838
     0.791665937  0.566707033  0.619102838
     0.208333333  0.433292967  0.619102838
     0.708332829  0.433292967  0.619102838
     0.291666667  0.433292967  0.619102838
     0.791665937  0.433292967  0.619102838
     0.166666667  0.333333333  0.665551381
     0.666667676  0.333333333  0.665551381
     0.250000000  0.333333333  0.665551381
     0.750000785  0.333333333  0.665551381
     0.166666667  0.500000000  0.690815583
     0.666667676  0.500000000  0.690815583
     0.250000000  0.500000000  0.690815583
     0.750000785  0.500000000  0.690815583
     0.208333333  0.395791444  0.743658385
     0.708332829  0.395791444  0.743658385
     0.291666667  0.395791444  0.743658385
     0.791665937  0.395791444  0.743658385
     0.208333333  0.604208556  0.743658385
     0.708332829  0.604208556  0.743658385
     0.291666667  0.604208556  0.743658385
     0.791665937  0.604208556  0.743658385
     0.166666667  0.500000000  0.783904181
     0.666667676  0.500000000  0.783904181
     0.250000000  0.500000000  0.783904181
     0.750000785  0.500000000  0.783904181
     0.333333333  0.500000000  0.216094601
     0.833333894  0.500000000  0.216094601
     0.416666667  0.500000000  0.216094601
     0.916667003  0.500000000  0.216094601
     0.375000000  0.395791444  0.256340397
     0.874999046  0.395791444  0.256340397
     0.458333333  0.395791444  0.256340397
     0.958332155  0.395791444  0.256340397
     0.375000000  0.604208556  0.256340397
     0.874999046  0.604208556  0.256340397
     0.458333333  0.604208556  0.256340397
     0.958332155  0.604208556  0.256340397
     0.333333333  0.500000000  0.309183199
     0.833333894  0.500000000  0.309183199
     0.416666667  0.500000000  0.309183199
     0.916667003  0.500000000  0.309183199
     0.333333333  0.333333333  0.334447401
     0.833333894  0.333333333  0.334447401
     0.416666667  0.333333333  0.334447401
     0.916667003  0.333333333  0.334447401
     0.375000000  0.566707033  0.380895943
     0.874999046  0.566707033  0.380895943
     0.458333333  0.566707033  0.380895943
     0.958332155  0.566707033  0.380895943
     0.375000000  0.433292967  0.380895943
     0.874999046  0.433292967  0.380895943
     0.458333333  0.433292967  0.380895943
     0.958332155  0.433292967  0.380895943
     0.333333333  0.333333333  0.427533879
     0.833333894  0.333333333  0.427533879
     0.416666667  0.333333333  0.427533879
     0.916667003  0.333333333  0.427533879
     0.333333333  0.500000000  0.453310542
     0.833333894  0.500000000  0.453310542
     0.416666667  0.500000000  0.453310542
     0.916667003  0.500000000  0.453310542
     0.375000000  0.398502159  0.499999391
     0.874999046  0.398502159  0.499999391
     0.458333333  0.398502159  0.499999391
     0.958332155  0.398502159  0.499999391
     0.375000000  0.601497841  0.499999391
     0.874999046  0.601497841  0.499999391
     0.458333333  0.601497841  0.499999391
     0.958332155  0.601497841  0.499999391
     0.333333333  0.500000000  0.546688240
     0.833333894  0.500000000  0.546688240
     0.416666667  0.500000000  0.546688240
     0.916667003  0.500000000  0.546688240
     0.333333333  0.333333333  0.572464903
     0.833333894  0.333333333  0.572464903
     0.416666667  0.333333333  0.572464903
     0.916667003  0.333333333  0.572464903
     0.375000000  0.566707033  0.619102838
     0.874999046  0.566707033  0.619102838
     0.458333333  0.566707033  0.619102838
     0.958332155  0.566707033  0.619102838
     0.375000000  0.433292967  0.619102838
     0.874999046  0.433292967  0.619102838
     0.458333333  0.433292967  0.619102838
     0.958332155  0.433292967  0.619102838
     0.333333333  0.333333333  0.665551381
     0.833333894  0.333333333  0.665551381
     0.416666667  0.333333333  0.665551381
     0.916667003  0.333333333  0.665551381
     0.333333333  0.500000000  0.690815583
     0.833333894  0.500000000  0.690815583
     0.416666667  0.500000000  0.690815583
     0.916667003  0.500000000  0.690815583
     0.375000000  0.395791444  0.743658385
     0.874999046  0.395791444  0.743658385
     0.458333333  0.395791444  0.743658385
     0.958332155  0.395791444  0.743658385
     0.375000000  0.604208556  0.743658385
     0.874999046  0.604208556  0.743658385
     0.458333333  0.604208556  0.743658385
     0.958332155  0.604208556  0.743658385
     0.333333333  0.500000000  0.783904181
     0.833333894  0.500000000  0.783904181
     0.416666667  0.500000000  0.783904181
     0.916667003  0.500000000  0.783904181
     0.000000000  0.833333333  0.216094601
     0.499998654  0.833333333  0.216094601
     0.083333333  0.833333333  0.216094601
     0.583334567  0.833333333  0.216094601
     0.041666667  0.729124778  0.256340397
     0.541666611  0.729124778  0.256340397
     0.125000000  0.729124778  0.256340397
     0.624999720  0.729124778  0.256340397
     0.041666667  0.937541889  0.256340397
     0.541666611  0.937541889  0.256340397
     0.125000000  0.937541889  0.256340397
     0.624999720  0.937541889  0.256340397
     0.000000000  0.833333333  0.309183199
     0.499998654  0.833333333  0.309183199
     0.083333333  0.833333333  0.309183199
     0.583334567  0.833333333  0.309183199
     0.000000000  0.666666667  0.334447401
     0.499998654  0.666666667  0.334447401
     0.083333333  0.666666667  0.334447401
     0.583334567  0.666666667  0.334447401
     0.041666667  0.900040367  0.380895943
     0.541666611  0.900040367  0.380895943
     0.125000000  0.900040367  0.380895943
     0.624999720  0.900040367  0.380895943
     0.041666667  0.766626300  0.380895943
     0.541666611  0.766626300  0.380895943
     0.125000000  0.766626300  0.380895943
     0.624999720  0.766626300  0.380895943
     0.000000000  0.666666667  0.427533879
     0.499998654  0.666666667  0.427533879
     0.083333333  0.666666667  0.427533879
     0.583334567  0.666666667  0.427533879
     0.000000000  0.833333333  0.453310542
     0.499998654  0.833333333  0.453310542
     0.083333333  0.833333333  0.453310542
     0.583334567  0.833333333  0.453310542
     0.041666667  0.731835492  0.499999391
     0.541666611  0.731835492  0.499999391
     0.125000000  0.731835492  0.499999391
     0.624999720  0.731835492  0.499999391
     0.041666667  0.934831175  0.499999391
     0.541666611  0.934831175  0.499999391
     0.125000000  0.934831175  0.499999391
     0.624999720  0.934831175  0.499999391
     0.000000000  0.833333333  0.546688240
     0.499998654  0.833333333  0.546688240
     0.083333333  0.833333333  0.546688240
     0.583334567  0.833333333  0.546688240
     0.000000000  0.666666667  0.572464903
     0.499998654  0.666666667  0.572464903
     0.083333333  0.666666667  0.572464903
     0.583334567  0.666666667  0.572464903
     0.041666667  0.900040367  0.619102838
     0.541666611  0.900040367  0.619102838
     0.125000000  0.900040367  0.619102838
     0.624999720  0.900040367  0.619102838
     0.041666667  0.766626300  0.619102838
     0.541666611  0.766626300  0.619102838
     0.125000000  0.766626300  0.619102838
     0.624999720  0.766626300  0.619102838
     0.000000000  0.666666667  0.665551381
     0.499998654  0.666666667  0.665551381
     0.083333333  0.666666667  0.665551381
     0.583334567  0.666666667  0.665551381
     0.000000000  0.833333333  0.690815583
     0.499998654  0.833333333  0.690815583
     0.083333333  0.833333333  0.690815583
     0.583334567  0.833333333  0.690815583
     0.041666667  0.729124778  0.743658385
     0.541666611  0.729124778  0.743658385
     0.125000000  0.729124778  0.743658385
     0.624999720  0.729124778  0.743658385
     0.041666667  0.937541889  0.743658385
     0.541666611  0.937541889  0.743658385
     0.125000000  0.937541889  0.743658385
     0.624999720  0.937541889  0.743658385
     0.000000000  0.833333333  0.783904181
     0.499998654  0.833333333  0.783904181
     0.083333333  0.833333333  0.783904181
     0.583334567  0.833333333  0.783904181
     0.166666667  0.833333333  0.216094601
     0.666667676  0.833333333  0.216094601
     0.250000000  0.833333333  0.216094601
     0.750000785  0.833333333  0.216094601
     0.208333333  0.729124778  0.256340397
     0.708332829  0.729124778  0.256340397
     0.291666667  0.729124778  0.256340397
     0.791665937  0.729124778  0.256340397
     0.208333333  0.937541889  0.256340397
     0.708332829  0.937541889  0.256340397
     0.291666667  0.937541889  0.256340397
     0.791665937  0.937541889  0.256340397
     0.166666667  0.833333333  0.309183199
     0.666667676  0.833333333  0.309183199
     0.250000000  0.833333333  0.309183199
     0.750000785  0.833333333  0.309183199
     0.166666667  0.666666667  0.334447401
     0.666667676  0.666666667  0.334447401
     0.250000000  0.666666667  0.334447401
     0.750000785  0.666666667  0.334447401
     0.208333333  0.900040367  0.380895943
     0.708332829  0.900040367  0.380895943
     0.291666667  0.900040367  0.380895943
     0.791665937  0.900040367  0.380895943
     0.208333333  0.766626300  0.380895943
     0.708332829  0.766626300  0.380895943
     0.291666667  0.766626300  0.380895943
     0.791665937  0.766626300  0.380895943
     0.166666667  0.666666667  0.427533879
     0.666667676  0.666666667  0.427533879
     0.250000000  0.666666667  0.427533879
     0.750000785  0.666666667  0.427533879
     0.166666667  0.833333333  0.453310542
     0.666667676  0.833333333  0.453310542
     0.250000000  0.833333333  0.453310542
     0.750000785  0.833333333  0.453310542
     0.208333333  0.731835492  0.499999391
     0.708332829  0.731835492  0.499999391
     0.291666667  0.731835492  0.499999391
     0.791665937  0.731835492  0.499999391
     0.208333333  0.934831175  0.499999391
     0.708332829  0.934831175  0.499999391
     0.291666667  0.934831175  0.499999391
     0.791665937  0.934831175  0.499999391
     0.166666667  0.833333333  0.546688240
     0.666667676  0.833333333  0.546688240
     0.250000000  0.833333333  0.546688240
     0.750000785  0.833333333  0.546688240
     0.166666667  0.666666667  0.572464903
     0.666667676  0.666666667  0.572464903
     0.250000000  0.666666667  0.572464903
     0.750000785  0.666666667  0.572464903
     0.208333333  0.900040367  0.619102838
     0.708332829  0.900040367  0.619102838
     0.291666667  0.900040367  0.619102838
     0.791665937  0.900040367  0.619102838
     0.208333333  0.766626300  0.619102838
     0.708332829  0.766626300  0.619102838
     0.291666667  0.766626300  0.619102838
     0.791665937  0.766626300  0.619102838
     0.166666667  0.666666667  0.665551381
     0.666667676  0.666666667  0.665551381
     0.250000000  0.666666667  0.665551381
     0.750000785  0.666666667  0.665551381
     0.166666667  0.833333333  0.690815583
     0.666667676  0.833333333  0.690815583
     0.250000000  0.833333333  0.690815583
     0.750000785  0.833333333  0.690815583
     0.208333333  0.729124778  0.743658385
     0.708332829  0.729124778  0.743658385
     0.291666667  0.729124778  0.743658385
     0.791665937  0.729124778  0.743658385
     0.208333333  0.937541889  0.743658385
     0.708332829  0.937541889  0.743658385
     0.291666667  0.937541889  0.743658385
     0.791665937  0.937541889  0.743658385
     0.166666667  0.833333333  0.783904181
     0.666667676  0.833333333  0.783904181
     0.250000000  0.833333333  0.783904181
     0.750000785  0.833333333  0.783904181
     0.333333333  0.833333333  0.216094601
     0.833333894  0.833333333  0.216094601
     0.416666667  0.833333333  0.216094601
     0.916667003  0.833333333  0.216094601
     0.375000000  0.729124778  0.256340397
     0.874999046  0.729124778  0.256340397
     0.458333333  0.729124778  0.256340397
     0.958332155  0.729124778  0.256340397
     0.375000000  0.937541889  0.256340397
     0.874999046  0.937541889  0.256340397
     0.458333333  0.937541889  0.256340397
     0.958332155  0.937541889  0.256340397
     0.333333333  0.833333333  0.309183199
     0.833333894  0.833333333  0.309183199
     0.416666667  0.833333333  0.309183199
     0.916667003  0.833333333  0.309183199
     0.333333333  0.666666667  0.334447401
     0.833333894  0.666666667  0.334447401
     0.416666667  0.666666667  0.334447401
     0.916667003  0.666666667  0.334447401
     0.375000000  0.900040367  0.380895943
     0.874999046  0.900040367  0.380895943
     0.458333333  0.900040367  0.380895943
     0.958332155  0.900040367  0.380895943
     0.375000000  0.766626300  0.380895943
     0.874999046  0.766626300  0.380895943
     0.458333333  0.766626300  0.380895943
     0.958332155  0.766626300  0.380895943
     0.333333333  0.666666667  0.427533879
     0.833333894  0.666666667  0.427533879
     0.416666667  0.666666667  0.427533879
     0.916667003  0.666666667  0.427533879
     0.333333333  0.833333333  0.453310542
     0.833333894  0.833333333  0.453310542
     0.416666667  0.833333333  0.453310542
     0.916667003  0.833333333  0.453310542
     0.375000000  0.731835492  0.499999391
     0.874999046  0.731835492  0.499999391
     0.458333333  0.731835492  0.499999391
     0.958332155  0.731835492  0.499999391
     0.375000000  0.934831175  0.499999391
     0.874999046  0.934831175  0.499999391
     0.458333333  0.934831175  0.499999391
     0.958332155  0.934831175  0.499999391
     0.333333333  0.833333333  0.546688240
     0.833333894  0.833333333  0.546688240
     0.416666667  0.833333333  0.546688240
     0.916667003  0.833333333  0.546688240
     0.333333333  0.666666667  0.572464903
     0.833333894  0.666666667  0.572464903
     0.416666667  0.666666667  0.572464903
     0.916667003  0.666666667  0.572464903
     0.375000000  0.900040367  0.619102838
     0.874999046  0.900040367  0.619102838
     0.458333333  0.900040367  0.619102838
     0.958332155  0.900040367  0.619102838
     0.375000000  0.766626300  0.619102838
     0.874999046  0.766626300  0.619102838
     0.458333333  0.766626300  0.619102838
     0.958332155  0.766626300  0.619102838
     0.333333333  0.666666667  0.665551381
     0.833333894  0.666666667  0.665551381
     0.416666667  0.666666667  0.665551381
     0.916667003  0.666666667  0.665551381
     0.333333333  0.833333333  0.690815583
     0.833333894  0.833333333  0.690815583
     0.416666667  0.833333333  0.690815583
     0.916667003  0.833333333  0.690815583
     0.375000000  0.729124778  0.743658385
     0.874999046  0.729124778  0.743658385
     0.458333333  0.729124778  0.743658385
     0.958332155  0.729124778  0.743658385
     0.375000000  0.937541889  0.743658385
     0.874999046  0.937541889  0.743658385
     0.458333333  0.937541889  0.743658385
     0.958332155  0.937541889  0.743658385
     0.333333333  0.833333333  0.783904181
     0.833333894  0.833333333  0.783904181
     0.416666667  0.833333333  0.783904181
     0.916667003  0.833333333  0.783904181

  ion indices of the primitive-cell ions
   primitive index   ion index
                 1           1
                 2           2
                 3           3
                 4           4
                 5           5
                 6           6
                 7           7
                 8           8
                 9           9
                10          10
                11          11
                12          12
                13          13
                14          14
                15          15
                16          16
                17          17
                18          18
                19          19
                20          20
                21          21
                22          22
                23          23
                24          24
                25          25
                26          26
                27          27
                28          28
                29          29
                30          30
                31          31
                32          32
                33          33
                34          34
                35          35
                36          36
                37          37
                38          38
                39          39
                40          40
                41          41
                42          42
                43          43
                44          44
                45          45
                46          46
                47          47
                48          48
                49          49
                50          50
                51          51
                52          52
                53          53
                54          54
                55          55
                56          56
                57          57
                58          58
                59          59
                60          60
                61          61
                62          62
                63          63
                64          64
                65          65
                66          66
                67          67
                68          68
                69          69
                70          70
                71          71
                72          72
                73          73
                74          74
                75          75
                76          76
                77          77
                78          78
                79          79
                80          80
                81          81
                82          82
                83          83
                84          84
                85          85
                86          86
                87          87
                88          88
                89          89
                90          90
                91          91
                92          92
                93          93
                94          94
                95          95
                96          96
                97          97
                98          98
                99          99
               100         100
               101         101
               102         102
               103         103
               104         104
               105         105
               106         106
               107         107
               108         108
               109         109
               110         110
               111         111
               112         112
               113         113
               114         114
               115         115
               116         116
               117         117
               118         118
               119         119
               120         120
               121         121
               122         122
               123         123
               124         124
               125         125
               126         126
               127         127
               128         128
               129         129
               130         130
               131         131
               132         132
               133         133
               134         134
               135         135
               136         136
               137         137
               138         138
               139         139
               140         140
               141         141
               142         142
               143         143
               144         144
               145         145
               146         146
               147         147
               148         148
               149         149
               150         150
               151         151
               152         152
               153         153
               154         154
               155         155
               156         156
               157         157
               158         158
               159         159
               160         160
               161         161
               162         162
               163         163
               164         164
               165         165
               166         166
               167         167
               168         168
               169         169
               170         170
               171         171
               172         172
               173         173
               174         174
               175         175
               176         176
               177         177
               178         178
               179         179
               180         180
               181         181
               182         182
               183         183
               184         184
               185         185
               186         186
               187         187
               188         188
               189         189
               190         190
               191         191
               192         192
               193         193
               194         194
               195         195
               196         196
               197         197
               198         198
               199         199
               200         200
               201         201
               202         202
               203         203
               204         204
               205         205
               206         206
               207         207
               208         208
               209         209
               210         210
               211         211
               212         212
               213         213
               214         214
               215         215
               216         216
               217         217
               218         218
               219         219
               220         220
               221         221
               222         222
               223         223
               224         224
               225         225
               226         226
               227         227
               228         228
               229         229
               230         230
               231         231
               232         232
               233         233
               234         234
               235         235
               236         236
               237         237
               238         238
               239         239
               240         240
               241         241
               242         242
               243         243
               244         244
               245         245
               246         246
               247         247
               248         248
               249         249
               250         250
               251         251
               252         252
               253         253
               254         254
               255         255
               256         256
               257         257
               258         258
               259         259
               260         260
               261         261
               262         262
               263         263
               264         264
               265         265
               266         266
               267         267
               268         268
               269         269
               270         270
               271         271
               272         272
               273         273
               274         274
               275         275
               276         276
               277         277
               278         278
               279         279
               280         280
               281         281
               282         282
               283         283
               284         284
               285         285
               286         286
               287         287
               288         288
               289         289
               290         290
               291         291
               292         292
               293         293
               294         294
               295         295
               296         296
               297         297
               298         298
               299         299
               300         300
               301         301
               302         302
               303         303
               304         304
               305         305
               306         306
               307         307
               308         308
               309         309
               310         310
               311         311
               312         312
               313         313
               314         314
               315         315
               316         316
               317         317
               318         318
               319         319
               320         320
               321         321
               322         322
               323         323
               324         324
               325         325
               326         326
               327         327
               328         328
               329         329
               330         330
               331         331
               332         332
               333         333
               334         334
               335         335
               336         336
               337         337
               338         338
               339         339
               340         340
               341         341
               342         342
               343         343
               344         344
               345         345
               346         346
               347         347
               348         348
               349         349
               350         350
               351         351
               352         352
               353         353
               354         354
               355         355
               356         356
               357         357
               358         358
               359         359
               360         360
               361         361
               362         362
               363         363
               364         364
               365         365
               366         366
               367         367
               368         368
               369         369
               370         370
               371         371
               372         372
               373         373
               374         374
               375         375
               376         376
               377         377
               378         378
               379         379
               380         380
               381         381
               382         382
               383         383
               384         384
               385         385
               386         386
               387         387
               388         388
               389         389
               390         390
               391         391
               392         392
               393         393
               394         394
               395         395
               396         396
               397         397
               398         398
               399         399
               400         400
               401         401
               402         402
               403         403
               404         404
               405         405
               406         406
               407         407
               408         408
               409         409
               410         410
               411         411
               412         412
               413         413
               414         414
               415         415
               416         416
               417         417
               418         418
               419         419
               420         420
               421         421
               422         422
               423         423
               424         424
               425         425
               426         426
               427         427
               428         428
               429         429
               430         430
               431         431
               432         432
               433         433
               434         434
               435         435
               436         436
               437         437
               438         438
               439         439
               440         440
               441         441
               442         442
               443         443
               444         444
               445         445
               446         446
               447         447
               448         448
               449         449
               450         450
               451         451
               452         452
               453         453
               454         454
               455         455
               456         456
               457         457
               458         458
               459         459
               460         460
               461         461
               462         462
               463         463
               464         464
               465         465
               466         466
               467         467
               468         468
               469         469
               470         470
               471         471
               472         472
               473         473
               474         474
               475         475
               476         476
               477         477
               478         478
               479         479
               480         480
               481         481
               482         482
               483         483
               484         484
               485         485
               486         486
               487         487
               488         488
               489         489
               490         490
               491         491
               492         492
               493         493
               494         494
               495         495
               496         496
               497         497
               498         498
               499         499
               500         500
               501         501
               502         502
               503         503
               504         504
               505         505
               506         506
               507         507
               508         508
               509         509
               510         510
               511         511
               512         512
               513         513
               514         514
               515         515
               516         516
               517         517
               518         518
               519         519
               520         520
               521         521
               522         522
               523         523
               524         524
               525         525
               526         526
               527         527
               528         528
               529         529
               530         530
               531         531
               532         532
               533         533
               534         534
               535         535
               536         536
               537         537
               538         538
               539         539
               540         540
               541         541
               542         542
               543         543
               544         544
               545         545
               546         546
               547         547
               548         548
               549         549
               550         550
               551         551
               552         552
               553         553
               554         554
               555         555
               556         556
               557         557
               558         558
               559         559
               560         560
               561         561
               562         562
               563         563
               564         564
               565         565
               566         566
               567         567
               568         568
               569         569
               570         570
               571         571
               572         572
               573         573
               574         574
               575         575
               576         576
               577         577
               578         578
               579         579
               580         580
               581         581
               582         582
               583         583
               584         584
               585         585
               586         586
               587         587
               588         588
               589         589
               590         590
               591         591
               592         592
               593         593
               594         594
               595         595
               596         596
               597         597
               598         598
               599         599
               600         600
               601         601
               602         602
               603         603
               604         604
               605         605
               606         606
               607         607
               608         608
               609         609
               610         610
               611         611
               612         612
               613         613
               614         614
               615         615
               616         616
               617         617
               618         618
               619         619
               620         620
               621         621
               622         622
               623         623
               624         624
               625         625
               626         626
               627         627
               628         628
               629         629
               630         630
               631         631
               632         632
               633         633
               634         634
               635         635
               636         636
               637         637
               638         638
               639         639
               640         640
               641         641
               642         642
               643         643
               644         644
               645         645
               646         646
               647         647
               648         648
               649         649
               650         650
               651         651
               652         652
               653         653
               654         654
               655         655
               656         656
               657         657
               658         658
               659         659
               660         660
               661         661
               662         662
               663         663
               664         664
               665         665
               666         666
               667         667
               668         668
               669         669
               670         670
               671         671
               672         672
               673         673
               674         674
               675         675
               676         676
               677         677
               678         678
               679         679
               680         680
               681         681
               682         682
               683         683
               684         684
               685         685
               686         686
               687         687
               688         688
               689         689
               690         690
               691         691
               692         692
               693         693
               694         694
               695         695
               696         696
               697         697
               698         698
               699         699
               700         700
               701         701
               702         702
               703         703
               704         704
               705         705
               706         706
               707         707
               708         708
               709         709
               710         710
               711         711
               712         712
               713         713
               714         714
               715         715
               716         716
               717         717
               718         718
               719         719
               720         720
               721         721
               722         722
               723         723
               724         724
               725         725
               726         726
               727         727
               728         728
               729         729
               730         730
               731         731
               732         732
               733         733
               734         734
               735         735
               736         736
               737         737
               738         738
               739         739
               740         740
               741         741
               742         742
               743         743
               744         744
               745         745
               746         746
               747         747
               748         748
               749         749
               750         750
               751         751
               752         752
               753         753
               754         754
               755         755
               756         756
               757         757
               758         758
               759         759
               760         760
               761         761
               762         762
               763         763
               764         764
               765         765
               766         766
               767         767
               768         768
               769         769
               770         770
               771         771
               772         772
               773         773
               774         774
               775         775
               776         776
               777         777
               778         778
               779         779
               780         780
               781         781
               782         782
               783         783
               784         784
               785         785
               786         786
               787         787
               788         788
               789         789
               790         790
               791         791
               792         792
               793         793
               794         794
               795         795
               796         796
               797         797
               798         798
               799         799
               800         800
               801         801
               802         802
               803         803
               804         804
               805         805
               806         806
               807         807
               808         808
               809         809
               810         810
               811         811
               812         812
               813         813
               814         814
               815         815
               816         816
               817         817
               818         818
               819         819
               820         820
               821         821
               822         822
               823         823
               824         824
               825         825
               826         826
               827         827
               828         828
               829         829
               830         830
               831         831
               832         832
               833         833
               834         834
               835         835
               836         836
               837         837
               838         838
               839         839
               840         840
               841         841
               842         842
               843         843
               844         844
               845         845
               846         846
               847         847
               848         848
               849         849
               850         850
               851         851
               852         852
               853         853
               854         854
               855         855
               856         856
               857         857
               858         858
               859         859
               860         860
               861         861
               862         862
               863         863
               864         864
               865         865
               866         866
               867         867
               868         868
               869         869
               870         870
               871         871
               872         872
               873         873
               874         874
               875         875
               876         876
               877         877
               878         878
               879         879
               880         880
               881         881
               882         882
               883         883
               884         884
               885         885
               886         886
               887         887
               888         888
               889         889
               890         890
               891         891
               892         892
               893         893
               894         894
               895         895
               896         896
               897         897
               898         898
               899         899
               900         900
               901         901
               902         902
               903         903
               904         904
               905         905
               906         906
               907         907
               908         908
               909         909
               910         910
               911         911
               912         912
               913         913
               914         914
               915         915
               916         916
               917         917
               918         918
               919         919
               920         920
               921         921
               922         922
               923         923
               924         924
               925         925
               926         926
               927         927
               928         928
               929         929
               930         930
               931         931
               932         932
               933         933
               934         934
               935         935
               936         936
               937         937
               938         938
               939         939
               940         940
               941         941
               942         942
               943         943
               944         944
               945         945
               946         946
               947         947
               948         948
               949         949
               950         950
               951         951
               952         952
               953         953
               954         954
               955         955
               956         956
               957         957
               958         958
               959         959
               960         960
               961         961
               962         962
               963         963
               964         964
               965         965
               966         966
               967         967
               968         968
               969         969
               970         970
               971         971
               972         972
               973         973
               974         974
               975         975
               976         976
               977         977
               978         978
               979         979
               980         980
               981         981
               982         982
               983         983
               984         984
               985         985
               986         986
               987         987
               988         988
               989         989
               990         990
               991         991
               992         992
               993         993
               994         994
               995         995
               996         996
               997         997
               998         998
               999         999
              1000        1000
              1001        1001
              1002        1002
              1003        1003
              1004        1004
              1005        1005
              1006        1006
              1007        1007
              1008        1008
              1009        1009
              1010        1010
              1011        1011
              1012        1012
              1013        1013
              1014        1014
              1015        1015
              1016        1016
              1017        1017
              1018        1018
              1019        1019
              1020        1020
              1021        1021
              1022        1022
              1023        1023
              1024        1024
              1025        1025
              1026        1026
              1027        1027
              1028        1028
              1029        1029
              1030        1030
              1031        1031
              1032        1032
              1033        1033
              1034        1034
              1035        1035
              1036        1036
              1037        1037
              1038        1038
              1039        1039
              1040        1040
              1041        1041
              1042        1042
              1043        1043
              1044        1044
              1045        1045
              1046        1046
              1047        1047
              1048        1048
              1049        1049
              1050        1050
              1051        1051
              1052        1052
              1053        1053
              1054        1054
              1055        1055
              1056        1056
              1057        1057
              1058        1058
              1059        1059
              1060        1060
              1061        1061
              1062        1062
              1063        1063
              1064        1064
              1065        1065
              1066        1066
              1067        1067
              1068        1068
              1069        1069
              1070        1070
              1071        1071
              1072        1072
              1073        1073
              1074        1074
              1075        1075
              1076        1076
              1077        1077
              1078        1078
              1079        1079
              1080        1080

----------------------------------------------------------------------------------------

 
 
 KPOINTS: TiO2 slab Gamma                         

Automatic generation of k-mesh.
 Grid dimensions read from file:
 generate k-points for:    1    1    1

 Generating k-lattice:

  Cartesian coordinates                     Fractional coordinates (reciprocal lattice)
     0.028046010  0.000000000  0.000000000     1.000000000  0.000000000  0.000000000
     0.000000000  0.050645038  0.000000000     0.000000000  1.000000000  0.000000000
     0.000000000  0.000000000  0.036052796     0.000000000  0.000000000  1.000000000

  Length of vectors
     0.028046010  0.050645038  0.036052796

  Shift w.r.t. Gamma in fractional coordinates (k-lattice)
     0.000000000  0.000000000  0.000000000

 
 Subroutine IBZKPT returns following result:
 ===========================================
 
 Found      1 irreducible k-points:
 
 Following reciprocal coordinates:
            Coordinates               Weight
  0.000000  0.000000  0.000000      1.000000
 
 Following cartesian coordinates:
            Coordinates               Weight
  0.000000  0.000000  0.000000      1.000000
 


--------------------------------------------------------------------------------------------------------




 Dimension of arrays:
   k-points           NKPTS =      1   k-points in BZ     NKDIM =      1   number of bands    NBANDS=   5248
   number of dos      NEDOS =    301   number of ions     NIONS =   1080
   non local maximal  LDIM  =      6   non local SUM 2l+1 LMDIM =     18
   total plane-waves  NPLWV = ******
   max r-space proj   IRMAX =   9908   max aug-charges    IRDMAX=  28826
   dimension x,y,z NGX =   320 NGY =  180 NGZ =  250
   dimension x,y,z NGXF=   640 NGYF=  360 NGZF=  500
   support grid    NGXF=   640 NGYF=  360 NGZF=  500
   ions per type =             360 720
   NGX,Y,Z   is equivalent  to a cutoff of  14.92, 15.16, 14.98 a.u.
   NGXF,Y,Z  is equivalent  to a cutoff of  29.84, 30.31, 29.97 a.u.

 SYSTEM =  TiO2                                    
 POSCAR =  TeraGrid TiO2 Benchmark, Doubled in X di

 Startparameter for this run:
   NWRITE =      1    write-flag & timer
   PREC   = accura    normal or accurate (medium, high low for compatibility)
   ISTART =      0    job   : 0-new  1-cont  2-samecut
   ICHARG =      2    charge: 1-file 2-atom 10-const
   ISPIN  =      1    spin polarized calculation?
   LNONCOLLINEAR =      F non collinear calculations
   LSORBIT =      F    spin-orbit coupling
   INIWAV =      1    electr: 0-lowe 1-rand  2-diag
   LASPH  =      F    aspherical Exc in radial PAW
 Electronic Relaxation 1
   ENCUT  =  750.0 eV  55.12 Ry    7.42 a.u.  79.62 44.09 61.94*2*pi/ulx,y,z
   ENINI  =  750.0     initial cutoff
   ENAUG  =  605.4 eV  augmentation charge cutoff
   NELM   =     10;   NELMIN=  2; NELMDL=-12     # of ELM steps 
   EDIFF  = 0.1E-06   stopping-criterion for ELM
   LREAL  =      T    real-space projection
   NLSPLINE    = F    spline interpolate recip. space projectors
   LCOMPAT=      F    compatible to vasp.4.4
   GGA_COMPAT  = T    GGA compatible to vasp.4.4-vasp.4.6
   LMAXPAW     = -100 max onsite density
   LMAXMIX     =    2 max onsite mixed and CHGCAR
   VOSKOWN=      0    Vosko Wilk Nusair interpolation
   ROPT   =    0.00000   0.00000
 Ionic relaxation
   EDIFFG = 0.1E-05   stopping-criterion for IOM
   NSW    =      0    number of steps for IOM
   NBLOCK =      1;   KBLOCK =      1    inner block; outer block 
   IBRION =     -1    ionic relax: 0-MD 1-quasi-New 2-CG
   NFREE  =      0    steps in history (QN), initial steepest desc. (CG)
   ISIF   =      2    stress and relaxation
   IWAVPR =     10    prediction:  0-non 1-charg 2-wave 3-comb
   ISYM   =      0    0-nonsym 1-usesym 2-fastsym
   LCORR  =      T    Harris-Foulkes like correction to forces

   POTIM  = 0.5000    time-step for ionic-motion
   TEIN   =    0.0    initial temperature
   TEBEG  =    0.0;   TEEND  =   0.0 temperature during run
   SMASS  =  -3.00    Nose mass-parameter (am)
   estimated Nose-frequenzy (Omega)   =  0.10E-29 period in steps = 0.13E+47 mass=  -0.291E-25a.u.
   SCALEE = 1.0000    scale energy and forces
   NPACO  =    256;   APACO  = 10.0  distance and # of slots for P.C.
   PSTRESS=    0.0 pullay stress

  Mass of Ions in am
   POMASS =  47.88 16.00
  Ionic Valenz
   ZVAL   =  12.00  6.00
  Atomic Wigner-Seitz radii
   RWIGS  =  -1.00 -1.00
  virtual crystal weights 
   VCA    =   1.00  1.00
   NELECT =    8640.0000    total number of electrons
   NUPDOWN=      -1.0000    fix difference up-down

 DOS related values:
   EMIN   =  10.00;   EMAX   =-10.00  energy-range for DOS
   EFERMI =   0.00;   METHOD = LEGACY      
   ISMEAR =     0;   SIGMA  =   0.10  broadening in eV -4-tet -1-fermi 0-gaus
   EFERMI_NEDOS =   21; number of points for ismear=-14 and -15

 Electronic relaxation 2 (details)
   IALGO  =     48    algorithm
   LDIAG  =      T    sub-space diagonalisation (order eigenvalues)
   LSUBROT=      F    optimize rotation matrix (better conditioning)
   LROBUST=      F    robust break criterion during scf (extrapolated energy error)
   ISEARCH=      0    line search for conjugate gradient (0, 1=use gradient)
   TURBO    =      0    0=normal 1=particle mesh
   IRESTART =      0    0=no restart 2=restart with 2 vectors
   NREBOOT  =      0    no. of reboots
   NMIN     =      0    reboot dimension
   EREF     =   0.00    reference energy to select bands
   IMIX   =      4    mixing-type and parameters
     AMIX     =   0.40;   BMIX     =  1.00
     AMIX_MAG =   1.60;   BMIX_MAG =  1.00
     AMIN     =   0.10
     WC   =   100.;   INIMIX=   1;  MIXPRE=   1;  MAXMIX= -45

 Intra band minimization:
   WEIMIN = 0.0000     energy-eigenvalue tresh-hold
   EBREAK =  0.48E-11  absolut break condition
   DEPER  =   0.30     relativ break condition  

   TIME   =   0.40     timestep for ELM

  volume/ion in A,a.u.               =      18.08       122.02
  Fermi-wavevector in a.u.,A,eV,Ry     =   1.247465  2.357367 21.172966  1.556169
  Thomas-Fermi vector in A             =   2.381596
 
 Write flags
   LWAVE        =      F    write WAVECAR
   LDOWNSAMPLE  =      F    k-point downsampling of WAVECAR
   LCHARG       =      F    write CHGCAR
   LVTOT        =      F    write LOCPOT, total local potential
   LVHAR        =      F    write LOCPOT, Hartree potential only
   WRT_POTENTIAL= false  ! write potential to hdf5 file
   LELF         =      F    write electronic localiz. function (ELF)
   LORBIT       =      0    0 simple, 1 ext, 2 COOP (PROOUT), +10 PAW based schemes


 Python interface
   PLUGINS active      =      F    recompile with -DPLUGINS to activate
 
 Dipole corrections
   LMONO      =      F    monopole corrections only (constant potential shift)
   LDIPOL     =      F    correct potential (dipole corrections)
   IDIPOL     =      0    1-x, 2-y, 3-z, 4-all directions 
   EPSILON    =  1.0000000 bulk dielectric constant
   LVACPOTAV  =      F  vacuum potentials using an averaging scheme for the charge density
   VACPOTFLAT =  0.1000000 required flatness to determine vacuum potential
 
Coulomb truncation method
  LTRUNCATE          =      F  Coulomb kernel truncation to be used

 
 Exchange correlation treatment:
   GGA     = 91    functional components
   XC_C    = 1    coefficients multiplying the functional components
   LIBXC   =     F    Libxc                    
   VOSKOWN =     0    Vosko Wilk Nusair interpolation
   LHFCALC =     F    Hartree Fock is set to
   LHFONE  =     F    Hartree Fock one center treatment
   AEXX    =    0.0000 exact exchange contribution

 Parameters of functionals:
   91:
     No parameter
 
 Van der Waals corrections
   IVDW    =     0    specifies the selected vdW correction

 Linear response parameters
   LEPSILON=     F    determine dielectric tensor
   LRPA    =     F    only Hartree local field effects (RPA)
   LNABLA  =     F    use nabla operator in PAW spheres
   LVEL    =     F    velocity operator in full k-point grid
   CSHIFT  =0.1000    complex shift for real part using Kramers Kronig
   OMEGAMAX=  -1.0    maximum frequency
   DEG_THRESHOLD= 0.2000000E-02 threshold for treating states as degnerate
   RTIME   =   -0.100 relaxation time in fs
  (WPLASMAI=    0.000 imaginary part of plasma frequency in eV, 0.658/RTIME)
   DFIELD  = 0.0000000 0.0000000 0.0000000 field for delta impulse in time
 
  Optional k-point grid parameters
   LKPOINTS_OPT  =     F    use optional k-point grid
   KPOINTS_OPT_MODE=     1    mode for optional k-point grid
 
 Orbital magnetization related:
   ORBITALMAG=     F  switch on orbital magnetization
   LCHIMAG   =     F  perturbation theory with respect to B field
   DQ        =  0.001000  dq finite difference perturbation B field
   LLRAUG    =     F  two centre corrections for induced B field
   LBONE     =     F  B-component reconstruction in AE one-centre
   LVGVCALC  =     T  calculate vGv susceptibility
   LVGVAPPL  =     F  apply vGv susceptibility instead of pGv for G=0

 Random number generation:
   RANDOM_GENERATOR = DEFAULT
   PCG_SEED         = not used


--------------------------------------------------------------------------------------------------------


 Static calculation
 charge density and potential will be updated during run
 non-spin polarized calculation
 RMM-DIIS sequential band-by-band
 perform sub-space diagonalisation
    before iterative eigenvector-optimisation
 modified Broyden-mixing scheme, WC =      100.0
 initial mixing is a Kerker type mixing with AMIX =  0.4000 and BMIX =      1.0000
 Hartree-type preconditioning will be used
 using additional bands           928
 real space projection scheme for non local part
 use partial core corrections
 calculate Harris-corrections to forces 
   (improved forces if not selfconsistent)
 use gradient corrections 
 use of overlap-Matrix (Vanderbilt PP)
 Gauss-broadening in eV      SIGMA  =   0.10


--------------------------------------------------------------------------------------------------------


  energy-cutoff  :      750.00
  volume of cell :    19527.79
      direct lattice vectors                 reciprocal lattice vectors
    35.655696000  0.000000000  0.000000000     0.028046010  0.000000000  0.000000000
     0.000000000 19.745271000  0.000000000     0.000000000  0.050645038  0.000000000
     0.000000000  0.000000000 27.737100000     0.000000000  0.000000000  0.036052796

  length of vectors
    35.655696000 19.745271000 27.737100000     0.028046010  0.050645038  0.036052796


 
 k-points in units of 2pi/SCALE and weight: TiO2 slab Gamma                         
   0.00000000  0.00000000  0.00000000       1.000
 
 k-points in reciprocal lattice and weights: TiO2 slab Gamma                         
   0.00000000  0.00000000  0.00000000       1.000
 
 position of ions in fractional coordinates (direct lattice) 
   0.00000000  0.00000000  0.26803431
   0.49999865  0.00000000  0.26803431
   0.08333333  0.00000000  0.26803431
   0.58333457  0.00000000  0.26803431
   0.04166667  0.16666667  0.25575422
   0.54166661  0.16666667  0.25575422
   0.12500000  0.16666667  0.25575422
   0.62499972  0.16666667  0.25575422
   0.00000000  0.16666667  0.37742693
   0.49999865  0.16666667  0.37742693
   0.08333333  0.16666667  0.37742693
   0.58333457  0.16666667  0.37742693
   0.04166667  0.00000000  0.38370403
   0.54166661  0.00000000  0.38370403
   0.12500000  0.00000000  0.38370403
   0.62499972  0.00000000  0.38370403
   0.00000000  0.00000000  0.49999939
   0.49999865  0.00000000  0.49999939
   0.08333333  0.00000000  0.49999939
   0.58333457  0.00000000  0.49999939
   0.04166667  0.16666667  0.49999939
   0.54166661  0.16666667  0.49999939
   0.12500000  0.16666667  0.49999939
   0.62499972  0.16666667  0.49999939
   0.00000000  0.16666667  0.62257185
   0.49999865  0.16666667  0.62257185
   0.08333333  0.16666667  0.62257185
   0.58333457  0.16666667  0.62257185
   0.04166667  0.00000000  0.61629476
   0.54166661  0.00000000  0.61629476
   0.12500000  0.00000000  0.61629476
   0.62499972  0.00000000  0.61629476
   0.00000000  0.00000000  0.73196447
   0.49999865  0.00000000  0.73196447
   0.08333333  0.00000000  0.73196447
   0.58333457  0.00000000  0.73196447
   0.04166667  0.16666667  0.74424456
   0.54166661  0.16666667  0.74424456
   0.12500000  0.16666667  0.74424456
   0.62499972  0.16666667  0.74424456
   0.16666667  0.00000000  0.26803431
   0.66666768  0.00000000  0.26803431
   0.25000000  0.00000000  0.26803431
   0.75000079  0.00000000  0.26803431
   0.20833333  0.16666667  0.25575422
   0.70833283  0.16666667  0.25575422
   0.29166667  0.16666667  0.25575422
   0.79166594  0.16666667  0.25575422
   0.16666667  0.16666667  0.37742693
   0.66666768  0.16666667  0.37742693
   0.25000000  0.16666667  0.37742693
   0.75000079  0.16666667  0.37742693
   0.20833333  0.00000000  0.38370403
   0.70833283  0.00000000  0.38370403
   0.29166667  0.00000000  0.38370403
   0.79166594  0.00000000  0.38370403
   0.16666667  0.00000000  0.49999939
   0.66666768  0.00000000  0.49999939
   0.25000000  0.00000000  0.49999939
   0.75000079  0.00000000  0.49999939
   0.20833333  0.16666667  0.49999939
   0.70833283  0.16666667  0.49999939
   0.29166667  0.16666667  0.49999939
   0.79166594  0.16666667  0.49999939
   0.16666667  0.16666667  0.62257185
   0.66666768  0.16666667  0.62257185
   0.25000000  0.16666667  0.62257185
   0.75000079  0.16666667  0.62257185
   0.20833333  0.00000000  0.61629476
   0.70833283  0.00000000  0.61629476
   0.29166667  0.00000000  0.61629476
   0.79166594  0.00000000  0.61629476
   0.16666667  0.00000000  0.73196447
   0.66666768  0.00000000  0.73196447
   0.25000000  0.00000000  0.73196447
   0.75000079  0.00000000  0.73196447
   0.20833333  0.16666667  0.74424456
   0.70833283  0.16666667  0.74424456
   0.29166667  0.16666667  0.74424456
   0.79166594  0.16666667  0.74424456
   0.33333333  0.00000000  0.26803431
   0.83333389  0.00000000  0.26803431
   0.41666667  0.00000000  0.26803431
   0.91666700  0.00000000  0.26803431
   0.37500000  0.16666667  0.25575422
   0.87499905  0.16666667  0.25575422
   0.45833333  0.16666667  0.25575422
   0.95833216  0.16666667  0.25575422
   0.33333333  0.16666667  0.37742693
   0.83333389  0.16666667  0.37742693
   0.41666667  0.16666667  0.37742693
   0.91666700  0.16666667  0.37742693
   0.37500000  0.00000000  0.38370403
   0.87499905  0.00000000  0.38370403
   0.45833333  0.00000000  0.38370403
   0.95833216  0.00000000  0.38370403
   0.33333333  0.00000000  0.49999939
   0.83333389  0.00000000  0.49999939
   0.41666667  0.00000000  0.49999939
   0.91666700  0.00000000  0.49999939
   0.37500000  0.16666667  0.49999939
   0.87499905  0.16666667  0.49999939
   0.45833333  0.16666667  0.49999939
   0.95833216  0.16666667  0.49999939
   0.33333333  0.16666667  0.62257185
   0.83333389  0.16666667  0.62257185
   0.41666667  0.16666667  0.62257185
   0.91666700  0.16666667  0.62257185
   0.37500000  0.00000000  0.61629476
   0.87499905  0.00000000  0.61629476
   0.45833333  0.00000000  0.61629476
   0.95833216  0.00000000  0.61629476
   0.33333333  0.00000000  0.73196447
   0.83333389  0.00000000  0.73196447
   0.41666667  0.00000000  0.73196447
   0.91666700  0.00000000  0.73196447
   0.37500000  0.16666667  0.74424456
   0.87499905  0.16666667  0.74424456
   0.45833333  0.16666667  0.74424456
   0.95833216  0.16666667  0.74424456
   0.00000000  0.33333333  0.26803431
   0.49999865  0.33333333  0.26803431
   0.08333333  0.33333333  0.26803431
   0.58333457  0.33333333  0.26803431
   0.04166667  0.50000000  0.25575422
   0.54166661  0.50000000  0.25575422
   0.12500000  0.50000000  0.25575422
   0.62499972  0.50000000  0.25575422
   0.00000000  0.50000000  0.37742693
   0.49999865  0.50000000  0.37742693
   0.08333333  0.50000000  0.37742693
   0.58333457  0.50000000  0.37742693
   0.04166667  0.33333333  0.38370403
   0.54166661  0.33333333  0.38370403
   0.12500000  0.33333333  0.38370403
   0.62499972  0.33333333  0.38370403
   0.00000000  0.33333333  0.49999939
   0.49999865  0.33333333  0.49999939
   0.08333333  0.33333333  0.49999939
   0.58333457  0.33333333  0.49999939
   0.04166667  0.50000000  0.49999939
   0.54166661  0.50000000  0.49999939
   0.12500000  0.50000000  0.49999939
   0.62499972  0.50000000  0.49999939
   0.00000000  0.50000000  0.62257185
   0.49999865  0.50000000  0.62257185
   0.08333333  0.50000000  0.62257185
   0.58333457  0.50000000  0.62257185
   0.04166667  0.33333333  0.61629476
   0.54166661  0.33333333  0.61629476
   0.12500000  0.33333333  0.61629476
   0.62499972  0.33333333  0.61629476
   0.00000000  0.33333333  0.73196447
   0.49999865  0.33333333  0.73196447
   0.08333333  0.33333333  0.73196447
   0.58333457  0.33333333  0.73196447
   0.04166667  0.50000000  0.74424456
   0.54166661  0.50000000  0.74424456
   0.12500000  0.50000000  0.74424456
   0.62499972  0.50000000  0.74424456
   0.16666667  0.33333333  0.26803431
   0.66666768  0.33333333  0.26803431
   0.25000000  0.33333333  0.26803431
   0.75000079  0.33333333  0.26803431
   0.20833333  0.50000000  0.25575422
   0.70833283  0.50000000  0.25575422
   0.29166667  0.50000000  0.25575422
   0.79166594  0.50000000  0.25575422
   0.16666667  0.50000000  0.37742693
   0.66666768  0.50000000  0.37742693
   0.25000000  0.50000000  0.37742693
   0.75000079  0.50000000  0.37742693
   0.20833333  0.33333333  0.38370403
   0.70833283  0.33333333  0.38370403
   0.29166667  0.33333333  0.38370403
   0.79166594  0.33333333  0.38370403
   0.16666667  0.33333333  0.49999939
   0.66666768  0.33333333  0.49999939
   0.25000000  0.33333333  0.49999939
   0.75000079  0.33333333  0.49999939
   0.20833333  0.50000000  0.49999939
   0.70833283  0.50000000  0.49999939
   0.29166667  0.50000000  0.49999939
   0.79166594  0.50000000  0.49999939
   0.16666667  0.50000000  0.62257185
   0.66666768  0.50000000  0.62257185
   0.25000000  0.50000000  0.62257185
   0.75000079  0.50000000  0.62257185
   0.20833333  0.33333333  0.61629476
   0.70833283  0.33333333  0.61629476
   0.29166667  0.33333333  0.61629476
   0.79166594  0.33333333  0.61629476
   0.16666667  0.33333333  0.73196447
   0.66666768  0.33333333  0.73196447
   0.25000000  0.33333333  0.73196447
   0.75000079  0.33333333  0.73196447
   0.20833333  0.50000000  0.74424456
   0.70833283  0.50000000  0.74424456
   0.29166667  0.50000000  0.74424456
   0.79166594  0.50000000  0.74424456
   0.33333333  0.33333333  0.26803431
   0.83333389  0.33333333  0.26803431
   0.41666667  0.33333333  0.26803431
   0.91666700  0.33333333  0.26803431
   0.37500000  0.50000000  0.25575422
   0.87499905  0.50000000  0.25575422
   0.45833333  0.50000000  0.25575422
   0.95833216  0.50000000  0.25575422
   0.33333333  0.50000000  0.37742693
   0.83333389  0.50000000  0.37742693
   0.41666667  0.50000000  0.37742693
   0.91666700  0.50000000  0.37742693
   0.37500000  0.33333333  0.38370403
   0.87499905  0.33333333  0.38370403
   0.45833333  0.33333333  0.38370403
   0.95833216  0.33333333  0.38370403
   0.33333333  0.33333333  0.49999939
   0.83333389  0.33333333  0.49999939
   0.41666667  0.33333333  0.49999939
   0.91666700  0.33333333  0.49999939
   0.37500000  0.50000000  0.49999939
   0.87499905  0.50000000  0.49999939
   0.45833333  0.50000000  0.49999939
   0.95833216  0.50000000  0.49999939
   0.33333333  0.50000000  0.62257185
   0.83333389  0.50000000  0.62257185
   0.41666667  0.50000000  0.62257185
   0.91666700  0.50000000  0.62257185
   0.37500000  0.33333333  0.61629476
   0.87499905  0.33333333  0.61629476
   0.45833333  0.33333333  0.61629476
   0.95833216  0.33333333  0.61629476
   0.33333333  0.33333333  0.73196447
   0.83333389  0.33333333  0.73196447
   0.41666667  0.33333333  0.73196447
   0.91666700  0.33333333  0.73196447
   0.37500000  0.50000000  0.74424456
   0.87499905  0.50000000  0.74424456
   0.45833333  0.50000000  0.74424456
   0.95833216  0.50000000  0.74424456
   0.00000000  0.66666667  0.26803431
   0.49999865  0.66666667  0.26803431
   0.08333333  0.66666667  0.26803431
   0.58333457  0.66666667  0.26803431
   0.04166667  0.83333333  0.25575422
   0.54166661  0.83333333  0.25575422
   0.12500000  0.83333333  0.25575422
   0.62499972  0.83333333  0.25575422
   0.00000000  0.83333333  0.37742693
   0.49999865  0.83333333  0.37742693
   0.08333333  0.83333333  0.37742693
   0.58333457  0.83333333  0.37742693
   0.04166667  0.66666667  0.38370403
   0.54166661  0.66666667  0.38370403
   0.12500000  0.66666667  0.38370403
   0.62499972  0.66666667  0.38370403
   0.00000000  0.66666667  0.49999939
   0.49999865  0.66666667  0.49999939
   0.08333333  0.66666667  0.49999939
   0.58333457  0.66666667  0.49999939
   0.04166667  0.83333333  0.49999939
   0.54166661  0.83333333  0.49999939
   0.12500000  0.83333333  0.49999939
   0.62499972  0.83333333  0.49999939
   0.00000000  0.83333333  0.62257185
   0.49999865  0.83333333  0.62257185
   0.08333333  0.83333333  0.62257185
   0.58333457  0.83333333  0.62257185
   0.04166667  0.66666667  0.61629476
   0.54166661  0.66666667  0.61629476
   0.12500000  0.66666667  0.61629476
   0.62499972  0.66666667  0.61629476
   0.00000000  0.66666667  0.73196447
   0.49999865  0.66666667  0.73196447
   0.08333333  0.66666667  0.73196447
   0.58333457  0.66666667  0.73196447
   0.04166667  0.83333333  0.74424456
   0.54166661  0.83333333  0.74424456
   0.12500000  0.83333333  0.74424456
   0.62499972  0.83333333  0.74424456
   0.16666667  0.66666667  0.26803431
   0.66666768  0.66666667  0.26803431
   0.25000000  0.66666667  0.26803431
   0.75000079  0.66666667  0.26803431
   0.20833333  0.83333333  0.25575422
   0.70833283  0.83333333  0.25575422
   0.29166667  0.83333333  0.25575422
   0.79166594  0.83333333  0.25575422
   0.16666667  0.83333333  0.37742693
   0.66666768  0.83333333  0.37742693
   0.25000000  0.83333333  0.37742693
   0.75000079  0.83333333  0.37742693
   0.20833333  0.66666667  0.38370403
   0.70833283  0.66666667  0.38370403
   0.29166667  0.66666667  0.38370403
   0.79166594  0.66666667  0.38370403
   0.16666667  0.66666667  0.49999939
   0.66666768  0.66666667  0.49999939
   0.25000000  0.66666667  0.49999939
   0.75000079  0.66666667  0.49999939
   0.20833333  0.83333333  0.49999939
   0.70833283  0.83333333  0.49999939
   0.29166667  0.83333333  0.49999939
   0.79166594  0.83333333  0.49999939
   0.16666667  0.83333333  0.62257185
   0.66666768  0.83333333  0.62257185
   0.25000000  0.83333333  0.62257185
   0.75000079  0.83333333  0.62257185
   0.20833333  0.66666667  0.61629476
   0.70833283  0.66666667  0.61629476
   0.29166667  0.66666667  0.61629476
   0.79166594  0.66666667  0.61629476
   0.16666667  0.66666667  0.73196447
   0.66666768  0.66666667  0.73196447
   0.25000000  0.66666667  0.73196447
   0.75000079  0.66666667  0.73196447
   0.20833333  0.83333333  0.74424456
   0.70833283  0.83333333  0.74424456
   0.29166667  0.83333333  0.74424456
   0.79166594  0.83333333  0.74424456
   0.33333333  0.66666667  0.26803431
   0.83333389  0.66666667  0.26803431
   0.41666667  0.66666667  0.26803431
   0.91666700  0.66666667  0.26803431
   0.37500000  0.83333333  0.25575422
   0.87499905  0.83333333  0.25575422
   0.45833333  0.83333333  0.25575422
   0.95833216  0.83333333  0.25575422
   0.33333333  0.83333333  0.37742693
   0.83333389  0.83333333  0.37742693
   0.41666667  0.83333333  0.37742693
   0.91666700  0.83333333  0.37742693
   0.37500000  0.66666667  0.38370403
   0.87499905  0.66666667  0.38370403
   0.45833333  0.66666667  0.38370403
   0.95833216  0.66666667  0.38370403
   0.33333333  0.66666667  0.49999939
   0.83333389  0.66666667  0.49999939
   0.41666667  0.66666667  0.49999939
   0.91666700  0.66666667  0.49999939
   0.37500000  0.83333333  0.49999939
   0.87499905  0.83333333  0.49999939
   0.45833333  0.83333333  0.49999939
   0.95833216  0.83333333  0.49999939
   0.33333333  0.83333333  0.62257185
   0.83333389  0.83333333  0.62257185
   0.41666667  0.83333333  0.62257185
   0.91666700  0.83333333  0.62257185
   0.37500000  0.66666667  0.61629476
   0.87499905  0.66666667  0.61629476
   0.45833333  0.66666667  0.61629476
   0.95833216  0.66666667  0.61629476
   0.33333333  0.66666667  0.73196447
   0.83333389  0.66666667  0.73196447
   0.41666667  0.66666667  0.73196447
   0.91666700  0.66666667  0.73196447
   0.37500000  0.83333333  0.74424456
   0.87499905  0.83333333  0.74424456
   0.45833333  0.83333333  0.74424456
   0.95833216  0.83333333  0.74424456
   0.00000000  0.16666667  0.21609460
   0.49999865  0.16666667  0.21609460
   0.08333333  0.16666667  0.21609460
   0.58333457  0.16666667  0.21609460
   0.04166667  0.06245811  0.25634040
   0.54166661  0.06245811  0.25634040
   0.12500000  0.06245811  0.25634040
   0.62499972  0.06245811  0.25634040
   0.04166667  0.27087522  0.25634040
   0.54166661  0.27087522  0.25634040
   0.12500000  0.27087522  0.25634040
   0.62499972  0.27087522  0.25634040
   0.00000000  0.16666667  0.30918320
   0.49999865  0.16666667  0.30918320
   0.08333333  0.16666667  0.30918320
   0.58333457  0.16666667  0.30918320
   0.00000000  0.00000000  0.33444740
   0.49999865  0.00000000  0.33444740
   0.08333333  0.00000000  0.33444740
   0.58333457  0.00000000  0.33444740
   0.04166667  0.23337370  0.38089594
   0.54166661  0.23337370  0.38089594
   0.12500000  0.23337370  0.38089594
   0.62499972  0.23337370  0.38089594
   0.04166667  0.09995963  0.38089594
   0.54166661  0.09995963  0.38089594
   0.12500000  0.09995963  0.38089594
   0.62499972  0.09995963  0.38089594
   0.00000000  0.00000000  0.42753388
   0.49999865  0.00000000  0.42753388
   0.08333333  0.00000000  0.42753388
   0.58333457  0.00000000  0.42753388
   0.00000000  0.16666667  0.45331054
   0.49999865  0.16666667  0.45331054
   0.08333333  0.16666667  0.45331054
   0.58333457  0.16666667  0.45331054
   0.04166667  0.06516883  0.49999939
   0.54166661  0.06516883  0.49999939
   0.12500000  0.06516883  0.49999939
   0.62499972  0.06516883  0.49999939
   0.04166667  0.26816451  0.49999939
   0.54166661  0.26816451  0.49999939
   0.12500000  0.26816451  0.49999939
   0.62499972  0.26816451  0.49999939
   0.00000000  0.16666667  0.54668824
   0.49999865  0.16666667  0.54668824
   0.08333333  0.16666667  0.54668824
   0.58333457  0.16666667  0.54668824
   0.00000000  0.00000000  0.57246490
   0.49999865  0.00000000  0.57246490
   0.08333333  0.00000000  0.57246490
   0.58333457  0.00000000  0.57246490
   0.04166667  0.23337370  0.61910284
   0.54166661  0.23337370  0.61910284
   0.12500000  0.23337370  0.61910284
   0.62499972  0.23337370  0.61910284
   0.04166667  0.09995963  0.61910284
   0.54166661  0.09995963  0.61910284
   0.12500000  0.09995963  0.61910284
   0.62499972  0.09995963  0.61910284
   0.00000000  0.00000000  0.66555138
   0.49999865  0.00000000  0.66555138
   0.08333333  0.00000000  0.66555138
   0.58333457  0.00000000  0.66555138
   0.00000000  0.16666667  0.69081558
   0.49999865  0.16666667  0.69081558
   0.08333333  0.16666667  0.69081558
   0.58333457  0.16666667  0.69081558
   0.04166667  0.06245811  0.74365838
   0.54166661  0.06245811  0.74365838
   0.12500000  0.06245811  0.74365838
   0.62499972  0.06245811  0.74365838
   0.04166667  0.27087522  0.74365838
   0.54166661  0.27087522  0.74365838
   0.12500000  0.27087522  0.74365838
   0.62499972  0.27087522  0.74365838
   0.00000000  0.16666667  0.78390418
   0.49999865  0.16666667  0.78390418
   0.08333333  0.16666667  0.78390418
   0.58333457  0.16666667  0.78390418
   0.16666667  0.16666667  0.21609460
   0.66666768  0.16666667  0.21609460
   0.25000000  0.16666667  0.21609460
   0.75000079  0.16666667  0.21609460
   0.20833333  0.06245811  0.25634040
   0.70833283  0.06245811  0.25634040
   0.29166667  0.06245811  0.25634040
   0.79166594  0.06245811  0.25634040
   0.20833333  0.27087522  0.25634040
   0.70833283  0.27087522  0.25634040
   0.29166667  0.27087522  0.25634040
   0.79166594  0.27087522  0.25634040
   0.16666667  0.16666667  0.30918320
   0.66666768  0.16666667  0.30918320
   0.25000000  0.16666667  0.30918320
   0.75000079  0.16666667  0.30918320
   0.16666667  0.00000000  0.33444740
   0.66666768  0.00000000  0.33444740
   0.25000000  0.00000000  0.33444740
   0.75000079  0.00000000  0.33444740
   0.20833333  0.23337370  0.38089594
   0.70833283  0.23337370  0.38089594
   0.29166667  0.23337370  0.38089594
   0.79166594  0.23337370  0.38089594
   0.20833333  0.09995963  0.38089594
   0.70833283  0.09995963  0.38089594
   0.29166667  0.09995963  0.38089594
   0.79166594  0.09995963  0.38089594
   0.16666667  0.00000000  0.42753388
   0.66666768  0.00000000  0.42753388
   0.25000000  0.00000000  0.42753388
   0.75000079  0.00000000  0.42753388
   0.16666667  0.16666667  0.45331054
   0.66666768  0.16666667  0.45331054
   0.25000000  0.16666667  0.45331054
   0.75000079  0.16666667  0.45331054
   0.20833333  0.06516883  0.49999939
   0.70833283  0.06516883  0.49999939
   0.29166667  0.06516883  0.49999939
   0.79166594  0.06516883  0.49999939
   0.20833333  0.26816451  0.49999939
   0.70833283  0.26816451  0.49999939
   0.29166667  0.26816451  0.49999939
   0.79166594  0.26816451  0.49999939
   0.16666667  0.16666667  0.54668824
   0.66666768  0.16666667  0.54668824
   0.25000000  0.16666667  0.54668824
   0.75000079  0.16666667  0.54668824
   0.16666667  0.00000000  0.57246490
   0.66666768  0.00000000  0.57246490
   0.25000000  0.00000000  0.57246490
   0.75000079  0.00000000  0.57246490
   0.20833333  0.23337370  0.61910284
   0.70833283  0.23337370  0.61910284
   0.29166667  0.23337370  0.61910284
   0.79166594  0.23337370  0.61910284
   0.20833333  0.09995963  0.61910284
   0.70833283  0.09995963  0.61910284
   0.29166667  0.09995963  0.61910284
   0.79166594  0.09995963  0.61910284
   0.16666667  0.00000000  0.66555138
   0.66666768  0.00000000  0.66555138
   0.25000000  0.00000000  0.66555138
   0.75000079  0.00000000  0.66555138
   0.16666667  0.16666667  0.69081558
   0.66666768  0.16666667  0.69081558
   0.25000000  0.16666667  0.69081558
   0.75000079  0.16666667  0.69081558
   0.20833333  0.06245811  0.74365838
   0.70833283  0.06245811  0.74365838
   0.29166667  0.06245811  0.74365838
   0.79166594  0.06245811  0.74365838
   0.20833333  0.27087522  0.74365838
   0.70833283  0.27087522  0.74365838
   0.29166667  0.27087522  0.74365838
   0.79166594  0.27087522  0.74365838
   0.16666667  0.16666667  0.78390418
   0.66666768  0.16666667  0.78390418
   0.25000000  0.16666667  0.78390418
   0.75000079  0.16666667  0.78390418
   0.33333333  0.16666667  0.21609460
   0.83333389  0.16666667  0.21609460
   0.41666667  0.16666667  0.21609460
   0.91666700  0.16666667  0.21609460
   0.37500000  0.06245811  0.25634040
   0.87499905  0.06245811  0.25634040
   0.45833333  0.06245811  0.25634040
   0.95833216  0.06245811  0.25634040
   0.37500000  0.27087522  0.25634040
   0.87499905  0.27087522  0.25634040
   0.45833333  0.27087522  0.25634040
   0.95833216  0.27087522  0.25634040
   0.33333333  0.16666667  0.30918320
   0.83333389  0.16666667  0.30918320
   0.41666667  0.16666667  0.30918320
   0.91666700  0.16666667  0.30918320
   0.33333333  0.00000000  0.33444740
   0.83333389  0.00000000  0.33444740
   0.41666667  0.00000000  0.33444740
   0.91666700  0.00000000  0.33444740
   0.37500000  0.23337370  0.38089594
   0.87499905  0.23337370  0.38089594
   0.45833333  0.23337370  0.38089594
   0.95833216  0.23337370  0.38089594
   0.37500000  0.09995963  0.38089594
   0.87499905  0.09995963  0.38089594
   0.45833333  0.09995963  0.38089594
   0.95833216  0.09995963  0.38089594
   0.33333333  0.00000000  0.42753388
   0.83333389  0.00000000  0.42753388
   0.41666667  0.00000000  0.42753388
   0.91666700  0.00000000  0.42753388
   0.33333333  0.16666667  0.45331054
   0.83333389  0.16666667  0.45331054
   0.41666667  0.16666667  0.45331054
   0.91666700  0.16666667  0.45331054
   0.37500000  0.06516883  0.49999939
   0.87499905  0.06516883  0.49999939
   0.45833333  0.06516883  0.49999939
   0.95833216  0.06516883  0.49999939
   0.37500000  0.26816451  0.49999939
   0.87499905  0.26816451  0.49999939
   0.45833333  0.26816451  0.49999939
   0.95833216  0.26816451  0.49999939
   0.33333333  0.16666667  0.54668824
   0.83333389  0.16666667  0.54668824
   0.41666667  0.16666667  0.54668824
   0.91666700  0.16666667  0.54668824
   0.33333333  0.00000000  0.57246490
   0.83333389  0.00000000  0.57246490
   0.41666667  0.00000000  0.57246490
   0.91666700  0.00000000  0.57246490
   0.37500000  0.23337370  0.61910284
   0.87499905  0.23337370  0.61910284
   0.45833333  0.23337370  0.61910284
   0.95833216  0.23337370  0.61910284
   0.37500000  0.09995963  0.61910284
   0.87499905  0.09995963  0.61910284
   0.45833333  0.09995963  0.61910284
   0.95833216  0.09995963  0.61910284
   0.33333333  0.00000000  0.66555138
   0.83333389  0.00000000  0.66555138
   0.41666667  0.00000000  0.66555138
   0.91666700  0.00000000  0.66555138
   0.33333333  0.16666667  0.69081558
   0.83333389  0.16666667  0.69081558
   0.41666667  0.16666667  0.69081558
   0.91666700  0.16666667  0.69081558
   0.37500000  0.06245811  0.74365838
   0.87499905  0.06245811  0.74365838
   0.45833333  0.06245811  0.74365838
   0.95833216  0.06245811  0.74365838
   0.37500000  0.27087522  0.74365838
   0.87499905  0.27087522  0.74365838
   0.45833333  0.27087522  0.74365838
   0.95833216  0.27087522  0.74365838
   0.33333333  0.16666667  0.78390418
   0.83333389  0.16666667  0.78390418
   0.41666667  0.16666667  0.78390418
   0.91666700  0.16666667  0.78390418
   0.00000000  0.50000000  0.21609460
   0.49999865  0.50000000  0.21609460
   0.08333333  0.50000000  0.21609460
   0.58333457  0.50000000  0.21609460
   0.04166667  0.39579144  0.25634040
   0.54166661  0.39579144  0.25634040
   0.12500000  0.39579144  0.25634040
   0.62499972  0.39579144  0.25634040
   0.04166667  0.60420856  0.25634040
   0.54166661  0.60420856  0.25634040
   0.12500000  0.60420856  0.25634040
   0.62499972  0.60420856  0.25634040
   0.00000000  0.50000000  0.30918320
   0.49999865  0.50000000  0.30918320
   0.08333333  0.50000000  0.30918320
   0.58333457  0.50000000  0.30918320
   0.00000000  0.33333333  0.33444740
   0.49999865  0.33333333  0.33444740
   0.08333333  0.33333333  0.33444740
   0.58333457  0.33333333  0.33444740
   0.04166667  0.56670703  0.38089594
   0.54166661  0.56670703  0.38089594
   0.12500000  0.56670703  0.38089594
   0.62499972  0.56670703  0.38089594
   0.04166667  0.43329297  0.38089594
   0.54166661  0.43329297  0.38089594
   0.12500000  0.43329297  0.38089594
   0.62499972  0.43329297  0.38089594
   0.00000000  0.33333333  0.42753388
   0.49999865  0.33333333  0.42753388
   0.08333333  0.33333333  0.42753388
   0.58333457  0.33333333  0.42753388
   0.00000000  0.50000000  0.45331054
   0.49999865  0.50000000  0.45331054
   0.08333333  0.50000000  0.45331054
   0.58333457  0.50000000  0.45331054
   0.04166667  0.39850216  0.49999939
   0.54166661  0.39850216  0.49999939
   0.12500000  0.39850216  0.49999939
   0.62499972  0.39850216  0.49999939
   0.04166667  0.60149784  0.49999939
   0.54166661  0.60149784  0.49999939
   0.12500000  0.60149784  0.49999939
   0.62499972  0.60149784  0.49999939
   0.00000000  0.50000000  0.54668824
   0.49999865  0.50000000  0.54668824
   0.08333333  0.50000000  0.54668824
   0.58333457  0.50000000  0.54668824
   0.00000000  0.33333333  0.57246490
   0.49999865  0.33333333  0.57246490
   0.08333333  0.33333333  0.57246490
   0.58333457  0.33333333  0.57246490
   0.04166667  0.56670703  0.61910284
   0.54166661  0.56670703  0.61910284
   0.12500000  0.56670703  0.61910284
   0.62499972  0.56670703  0.61910284
   0.04166667  0.43329297  0.61910284
   0.54166661  0.43329297  0.61910284
   0.12500000  0.43329297  0.61910284
   0.62499972  0.43329297  0.61910284
   0.00000000  0.33333333  0.66555138
   0.49999865  0.33333333  0.66555138
   0.08333333  0.33333333  0.66555138
   0.58333457  0.33333333  0.66555138
   0.00000000  0.50000000  0.69081558
   0.49999865  0.50000000  0.69081558
   0.08333333  0.50000000  0.69081558
   0.58333457  0.50000000  0.69081558
   0.04166667  0.39579144  0.74365838
   0.54166661  0.39579144  0.74365838
   0.12500000  0.39579144  0.74365838
   0.62499972  0.39579144  0.74365838
   0.04166667  0.60420856  0.74365838
   0.54166661  0.60420856  0.74365838
   0.12500000  0.60420856  0.74365838
   0.62499972  0.60420856  0.74365838
   0.00000000  0.50000000  0.78390418
   0.49999865  0.50000000  0.78390418
   0.08333333  0.50000000  0.78390418
   0.58333457  0.50000000  0.78390418
   0.16666667  0.50000000  0.21609460
   0.66666768  0.50000000  0.21609460
   0.25000000  0.50000000  0.21609460
   0.75000079  0.50000000  0.21609460
   0.20833333  0.39579144  0.25634040
   0.70833283  0.39579144  0.25634040
   0.29166667  0.39579144  0.25634040
   0.79166594  0.39579144  0.25634040
   0.20833333  0.60420856  0.25634040
   0.70833283  0.60420856  0.25634040
   0.29166667  0.60420856  0.25634040
   0.79166594  0.60420856  0.25634040
   0.16666667  0.50000000  0.30918320
   0.66666768  0.50000000  0.30918320
   0.25000000  0.50000000  0.30918320
   0.75000079  0.50000000  0.30918320
   0.16666667  0.33333333  0.33444740
   0.66666768  0.33333333  0.33444740
   0.25000000  0.33333333  0.33444740
   0.75000079  0.33333333  0.33444740
   0.20833333  0.56670703  0.38089594
   0.70833283  0.56670703  0.38089594
   0.29166667  0.56670703  0.38089594
   0.79166594  0.56670703  0.38089594
   0.20833333  0.43329297  0.38089594
   0.70833283  0.43329297  0.38089594
   0.29166667  0.43329297  0.38089594
   0.79166594  0.43329297  0.38089594
   0.16666667  0.33333333  0.42753388
   0.66666768  0.33333333  0.42753388
   0.25000000  0.33333333  0.42753388
   0.75000079  0.33333333  0.42753388
   0.16666667  0.50000000  0.45331054
   0.66666768  0.50000000  0.45331054
   0.25000000  0.50000000  0.45331054
   0.75000079  0.50000000  0.45331054
   0.20833333  0.39850216  0.49999939
   0.70833283  0.39850216  0.49999939
   0.29166667  0.39850216  0.49999939
   0.79166594  0.39850216  0.49999939
   0.20833333  0.60149784  0.49999939
   0.70833283  0.60149784  0.49999939
   0.29166667  0.60149784  0.49999939
   0.79166594  0.60149784  0.49999939
   0.16666667  0.50000000  0.54668824
   0.66666768  0.50000000  0.54668824
   0.25000000  0.50000000  0.54668824
   0.75000079  0.50000000  0.54668824
   0.16666667  0.33333333  0.57246490
   0.66666768  0.33333333  0.57246490
   0.25000000  0.33333333  0.57246490
   0.75000079  0.33333333  0.57246490
   0.20833333  0.56670703  0.61910284
   0.70833283  0.56670703  0.61910284
   0.29166667  0.56670703  0.61910284
   0.79166594  0.56670703  0.61910284
   0.20833333  0.43329297  0.61910284
   0.70833283  0.43329297  0.61910284
   0.29166667  0.43329297  0.61910284
   0.79166594  0.43329297  0.61910284
   0.16666667  0.33333333  0.66555138
   0.66666768  0.33333333  0.66555138
   0.25000000  0.33333333  0.66555138
   0.75000079  0.33333333  0.66555138
   0.16666667  0.50000000  0.69081558
   0.66666768  0.50000000  0.69081558
   0.25000000  0.50000000  0.69081558
   0.75000079  0.50000000  0.69081558
   0.20833333  0.39579144  0.74365838
   0.70833283  0.39579144  0.74365838
   0.29166667  0.39579144  0.74365838
   0.79166594  0.39579144  0.74365838
   0.20833333  0.60420856  0.74365838
   0.70833283  0.60420856  0.74365838
   0.29166667  0.60420856  0.74365838
   0.79166594  0.60420856  0.74365838
   0.16666667  0.50000000  0.78390418
   0.66666768  0.50000000  0.78390418
   0.25000000  0.50000000  0.78390418
   0.75000079  0.50000000  0.78390418
   0.33333333  0.50000000  0.21609460
   0.83333389  0.50000000  0.21609460
   0.41666667  0.50000000  0.21609460
   0.91666700  0.50000000  0.21609460
   0.37500000  0.39579144  0.25634040
   0.87499905  0.39579144  0.25634040
   0.45833333  0.39579144  0.25634040
   0.95833216  0.39579144  0.25634040
   0.37500000  0.60420856  0.25634040
   0.87499905  0.60420856  0.25634040
   0.45833333  0.60420856  0.25634040
   0.95833216  0.60420856  0.25634040
   0.33333333  0.50000000  0.30918320
   0.83333389  0.50000000  0.30918320
   0.41666667  0.50000000  0.30918320
   0.91666700  0.50000000  0.30918320
   0.33333333  0.33333333  0.33444740
   0.83333389  0.33333333  0.33444740
   0.41666667  0.33333333  0.33444740
   0.91666700  0.33333333  0.33444740
   0.37500000  0.56670703  0.38089594
   0.87499905  0.56670703  0.38089594
   0.45833333  0.56670703  0.38089594
   0.95833216  0.56670703  0.38089594
   0.37500000  0.43329297  0.38089594
   0.87499905  0.43329297  0.38089594
   0.45833333  0.43329297  0.38089594
   0.95833216  0.43329297  0.38089594
   0.33333333  0.33333333  0.42753388
   0.83333389  0.33333333  0.42753388
   0.41666667  0.33333333  0.42753388
   0.91666700  0.33333333  0.42753388
   0.33333333  0.50000000  0.45331054
   0.83333389  0.50000000  0.45331054
   0.41666667  0.50000000  0.45331054
   0.91666700  0.50000000  0.45331054
   0.37500000  0.39850216  0.49999939
   0.87499905  0.39850216  0.49999939
   0.45833333  0.39850216  0.49999939
   0.95833216  0.39850216  0.49999939
   0.37500000  0.60149784  0.49999939
   0.87499905  0.60149784  0.49999939
   0.45833333  0.60149784  0.49999939
   0.95833216  0.60149784  0.49999939
   0.33333333  0.50000000  0.54668824
   0.83333389  0.50000000  0.54668824
   0.41666667  0.50000000  0.54668824
   0.91666700  0.50000000  0.54668824
   0.33333333  0.33333333  0.57246490
   0.83333389  0.33333333  0.57246490
   0.41666667  0.33333333  0.57246490
   0.91666700  0.33333333  0.57246490
   0.37500000  0.56670703  0.61910284
   0.87499905  0.56670703  0.61910284
   0.45833333  0.56670703  0.61910284
   0.95833216  0.56670703  0.61910284
   0.37500000  0.43329297  0.61910284
   0.87499905  0.43329297  0.61910284
   0.45833333  0.43329297  0.61910284
   0.95833216  0.43329297  0.61910284
   0.33333333  0.33333333  0.66555138
   0.83333389  0.33333333  0.66555138
   0.41666667  0.33333333  0.66555138
   0.91666700  0.33333333  0.66555138
   0.33333333  0.50000000  0.69081558
   0.83333389  0.50000000  0.69081558
   0.41666667  0.50000000  0.69081558
   0.91666700  0.50000000  0.69081558
   0.37500000  0.39579144  0.74365838
   0.87499905  0.39579144  0.74365838
   0.45833333  0.39579144  0.74365838
   0.95833216  0.39579144  0.74365838
   0.37500000  0.60420856  0.74365838
   0.87499905  0.60420856  0.74365838
   0.45833333  0.60420856  0.74365838
   0.95833216  0.60420856  0.74365838
   0.33333333  0.50000000  0.78390418
   0.83333389  0.50000000  0.78390418
   0.41666667  0.50000000  0.78390418
   0.91666700  0.50000000  0.78390418
   0.00000000  0.83333333  0.21609460
   0.49999865  0.83333333  0.21609460
   0.08333333  0.83333333  0.21609460
   0.58333457  0.83333333  0.21609460
   0.04166667  0.72912478  0.25634040
   0.54166661  0.72912478  0.25634040
   0.12500000  0.72912478  0.25634040
   0.62499972  0.72912478  0.25634040
   0.04166667  0.93754189  0.25634040
   0.54166661  0.93754189  0.25634040
   0.12500000  0.93754189  0.25634040
   0.62499972  0.93754189  0.25634040
   0.00000000  0.83333333  0.30918320
   0.49999865  0.83333333  0.30918320
   0.08333333  0.83333333  0.30918320
   0.58333457  0.83333333  0.30918320
   0.00000000  0.66666667  0.33444740
   0.49999865  0.66666667  0.33444740
   0.08333333  0.66666667  0.33444740
   0.58333457  0.66666667  0.33444740
   0.04166667  0.90004037  0.38089594
   0.54166661  0.90004037  0.38089594
   0.12500000  0.90004037  0.38089594
   0.62499972  0.90004037  0.38089594
   0.04166667  0.76662630  0.38089594
   0.54166661  0.76662630  0.38089594
   0.12500000  0.76662630  0.38089594
   0.62499972  0.76662630  0.38089594
   0.00000000  0.66666667  0.42753388
   0.49999865  0.66666667  0.42753388
   0.08333333  0.66666667  0.42753388
   0.58333457  0.66666667  0.42753388
   0.00000000  0.83333333  0.45331054
   0.49999865  0.83333333  0.45331054
   0.08333333  0.83333333  0.45331054
   0.58333457  0.83333333  0.45331054
   0.04166667  0.73183549  0.49999939
   0.54166661  0.73183549  0.49999939
   0.12500000  0.73183549  0.49999939
   0.62499972  0.73183549  0.49999939
   0.04166667  0.93483117  0.49999939
   0.54166661  0.93483117  0.49999939
   0.12500000  0.93483117  0.49999939
   0.62499972  0.93483117  0.49999939
   0.00000000  0.83333333  0.54668824
   0.49999865  0.83333333  0.54668824
   0.08333333  0.83333333  0.54668824
   0.58333457  0.83333333  0.54668824
   0.00000000  0.66666667  0.57246490
   0.49999865  0.66666667  0.57246490
   0.08333333  0.66666667  0.57246490
   0.58333457  0.66666667  0.57246490
   0.04166667  0.90004037  0.61910284
   0.54166661  0.90004037  0.61910284
   0.12500000  0.90004037  0.61910284
   0.62499972  0.90004037  0.61910284
   0.04166667  0.76662630  0.61910284
   0.54166661  0.76662630  0.61910284
   0.12500000  0.76662630  0.61910284
   0.62499972  0.76662630  0.61910284
   0.00000000  0.66666667  0.66555138
   0.49999865  0.66666667  0.66555138
   0.08333333  0.66666667  0.66555138
   0.58333457  0.66666667  0.66555138
   0.00000000  0.83333333  0.69081558
   0.49999865  0.83333333  0.69081558
   0.08333333  0.83333333  0.69081558
   0.58333457  0.83333333  0.69081558
   0.04166667  0.72912478  0.74365838
   0.54166661  0.72912478  0.74365838
   0.12500000  0.72912478  0.74365838
   0.62499972  0.72912478  0.74365838
   0.04166667  0.93754189  0.74365838
   0.54166661  0.93754189  0.74365838
   0.12500000  0.93754189  0.74365838
   0.62499972  0.93754189  0.74365838
   0.00000000  0.83333333  0.78390418
   0.49999865  0.83333333  0.78390418
   0.08333333  0.83333333  0.78390418
   0.58333457  0.83333333  0.78390418
   0.16666667  0.83333333  0.21609460
   0.66666768  0.83333333  0.21609460
   0.25000000  0.83333333  0.21609460
   0.75000079  0.83333333  0.21609460
   0.20833333  0.72912478  0.25634040
   0.70833283  0.72912478  0.25634040
   0.29166667  0.72912478  0.25634040
   0.79166594  0.72912478  0.25634040
   0.20833333  0.93754189  0.25634040
   0.70833283  0.93754189  0.25634040
   0.29166667  0.93754189  0.25634040
   0.79166594  0.93754189  0.25634040
   0.16666667  0.83333333  0.30918320
   0.66666768  0.83333333  0.30918320
   0.25000000  0.83333333  0.30918320
   0.75000079  0.83333333  0.30918320
   0.16666667  0.66666667  0.33444740
   0.66666768  0.66666667  0.33444740
   0.25000000  0.66666667  0.33444740
   0.75000079  0.66666667  0.33444740
   0.20833333  0.90004037  0.38089594
   0.70833283  0.90004037  0.38089594
   0.29166667  0.90004037  0.38089594
   0.79166594  0.90004037  0.38089594
   0.20833333  0.76662630  0.38089594
   0.70833283  0.76662630  0.38089594
   0.29166667  0.76662630  0.38089594
   0.79166594  0.76662630  0.38089594
   0.16666667  0.66666667  0.42753388
   0.66666768  0.66666667  0.42753388
   0.25000000  0.66666667  0.42753388
   0.75000079  0.66666667  0.42753388
   0.16666667  0.83333333  0.45331054
   0.66666768  0.83333333  0.45331054
   0.25000000  0.83333333  0.45331054
   0.75000079  0.83333333  0.45331054
   0.20833333  0.73183549  0.49999939
   0.70833283  0.73183549  0.49999939
   0.29166667  0.73183549  0.49999939
   0.79166594  0.73183549  0.49999939
   0.20833333  0.93483117  0.49999939
   0.70833283  0.93483117  0.49999939
   0.29166667  0.93483117  0.49999939
   0.79166594  0.93483117  0.49999939
   0.16666667  0.83333333  0.54668824
   0.66666768  0.83333333  0.54668824
   0.25000000  0.83333333  0.54668824
   0.75000079  0.83333333  0.54668824
   0.16666667  0.66666667  0.57246490
   0.66666768  0.66666667  0.57246490
   0.25000000  0.66666667  0.57246490
   0.75000079  0.66666667  0.57246490
   0.20833333  0.90004037  0.61910284
   0.70833283  0.90004037  0.61910284
   0.29166667  0.90004037  0.61910284
   0.79166594  0.90004037  0.61910284
   0.20833333  0.76662630  0.61910284
   0.70833283  0.76662630  0.61910284
   0.29166667  0.76662630  0.61910284
   0.79166594  0.76662630  0.61910284
   0.16666667  0.66666667  0.66555138
   0.66666768  0.66666667  0.66555138
   0.25000000  0.66666667  0.66555138
   0.75000079  0.66666667  0.66555138
   0.16666667  0.83333333  0.69081558
   0.66666768  0.83333333  0.69081558
   0.25000000  0.83333333  0.69081558
   0.75000079  0.83333333  0.69081558
   0.20833333  0.72912478  0.74365838
   0.70833283  0.72912478  0.74365838
   0.29166667  0.72912478  0.74365838
   0.79166594  0.72912478  0.74365838
   0.20833333  0.93754189  0.74365838
   0.70833283  0.93754189  0.74365838
   0.29166667  0.93754189  0.74365838
   0.79166594  0.93754189  0.74365838
   0.16666667  0.83333333  0.78390418
   0.66666768  0.83333333  0.78390418
   0.25000000  0.83333333  0.78390418
   0.75000079  0.83333333  0.78390418
   0.33333333  0.83333333  0.21609460
   0.83333389  0.83333333  0.21609460
   0.41666667  0.83333333  0.21609460
   0.91666700  0.83333333  0.21609460
   0.37500000  0.72912478  0.25634040
   0.87499905  0.72912478  0.25634040
   0.45833333  0.72912478  0.25634040
   0.95833216  0.72912478  0.25634040
   0.37500000  0.93754189  0.25634040
   0.87499905  0.93754189  0.25634040
   0.45833333  0.93754189  0.25634040
   0.95833216  0.93754189  0.25634040
   0.33333333  0.83333333  0.30918320
   0.83333389  0.83333333  0.30918320
   0.41666667  0.83333333  0.30918320
   0.91666700  0.83333333  0.30918320
   0.33333333  0.66666667  0.33444740
   0.83333389  0.66666667  0.33444740
   0.41666667  0.66666667  0.33444740
   0.91666700  0.66666667  0.33444740
   0.37500000  0.90004037  0.38089594
   0.87499905  0.90004037  0.38089594
   0.45833333  0.90004037  0.38089594
   0.95833216  0.90004037  0.38089594
   0.37500000  0.76662630  0.38089594
   0.87499905  0.76662630  0.38089594
   0.45833333  0.76662630  0.38089594
   0.95833216  0.76662630  0.38089594
   0.33333333  0.66666667  0.42753388
   0.83333389  0.66666667  0.42753388
   0.41666667  0.66666667  0.42753388
   0.91666700  0.66666667  0.42753388
   0.33333333  0.83333333  0.45331054
   0.83333389  0.83333333  0.45331054
   0.41666667  0.83333333  0.45331054
   0.91666700  0.83333333  0.45331054
   0.37500000  0.73183549  0.49999939
   0.87499905  0.73183549  0.49999939
   0.45833333  0.73183549  0.49999939
   0.95833216  0.73183549  0.49999939
   0.37500000  0.93483117  0.49999939
   0.87499905  0.93483117  0.49999939
   0.45833333  0.93483117  0.49999939
   0.95833216  0.93483117  0.49999939
   0.33333333  0.83333333  0.54668824
   0.83333389  0.83333333  0.54668824
   0.41666667  0.83333333  0.54668824
   0.91666700  0.83333333  0.54668824
   0.33333333  0.66666667  0.57246490
   0.83333389  0.66666667  0.57246490
   0.41666667  0.66666667  0.57246490
   0.91666700  0.66666667  0.57246490
   0.37500000  0.90004037  0.61910284
   0.87499905  0.90004037  0.61910284
   0.45833333  0.90004037  0.61910284
   0.95833216  0.90004037  0.61910284
   0.37500000  0.76662630  0.61910284
   0.87499905  0.76662630  0.61910284
   0.45833333  0.76662630  0.61910284
   0.95833216  0.76662630  0.61910284
   0.33333333  0.66666667  0.66555138
   0.83333389  0.66666667  0.66555138
   0.41666667  0.66666667  0.66555138
   0.91666700  0.66666667  0.66555138
   0.33333333  0.83333333  0.69081558
   0.83333389  0.83333333  0.69081558
   0.41666667  0.83333333  0.69081558
   0.91666700  0.83333333  0.69081558
   0.37500000  0.72912478  0.74365838
   0.87499905  0.72912478  0.74365838
   0.45833333  0.72912478  0.74365838
   0.95833216  0.72912478  0.74365838
   0.37500000  0.93754189  0.74365838
   0.87499905  0.93754189  0.74365838
   0.45833333  0.93754189  0.74365838
   0.95833216  0.93754189  0.74365838
   0.33333333  0.83333333  0.78390418
   0.83333389  0.83333333  0.78390418
   0.41666667  0.83333333  0.78390418
   0.91666700  0.83333333  0.78390418
 
 position of ions in cartesian coordinates  (Angst):
   0.00000000  0.00000000  7.43449438
  17.82780000  0.00000000  7.43449438
   2.97130800  0.00000000  7.43449438
  20.79920000  0.00000000  7.43449438
   1.48565400  3.29087850  7.09388047
  19.31350000  3.29087850  7.09388047
   4.45696200  3.29087850  7.09388047
  22.28480000  3.29087850  7.09388047
   0.00000000  3.29087850 10.46872860
  17.82780000  3.29087850 10.46872860
   2.97130800  3.29087850 10.46872860
  20.79920000  3.29087850 10.46872860
   1.48565400  0.00000000 10.64283691
  19.31350000  0.00000000 10.64283691
   4.45696200  0.00000000 10.64283691
  22.28480000  0.00000000 10.64283691
   0.00000000  0.00000000 13.86853311
  17.82780000  0.00000000 13.86853311
   2.97130800  0.00000000 13.86853311
  20.79920000  0.00000000 13.86853311
   1.48565400  3.29087850 13.86853311
  19.31350000  3.29087850 13.86853311
   4.45696200  3.29087850 13.86853311
  22.28480000  3.29087850 13.86853311
   0.00000000  3.29087850 17.26833762
  17.82780000  3.29087850 17.26833762
   2.97130800  3.29087850 17.26833762
  20.79920000  3.29087850 17.26833762
   1.48565400  0.00000000 17.09422930
  19.31350000  0.00000000 17.09422930
   4.45696200  0.00000000 17.09422930
  22.28480000  0.00000000 17.09422930
   0.00000000  0.00000000 20.30257183
  17.82780000  0.00000000 20.30257183
   2.97130800  0.00000000 20.30257183
  20.79920000  0.00000000 20.30257183
   1.48565400  3.29087850 20.64318574
  19.31350000  3.29087850 20.64318574
   4.45696200  3.29087850 20.64318574
  22.28480000  3.29087850 20.64318574
   5.94261600  0.00000000  7.43449438
  23.77050000  0.00000000  7.43449438
   8.91392400  0.00000000  7.43449438
  26.74180000  0.00000000  7.43449438
   7.42827000  3.29087850  7.09388047
  25.25610000  3.29087850  7.09388047
  10.39957800  3.29087850  7.09388047
  28.22740000  3.29087850  7.09388047
   5.94261600  3.29087850 10.46872860
  23.77050000  3.29087850 10.46872860
   8.91392400  3.29087850 10.46872860
  26.74180000  3.29087850 10.46872860
   7.42827000  0.00000000 10.64283691
  25.25610000  0.00000000 10.64283691
  10.39957800  0.00000000 10.64283691
  28.22740000  0.00000000 10.64283691
   5.94261600  0.00000000 13.86853311
  23.77050000  0.00000000 13.86853311
   8.91392400  0.00000000 13.86853311
  26.74180000  0.00000000 13.86853311
   7.42827000  3.29087850 13.86853311
  25.25610000  3.29087850 13.86853311
  10.39957800  3.29087850 13.86853311
  28.22740000  3.29087850 13.86853311
   5.94261600  3.29087850 17.26833762
  23.77050000  3.29087850 17.26833762
   8.91392400  3.29087850 17.26833762
  26.74180000  3.29087850 17.26833762
   7.42827000  0.00000000 17.09422930
  25.25610000  0.00000000 17.09422930
  10.39957800  0.00000000 17.09422930
  28.22740000  0.00000000 17.09422930
   5.94261600  0.00000000 20.30257183
  23.77050000  0.00000000 20.30257183
   8.91392400  0.00000000 20.30257183
  26.74180000  0.00000000 20.30257183
   7.42827000  3.29087850 20.64318574
  25.25610000  3.29087850 20.64318574
  10.39957800  3.29087850 20.64318574
  28.22740000  3.29087850 20.64318574
  11.88523200  0.00000000  7.43449438
  29.71310000  0.00000000  7.43449438
  14.85654000  0.00000000  7.43449438
  32.68440000  0.00000000  7.43449438
  13.37088600  3.29087850  7.09388047
  31.19870000  3.29087850  7.09388047
  16.34219400  3.29087850  7.09388047
  34.17000000  3.29087850  7.09388047
  11.88523200  3.29087850 10.46872860
  29.71310000  3.29087850 10.46872860
  14.85654000  3.29087850 10.46872860
  32.68440000  3.29087850 10.46872860
  13.37088600  0.00000000 10.64283691
  31.19870000  0.00000000 10.64283691
  16.34219400  0.00000000 10.64283691
  34.17000000  0.00000000 10.64283691
  11.88523200  0.00000000 13.86853311
  29.71310000  0.00000000 13.86853311
  14.85654000  0.00000000 13.86853311
  32.68440000  0.00000000 13.86853311
  13.37088600  3.29087850 13.86853311
  31.19870000  3.29087850 13.86853311
  16.34219400  3.29087850 13.86853311
  34.17000000  3.29087850 13.86853311
  11.88523200  3.29087850 17.26833762
  29.71310000  3.29087850 17.26833762
  14.85654000  3.29087850 17.26833762
  32.68440000  3.29087850 17.26833762
  13.37088600  0.00000000 17.09422930
  31.19870000  0.00000000 17.09422930
  16.34219400  0.00000000 17.09422930
  34.17000000  0.00000000 17.09422930
  11.88523200  0.00000000 20.30257183
  29.71310000  0.00000000 20.30257183
  14.85654000  0.00000000 20.30257183
  32.68440000  0.00000000 20.30257183
  13.37088600  3.29087850 20.64318574
  31.19870000  3.29087850 20.64318574
  16.34219400  3.29087850 20.64318574
  34.17000000  3.29087850 20.64318574
   0.00000000  6.58175700  7.43449438
  17.82780000  6.58175700  7.43449438
   2.97130800  6.58175700  7.43449438
  20.79920000  6.58175700  7.43449438
   1.48565400  9.87263550  7.09388047
  19.31350000  9.87263550  7.09388047
   4.45696200  9.87263550  7.09388047
  22.28480000  9.87263550  7.09388047
   0.00000000  9.87263550 10.46872860
  17.82780000  9.87263550 10.46872860
   2.97130800  9.87263550 10.46872860
  20.79920000  9.87263550 10.46872860
   1.48565400  6.58175700 10.64283691
  19.31350000  6.58175700 10.64283691
   4.45696200  6.58175700 10.64283691
  22.28480000  6.58175700 10.64283691
   0.00000000  6.58175700 13.86853311
  17.82780000  6.58175700 13.86853311
   2.97130800  6.58175700 13.86853311
  20.79920000  6.58175700 13.86853311
   1.48565400  9.87263550 13.86853311
  19.31350000  9.87263550 13.86853311
   4.45696200  9.87263550 13.86853311
  22.28480000  9.87263550 13.86853311
   0.00000000  9.87263550 17.26833762
  17.82780000  9.87263550 17.26833762
   2.97130800  9.87263550 17.26833762
  20.79920000  9.87263550 17.26833762
   1.48565400  6.58175700 17.09422930
  19.31350000  6.58175700 17.09422930
   4.45696200  6.58175700 17.09422930
  22.28480000  6.58175700 17.09422930
   0.00000000  6.58175700 20.30257183
  17.82780000  6.58175700 20.30257183
   2.97130800  6.58175700 20.30257183
  20.79920000  6.58175700 20.30257183
   1.48565400  9.87263550 20.64318574
  19.31350000  9.87263550 20.64318574
   4.45696200  9.87263550 20.64318574
  22.28480000  9.87263550 20.64318574
   5.94261600  6.58175700  7.43449438
  23.77050000  6.58175700  7.43449438
   8.91392400  6.58175700  7.43449438
  26.74180000  6.58175700  7.43449438
   7.42827000  9.87263550  7.09388047
  25.25610000  9.87263550  7.09388047
  10.39957800  9.87263550  7.09388047
  28.22740000  9.87263550  7.09388047
   5.94261600  9.87263550 10.46872860
  23.77050000  9.87263550 10.46872860
   8.91392400  9.87263550 10.46872860
  26.74180000  9.87263550 10.46872860
   7.42827000  6.58175700 10.64283691
  25.25610000  6.58175700 10.64283691
  10.39957800  6.58175700 10.64283691
  28.22740000  6.58175700 10.64283691
   5.94261600  6.58175700 13.86853311
  23.77050000  6.58175700 13.86853311
   8.91392400  6.58175700 13.86853311
  26.74180000  6.58175700 13.86853311
   7.42827000  9.87263550 13.86853311
  25.25610000  9.87263550 13.86853311
  10.39957800  9.87263550 13.86853311
  28.22740000  9.87263550 13.86853311
   5.94261600  9.87263550 17.26833762
  23.77050000  9.87263550 17.26833762
   8.91392400  9.87263550 17.26833762
  26.74180000  9.87263550 17.26833762
   7.42827000  6.58175700 17.09422930
  25.25610000  6.58175700 17.09422930
  10.39957800  6.58175700 17.09422930
  28.22740000  6.58175700 17.09422930
   5.94261600  6.58175700 20.30257183
  23.77050000  6.58175700 20.30257183
   8.91392400  6.58175700 20.30257183
  26.74180000  6.58175700 20.30257183
   7.42827000  9.87263550 20.64318574
  25.25610000  9.87263550 20.64318574
  10.39957800  9.87263550 20.64318574
  28.22740000  9.87263550 20.64318574
  11.88523200  6.58175700  7.43449438
  29.71310000  6.58175700  7.43449438
  14.85654000  6.58175700  7.43449438
  32.68440000  6.58175700  7.43449438
  13.37088600  9.87263550  7.09388047
  31.19870000  9.87263550  7.09388047
  16.34219400  9.87263550  7.09388047
  34.17000000  9.87263550  7.09388047
  11.88523200  9.87263550 10.46872860
  29.71310000  9.87263550 10.46872860
  14.85654000  9.87263550 10.46872860
  32.68440000  9.87263550 10.46872860
  13.37088600  6.58175700 10.64283691
  31.19870000  6.58175700 10.64283691
  16.34219400  6.58175700 10.64283691
  34.17000000  6.58175700 10.64283691
  11.88523200  6.58175700 13.86853311
  29.71310000  6.58175700 13.86853311
  14.85654000  6.58175700 13.86853311
  32.68440000  6.58175700 13.86853311
  13.37088600  9.87263550 13.86853311
  31.19870000  9.87263550 13.86853311
  16.34219400  9.87263550 13.86853311
  34.17000000  9.87263550 13.86853311
  11.88523200  9.87263550 17.26833762
  29.71310000  9.87263550 17.26833762
  14.85654000  9.87263550 17.26833762
  32.68440000  9.87263550 17.26833762
  13.37088600  6.58175700 17.09422930
  31.19870000  6.58175700 17.09422930
  16.34219400  6.58175700 17.09422930
  34.17000000  6.58175700 17.09422930
  11.88523200  6.58175700 20.30257183
  29.71310000  6.58175700 20.30257183
  14.85654000  6.58175700 20.30257183
  32.68440000  6.58175700 20.30257183
  13.37088600  9.87263550 20.64318574
  31.19870000  9.87263550 20.64318574
  16.34219400  9.87263550 20.64318574
  34.17000000  9.87263550 20.64318574
   0.00000000 13.16351400  7.43449438
  17.82780000 13.16351400  7.43449438
   2.97130800 13.16351400  7.43449438
  20.79920000 13.16351400  7.43449438
   1.48565400 16.45439250  7.09388047
  19.31350000 16.45439250  7.09388047
   4.45696200 16.45439250  7.09388047
  22.28480000 16.45439250  7.09388047
   0.00000000 16.45439250 10.46872860
  17.82780000 16.45439250 10.46872860
   2.97130800 16.45439250 10.46872860
  20.79920000 16.45439250 10.46872860
   1.48565400 13.16351400 10.64283691
  19.31350000 13.16351400 10.64283691
   4.45696200 13.16351400 10.64283691
  22.28480000 13.16351400 10.64283691
   0.00000000 13.16351400 13.86853311
  17.82780000 13.16351400 13.86853311
   2.97130800 13.16351400 13.86853311
  20.79920000 13.16351400 13.86853311
   1.48565400 16.45439250 13.86853311
  19.31350000 16.45439250 13.86853311
   4.45696200 16.45439250 13.86853311
  22.28480000 16.45439250 13.86853311
   0.00000000 16.45439250 17.26833762
  17.82780000 16.45439250 17.26833762
   2.97130800 16.45439250 17.26833762
  20.79920000 16.45439250 17.26833762
   1.48565400 13.16351400 17.09422930
  19.31350000 13.16351400 17.09422930
   4.45696200 13.16351400 17.09422930
  22.28480000 13.16351400 17.09422930
   0.00000000 13.16351400 20.30257183
  17.82780000 13.16351400 20.30257183
   2.97130800 13.16351400 20.30257183
  20.79920000 13.16351400 20.30257183
   1.48565400 16.45439250 20.64318574
  19.31350000 16.45439250 20.64318574
   4.45696200 16.45439250 20.64318574
  22.28480000 16.45439250 20.64318574
   5.94261600 13.16351400  7.43449438
  23.77050000 13.16351400  7.43449438
   8.91392400 13.16351400  7.43449438
  26.74180000 13.16351400  7.43449438
   7.42827000 16.45439250  7.09388047
  25.25610000 16.45439250  7.09388047
  10.39957800 16.45439250  7.09388047
  28.22740000 16.45439250  7.09388047
   5.94261600 16.45439250 10.46872860
  23.77050000 16.45439250 10.46872860
   8.91392400 16.45439250 10.46872860
  26.74180000 16.45439250 10.46872860
   7.42827000 13.16351400 10.64283691
  25.25610000 13.16351400 10.64283691
  10.39957800 13.16351400 10.64283691
  28.22740000 13.16351400 10.64283691
   5.94261600 13.16351400 13.86853311
  23.77050000 13.16351400 13.86853311
   8.91392400 13.16351400 13.86853311
  26.74180000 13.16351400 13.86853311
   7.42827000 16.45439250 13.86853311
  25.25610000 16.45439250 13.86853311
  10.39957800 16.45439250 13.86853311
  28.22740000 16.45439250 13.86853311
   5.94261600 16.45439250 17.26833762
  23.77050000 16.45439250 17.26833762
   8.91392400 16.45439250 17.26833762
  26.74180000 16.45439250 17.26833762
   7.42827000 13.16351400 17.09422930
  25.25610000 13.16351400 17.09422930
  10.39957800 13.16351400 17.09422930
  28.22740000 13.16351400 17.09422930
   5.94261600 13.16351400 20.30257183
  23.77050000 13.16351400 20.30257183
   8.91392400 13.16351400 20.30257183
  26.74180000 13.16351400 20.30257183
   7.42827000 16.45439250 20.64318574
  25.25610000 16.45439250 20.64318574
  10.39957800 16.45439250 20.64318574
  28.22740000 16.45439250 20.64318574
  11.88523200 13.16351400  7.43449438
  29.71310000 13.16351400  7.43449438
  14.85654000 13.16351400  7.43449438
  32.68440000 13.16351400  7.43449438
  13.37088600 16.45439250  7.09388047
  31.19870000 16.45439250  7.09388047
  16.34219400 16.45439250  7.09388047
  34.17000000 16.45439250  7.09388047
  11.88523200 16.45439250 10.46872860
  29.71310000 16.45439250 10.46872860
  14.85654000 16.45439250 10.46872860
  32.68440000 16.45439250 10.46872860
  13.37088600 13.16351400 10.64283691
  31.19870000 13.16351400 10.64283691
  16.34219400 13.16351400 10.64283691
  34.17000000 13.16351400 10.64283691
  11.88523200 13.16351400 13.86853311
  29.71310000 13.16351400 13.86853311
  14.85654000 13.16351400 13.86853311
  32.68440000 13.16351400 13.86853311
  13.37088600 16.45439250 13.86853311
  31.19870000 16.45439250 13.86853311
  16.34219400 16.45439250 13.86853311
  34.17000000 16.45439250 13.86853311
  11.88523200 16.45439250 17.26833762
  29.71310000 16.45439250 17.26833762
  14.85654000 16.45439250 17.26833762
  32.68440000 16.45439250 17.26833762
  13.37088600 13.16351400 17.09422930
  31.19870000 13.16351400 17.09422930
  16.34219400 13.16351400 17.09422930
  34.17000000 13.16351400 17.09422930
  11.88523200 13.16351400 20.30257183
  29.71310000 13.16351400 20.30257183
  14.85654000 13.16351400 20.30257183
  32.68440000 13.16351400 20.30257183
  13.37088600 16.45439250 20.64318574
  31.19870000 16.45439250 20.64318574
  16.34219400 16.45439250 20.64318574
  34.17000000 16.45439250 20.64318574
   0.00000000  3.29087850  5.99383754
  17.82780000  3.29087850  5.99383754
   2.97130800  3.29087850  5.99383754
  20.79920000  3.29087850  5.99383754
   1.48565400  1.23325233  7.11013923
  19.31350000  1.23325233  7.11013923
   4.45696200  1.23325233  7.11013923
  22.28480000  1.23325233  7.11013923
   1.48565400  5.34850467  7.11013923
  19.31350000  5.34850467  7.11013923
   4.45696200  5.34850467  7.11013923
  22.28480000  5.34850467  7.11013923
   0.00000000  3.29087850  8.57584531
  17.82780000  3.29087850  8.57584531
   2.97130800  3.29087850  8.57584531
  20.79920000  3.29087850  8.57584531
   0.00000000  0.00000000  9.27660101
  17.82780000  0.00000000  9.27660101
   2.97130800  0.00000000  9.27660101
  20.79920000  0.00000000  9.27660101
   1.48565400  4.60802695 10.56494887
  19.31350000  4.60802695 10.56494887
   4.45696200  4.60802695 10.56494887
  22.28480000  4.60802695 10.56494887
   1.48565400  1.97373005 10.56494887
  19.31350000  1.97373005 10.56494887
   4.45696200  1.97373005 10.56494887
  22.28480000  1.97373005 10.56494887
   0.00000000  0.00000000 11.85854994
  17.82780000  0.00000000 11.85854994
   2.97130800  0.00000000 11.85854994
  20.79920000  0.00000000 11.85854994
   0.00000000  3.29087850 12.57351985
  17.82780000  3.29087850 12.57351985
   2.97130800  3.29087850 12.57351985
  20.79920000  3.29087850 12.57351985
   1.48565400  1.28677612 13.86853311
  19.31350000  1.28677612 13.86853311
   4.45696200  1.28677612 13.86853311
  22.28480000  1.28677612 13.86853311
   1.48565400  5.29498088 13.86853311
  19.31350000  5.29498088 13.86853311
   4.45696200  5.29498088 13.86853311
  22.28480000  5.29498088 13.86853311
   0.00000000  3.29087850 15.16354637
  17.82780000  3.29087850 15.16354637
   2.97130800  3.29087850 15.16354637
  20.79920000  3.29087850 15.16354637
   0.00000000  0.00000000 15.87851627
  17.82780000  0.00000000 15.87851627
   2.97130800  0.00000000 15.87851627
  20.79920000  0.00000000 15.87851627
   1.48565400  4.60802695 17.17211734
  19.31350000  4.60802695 17.17211734
   4.45696200  4.60802695 17.17211734
  22.28480000  4.60802695 17.17211734
   1.48565400  1.97373005 17.17211734
  19.31350000  1.97373005 17.17211734
   4.45696200  1.97373005 17.17211734
  22.28480000  1.97373005 17.17211734
   0.00000000  0.00000000 18.46046521
  17.82780000  0.00000000 18.46046521
   2.97130800  0.00000000 18.46046521
  20.79920000  0.00000000 18.46046521
   0.00000000  3.29087850 19.16122091
  17.82780000  3.29087850 19.16122091
   2.97130800  3.29087850 19.16122091
  20.79920000  3.29087850 19.16122091
   1.48565400  1.23325233 20.62692698
  19.31350000  1.23325233 20.62692698
   4.45696200  1.23325233 20.62692698
  22.28480000  1.23325233 20.62692698
   1.48565400  5.34850467 20.62692698
  19.31350000  5.34850467 20.62692698
   4.45696200  5.34850467 20.62692698
  22.28480000  5.34850467 20.62692698
   0.00000000  3.29087850 21.74322867
  17.82780000  3.29087850 21.74322867
   2.97130800  3.29087850 21.74322867
  20.79920000  3.29087850 21.74322867
   5.94261600  3.29087850  5.99383754
  23.77050000  3.29087850  5.99383754
   8.91392400  3.29087850  5.99383754
  26.74180000  3.29087850  5.99383754
   7.42827000  1.23325233  7.11013923
  25.25610000  1.23325233  7.11013923
  10.39957800  1.23325233  7.11013923
  28.22740000  1.23325233  7.11013923
   7.42827000  5.34850467  7.11013923
  25.25610000  5.34850467  7.11013923
  10.39957800  5.34850467  7.11013923
  28.22740000  5.34850467  7.11013923
   5.94261600  3.29087850  8.57584531
  23.77050000  3.29087850  8.57584531
   8.91392400  3.29087850  8.57584531
  26.74180000  3.29087850  8.57584531
   5.94261600  0.00000000  9.27660101
  23.77050000  0.00000000  9.27660101
   8.91392400  0.00000000  9.27660101
  26.74180000  0.00000000  9.27660101
   7.42827000  4.60802695 10.56494887
  25.25610000  4.60802695 10.56494887
  10.39957800  4.60802695 10.56494887
  28.22740000  4.60802695 10.56494887
   7.42827000  1.97373005 10.56494887
  25.25610000  1.97373005 10.56494887
  10.39957800  1.97373005 10.56494887
  28.22740000  1.97373005 10.56494887
   5.94261600  0.00000000 11.85854994
  23.77050000  0.00000000 11.85854994
   8.91392400  0.00000000 11.85854994
  26.74180000  0.00000000 11.85854994
   5.94261600  3.29087850 12.57351985
  23.77050000  3.29087850 12.57351985
   8.91392400  3.29087850 12.57351985
  26.74180000  3.29087850 12.57351985
   7.42827000  1.28677612 13.86853311
  25.25610000  1.28677612 13.86853311
  10.39957800  1.28677612 13.86853311
  28.22740000  1.28677612 13.86853311
   7.42827000  5.29498088 13.86853311
  25.25610000  5.29498088 13.86853311
  10.39957800  5.29498088 13.86853311
  28.22740000  5.29498088 13.86853311
   5.94261600  3.29087850 15.16354637
  23.77050000  3.29087850 15.16354637
   8.91392400  3.29087850 15.16354637
  26.74180000  3.29087850 15.16354637
   5.94261600  0.00000000 15.87851627
  23.77050000  0.00000000 15.87851627
   8.91392400  0.00000000 15.87851627
  26.74180000  0.00000000 15.87851627
   7.42827000  4.60802695 17.17211734
  25.25610000  4.60802695 17.17211734
  10.39957800  4.60802695 17.17211734
  28.22740000  4.60802695 17.17211734
   7.42827000  1.97373005 17.17211734
  25.25610000  1.97373005 17.17211734
  10.39957800  1.97373005 17.17211734
  28.22740000  1.97373005 17.17211734
   5.94261600  0.00000000 18.46046521
  23.77050000  0.00000000 18.46046521
   8.91392400  0.00000000 18.46046521
  26.74180000  0.00000000 18.46046521
   5.94261600  3.29087850 19.16122091
  23.77050000  3.29087850 19.16122091
   8.91392400  3.29087850 19.16122091
  26.74180000  3.29087850 19.16122091
   7.42827000  1.23325233 20.62692698
  25.25610000  1.23325233 20.62692698
  10.39957800  1.23325233 20.62692698
  28.22740000  1.23325233 20.62692698
   7.42827000  5.34850467 20.62692698
  25.25610000  5.34850467 20.62692698
  10.39957800  5.34850467 20.62692698
  28.22740000  5.34850467 20.62692698
   5.94261600  3.29087850 21.74322867
  23.77050000  3.29087850 21.74322867
   8.91392400  3.29087850 21.74322867
  26.74180000  3.29087850 21.74322867
  11.88523200  3.29087850  5.99383754
  29.71310000  3.29087850  5.99383754
  14.85654000  3.29087850  5.99383754
  32.68440000  3.29087850  5.99383754
  13.37088600  1.23325233  7.11013923
  31.19870000  1.23325233  7.11013923
  16.34219400  1.23325233  7.11013923
  34.17000000  1.23325233  7.11013923
  13.37088600  5.34850467  7.11013923
  31.19870000  5.34850467  7.11013923
  16.34219400  5.34850467  7.11013923
  34.17000000  5.34850467  7.11013923
  11.88523200  3.29087850  8.57584531
  29.71310000  3.29087850  8.57584531
  14.85654000  3.29087850  8.57584531
  32.68440000  3.29087850  8.57584531
  11.88523200  0.00000000  9.27660101
  29.71310000  0.00000000  9.27660101
  14.85654000  0.00000000  9.27660101
  32.68440000  0.00000000  9.27660101
  13.37088600  4.60802695 10.56494887
  31.19870000  4.60802695 10.56494887
  16.34219400  4.60802695 10.56494887
  34.17000000  4.60802695 10.56494887
  13.37088600  1.97373005 10.56494887
  31.19870000  1.97373005 10.56494887
  16.34219400  1.97373005 10.56494887
  34.17000000  1.97373005 10.56494887
  11.88523200  0.00000000 11.85854994
  29.71310000  0.00000000 11.85854994
  14.85654000  0.00000000 11.85854994
  32.68440000  0.00000000 11.85854994
  11.88523200  3.29087850 12.57351985
  29.71310000  3.29087850 12.57351985
  14.85654000  3.29087850 12.57351985
  32.68440000  3.29087850 12.57351985
  13.37088600  1.28677612 13.86853311
  31.19870000  1.28677612 13.86853311
  16.34219400  1.28677612 13.86853311
  34.17000000  1.28677612 13.86853311
  13.37088600  5.29498088 13.86853311
  31.19870000  5.29498088 13.86853311
  16.34219400  5.29498088 13.86853311
  34.17000000  5.29498088 13.86853311
  11.88523200  3.29087850 15.16354637
  29.71310000  3.29087850 15.16354637
  14.85654000  3.29087850 15.16354637
  32.68440000  3.29087850 15.16354637
  11.88523200  0.00000000 15.87851627
  29.71310000  0.00000000 15.87851627
  14.85654000  0.00000000 15.87851627
  32.68440000  0.00000000 15.87851627
  13.37088600  4.60802695 17.17211734
  31.19870000  4.60802695 17.17211734
  16.34219400  4.60802695 17.17211734
  34.17000000  4.60802695 17.17211734
  13.37088600  1.97373005 17.17211734
  31.19870000  1.97373005 17.17211734
  16.34219400  1.97373005 17.17211734
  34.17000000  1.97373005 17.17211734
  11.88523200  0.00000000 18.46046521
  29.71310000  0.00000000 18.46046521
  14.85654000  0.00000000 18.46046521
  32.68440000  0.00000000 18.46046521
  11.88523200  3.29087850 19.16122091
  29.71310000  3.29087850 19.16122091
  14.85654000  3.29087850 19.16122091
  32.68440000  3.29087850 19.16122091
  13.37088600  1.23325233 20.62692698
  31.19870000  1.23325233 20.62692698
  16.34219400  1.23325233 20.62692698
  34.17000000  1.23325233 20.62692698
  13.37088600  5.34850467 20.62692698
  31.19870000  5.34850467 20.62692698
  16.34219400  5.34850467 20.62692698
  34.17000000  5.34850467 20.62692698
  11.88523200  3.29087850 21.74322867
  29.71310000  3.29087850 21.74322867
  14.85654000  3.29087850 21.74322867
  32.68440000  3.29087850 21.74322867
   0.00000000  9.87263550  5.99383754
  17.82780000  9.87263550  5.99383754
   2.97130800  9.87263550  5.99383754
  20.79920000  9.87263550  5.99383754
   1.48565400  7.81500933  7.11013923
  19.31350000  7.81500933  7.11013923
   4.45696200  7.81500933  7.11013923
  22.28480000  7.81500933  7.11013923
   1.48565400 11.93026167  7.11013923
  19.31350000 11.93026167  7.11013923
   4.45696200 11.93026167  7.11013923
  22.28480000 11.93026167  7.11013923
   0.00000000  9.87263550  8.57584531
  17.82780000  9.87263550  8.57584531
   2.97130800  9.87263550  8.57584531
  20.79920000  9.87263550  8.57584531
   0.00000000  6.58175700  9.27660101
  17.82780000  6.58175700  9.27660101
   2.97130800  6.58175700  9.27660101
  20.79920000  6.58175700  9.27660101
   1.48565400 11.18978395 10.56494887
  19.31350000 11.18978395 10.56494887
   4.45696200 11.18978395 10.56494887
  22.28480000 11.18978395 10.56494887
   1.48565400  8.55548705 10.56494887
  19.31350000  8.55548705 10.56494887
   4.45696200  8.55548705 10.56494887
  22.28480000  8.55548705 10.56494887
   0.00000000  6.58175700 11.85854994
  17.82780000  6.58175700 11.85854994
   2.97130800  6.58175700 11.85854994
  20.79920000  6.58175700 11.85854994
   0.00000000  9.87263550 12.57351985
  17.82780000  9.87263550 12.57351985
   2.97130800  9.87263550 12.57351985
  20.79920000  9.87263550 12.57351985
   1.48565400  7.86853312 13.86853311
  19.31350000  7.86853312 13.86853311
   4.45696200  7.86853312 13.86853311
  22.28480000  7.86853312 13.86853311
   1.48565400 11.87673788 13.86853311
  19.31350000 11.87673788 13.86853311
   4.45696200 11.87673788 13.86853311
  22.28480000 11.87673788 13.86853311
   0.00000000  9.87263550 15.16354637
  17.82780000  9.87263550 15.16354637
   2.97130800  9.87263550 15.16354637
  20.79920000  9.87263550 15.16354637
   0.00000000  6.58175700 15.87851627
  17.82780000  6.58175700 15.87851627
   2.97130800  6.58175700 15.87851627
  20.79920000  6.58175700 15.87851627
   1.48565400 11.18978395 17.17211734
  19.31350000 11.18978395 17.17211734
   4.45696200 11.18978395 17.17211734
  22.28480000 11.18978395 17.17211734
   1.48565400  8.55548705 17.17211734
  19.31350000  8.55548705 17.17211734
   4.45696200  8.55548705 17.17211734
  22.28480000  8.55548705 17.17211734
   0.00000000  6.58175700 18.46046521
  17.82780000  6.58175700 18.46046521
   2.97130800  6.58175700 18.46046521
  20.79920000  6.58175700 18.46046521
   0.00000000  9.87263550 19.16122091
  17.82780000  9.87263550 19.16122091
   2.97130800  9.87263550 19.16122091
  20.79920000  9.87263550 19.16122091
   1.48565400  7.81500933 20.62692698
  19.31350000  7.81500933 20.62692698
   4.45696200  7.81500933 20.62692698
  22.28480000  7.81500933 20.62692698
   1.48565400 11.93026167 20.62692698
  19.31350000 11.93026167 20.62692698
   4.45696200 11.93026167 20.62692698
  22.28480000 11.93026167 20.62692698
   0.00000000  9.87263550 21.74322867
  17.82780000  9.87263550 21.74322867
   2.97130800  9.87263550 21.74322867
  20.79920000  9.87263550 21.74322867
   5.94261600  9.87263550  5.99383754
  23.77050000  9.87263550  5.99383754
   8.91392400  9.87263550  5.99383754
  26.74180000  9.87263550  5.99383754
   7.42827000  7.81500933  7.11013923
  25.25610000  7.81500933  7.11013923
  10.39957800  7.81500933  7.11013923
  28.22740000  7.81500933  7.11013923
   7.42827000 11.93026167  7.11013923
  25.25610000 11.93026167  7.11013923
  10.39957800 11.93026167  7.11013923
  28.22740000 11.93026167  7.11013923
   5.94261600  9.87263550  8.57584531
  23.77050000  9.87263550  8.57584531
   8.91392400  9.87263550  8.57584531
  26.74180000  9.87263550  8.57584531
   5.94261600  6.58175700  9.27660101
  23.77050000  6.58175700  9.27660101
   8.91392400  6.58175700  9.27660101
  26.74180000  6.58175700  9.27660101
   7.42827000 11.18978395 10.56494887
  25.25610000 11.18978395 10.56494887
  10.39957800 11.18978395 10.56494887
  28.22740000 11.18978395 10.56494887
   7.42827000  8.55548705 10.56494887
  25.25610000  8.55548705 10.56494887
  10.39957800  8.55548705 10.56494887
  28.22740000  8.55548705 10.56494887
   5.94261600  6.58175700 11.85854994
  23.77050000  6.58175700 11.85854994
   8.91392400  6.58175700 11.85854994
  26.74180000  6.58175700 11.85854994
   5.94261600  9.87263550 12.57351985
  23.77050000  9.87263550 12.57351985
   8.91392400  9.87263550 12.57351985
  26.74180000  9.87263550 12.57351985
   7.42827000  7.86853312 13.86853311
  25.25610000  7.86853312 13.86853311
  10.39957800  7.86853312 13.86853311
  28.22740000  7.86853312 13.86853311
   7.42827000 11.87673788 13.86853311
  25.25610000 11.87673788 13.86853311
  10.39957800 11.87673788 13.86853311
  28.22740000 11.87673788 13.86853311
   5.94261600  9.87263550 15.16354637
  23.77050000  9.87263550 15.16354637
   8.91392400  9.87263550 15.16354637
  26.74180000  9.87263550 15.16354637
   5.94261600  6.58175700 15.87851627
  23.77050000  6.58175700 15.87851627
   8.91392400  6.58175700 15.87851627
  26.74180000  6.58175700 15.87851627
   7.42827000 11.18978395 17.17211734
  25.25610000 11.18978395 17.17211734
  10.39957800 11.18978395 17.17211734
  28.22740000 11.18978395 17.17211734
   7.42827000  8.55548705 17.17211734
  25.25610000  8.55548705 17.17211734
  10.39957800  8.55548705 17.17211734
  28.22740000  8.55548705 17.17211734
   5.94261600  6.58175700 18.46046521
  23.77050000  6.58175700 18.46046521
   8.91392400  6.58175700 18.46046521
  26.74180000  6.58175700 18.46046521
   5.94261600  9.87263550 19.16122091
  23.77050000  9.87263550 19.16122091
   8.91392400  9.87263550 19.16122091
  26.74180000  9.87263550 19.16122091
   7.42827000  7.81500933 20.62692698
  25.25610000  7.81500933 20.62692698
  10.39957800  7.81500933 20.62692698
  28.22740000  7.81500933 20.62692698
   7.42827000 11.93026167 20.62692698
  25.25610000 11.93026167 20.62692698
  10.39957800 11.93026167 20.62692698
  28.22740000 11.93026167 20.62692698
   5.94261600  9.87263550 21.74322867
  23.77050000  9.87263550 21.74322867
   8.91392400  9.87263550 21.74322867
  26.74180000  9.87263550 21.74322867
  11.88523200  9.87263550  5.99383754
  29.71310000  9.87263550  5.99383754
  14.85654000  9.87263550  5.99383754
  32.68440000  9.87263550  5.99383754
  13.37088600  7.81500933  7.11013923
  31.19870000  7.81500933  7.11013923
  16.34219400  7.81500933  7.11013923
  34.17000000  7.81500933  7.11013923
  13.37088600 11.93026167  7.11013923
  31.19870000 11.93026167  7.11013923
  16.34219400 11.93026167  7.11013923
  34.17000000 11.93026167  7.11013923
  11.88523200  9.87263550  8.57584531
  29.71310000  9.87263550  8.57584531
  14.85654000  9.87263550  8.57584531
  32.68440000  9.87263550  8.57584531
  11.88523200  6.58175700  9.27660101
  29.71310000  6.58175700  9.27660101
  14.85654000  6.58175700  9.27660101
  32.68440000  6.58175700  9.27660101
  13.37088600 11.18978395 10.56494887
  31.19870000 11.18978395 10.56494887
  16.34219400 11.18978395 10.56494887
  34.17000000 11.18978395 10.56494887
  13.37088600  8.55548705 10.56494887
  31.19870000  8.55548705 10.56494887
  16.34219400  8.55548705 10.56494887
  34.17000000  8.55548705 10.56494887
  11.88523200  6.58175700 11.85854994
  29.71310000  6.58175700 11.85854994
  14.85654000  6.58175700 11.85854994
  32.68440000  6.58175700 11.85854994
  11.88523200  9.87263550 12.57351985
  29.71310000  9.87263550 12.57351985
  14.85654000  9.87263550 12.57351985
  32.68440000  9.87263550 12.57351985
  13.37088600  7.86853312 13.86853311
  31.19870000  7.86853312 13.86853311
  16.34219400  7.86853312 13.86853311
  34.17000000  7.86853312 13.86853311
  13.37088600 11.87673788 13.86853311
  31.19870000 11.87673788 13.86853311
  16.34219400 11.87673788 13.86853311
  34.17000000 11.87673788 13.86853311
  11.88523200  9.87263550 15.16354637
  29.71310000  9.87263550 15.16354637
  14.85654000  9.87263550 15.16354637
  32.68440000  9.87263550 15.16354637
  11.88523200  6.58175700 15.87851627
  29.71310000  6.58175700 15.87851627
  14.85654000  6.58175700 15.87851627
  32.68440000  6.58175700 15.87851627
  13.37088600 11.18978395 17.17211734
  31.19870000 11.18978395 17.17211734
  16.34219400 11.18978395 17.17211734
  34.17000000 11.18978395 17.17211734
  13.37088600  8.55548705 17.17211734
  31.19870000  8.55548705 17.17211734
  16.34219400  8.55548705 17.17211734
  34.17000000  8.55548705 17.17211734
  11.88523200  6.58175700 18.46046521
  29.71310000  6.58175700 18.46046521
  14.85654000  6.58175700 18.46046521
  32.68440000  6.58175700 18.46046521
  11.88523200  9.87263550 19.16122091
  29.71310000  9.87263550 19.16122091
  14.85654000  9.87263550 19.16122091
  32.68440000  9.87263550 19.16122091
  13.37088600  7.81500933 20.62692698
  31.19870000  7.81500933 20.62692698
  16.34219400  7.81500933 20.62692698
  34.17000000  7.81500933 20.62692698
  13.37088600 11.93026167 20.62692698
  31.19870000 11.93026167 20.62692698
  16.34219400 11.93026167 20.62692698
  34.17000000 11.93026167 20.62692698
  11.88523200  9.87263550 21.74322867
  29.71310000  9.87263550 21.74322867
  14.85654000  9.87263550 21.74322867
  32.68440000  9.87263550 21.74322867
   0.00000000 16.45439250  5.99383754
  17.82780000 16.45439250  5.99383754
   2.97130800 16.45439250  5.99383754
  20.79920000 16.45439250  5.99383754
   1.48565400 14.39676633  7.11013923
  19.31350000 14.39676633  7.11013923
   4.45696200 14.39676633  7.11013923
  22.28480000 14.39676633  7.11013923
   1.48565400 18.51201867  7.11013923
  19.31350000 18.51201867  7.11013923
   4.45696200 18.51201867  7.11013923
  22.28480000 18.51201867  7.11013923
   0.00000000 16.45439250  8.57584531
  17.82780000 16.45439250  8.57584531
   2.97130800 16.45439250  8.57584531
  20.79920000 16.45439250  8.57584531
   0.00000000 13.16351400  9.27660101
  17.82780000 13.16351400  9.27660101
   2.97130800 13.16351400  9.27660101
  20.79920000 13.16351400  9.27660101
   1.48565400 17.77154095 10.56494887
  19.31350000 17.77154095 10.56494887
   4.45696200 17.77154095 10.56494887
  22.28480000 17.77154095 10.56494887
   1.48565400 15.13724405 10.56494887
  19.31350000 15.13724405 10.56494887
   4.45696200 15.13724405 10.56494887
  22.28480000 15.13724405 10.56494887
   0.00000000 13.16351400 11.85854994
  17.82780000 13.16351400 11.85854994
   2.97130800 13.16351400 11.85854994
  20.79920000 13.16351400 11.85854994
   0.00000000 16.45439250 12.57351985
  17.82780000 16.45439250 12.57351985
   2.97130800 16.45439250 12.57351985
  20.79920000 16.45439250 12.57351985
   1.48565400 14.45029012 13.86853311
  19.31350000 14.45029012 13.86853311
   4.45696200 14.45029012 13.86853311
  22.28480000 14.45029012 13.86853311
   1.48565400 18.45849488 13.86853311
  19.31350000 18.45849488 13.86853311
   4.45696200 18.45849488 13.86853311
  22.28480000 18.45849488 13.86853311
   0.00000000 16.45439250 15.16354637
  17.82780000 16.45439250 15.16354637
   2.97130800 16.45439250 15.16354637
  20.79920000 16.45439250 15.16354637
   0.00000000 13.16351400 15.87851627
  17.82780000 13.16351400 15.87851627
   2.97130800 13.16351400 15.87851627
  20.79920000 13.16351400 15.87851627
   1.48565400 17.77154095 17.17211734
  19.31350000 17.77154095 17.17211734
   4.45696200 17.77154095 17.17211734
  22.28480000 17.77154095 17.17211734
   1.48565400 15.13724405 17.17211734
  19.31350000 15.13724405 17.17211734
   4.45696200 15.13724405 17.17211734
  22.28480000 15.13724405 17.17211734
   0.00000000 13.16351400 18.46046521
  17.82780000 13.16351400 18.46046521
   2.97130800 13.16351400 18.46046521
  20.79920000 13.16351400 18.46046521
   0.00000000 16.45439250 19.16122091
  17.82780000 16.45439250 19.16122091
   2.97130800 16.45439250 19.16122091
  20.79920000 16.45439250 19.16122091
   1.48565400 14.39676633 20.62692698
  19.31350000 14.39676633 20.62692698
   4.45696200 14.39676633 20.62692698
  22.28480000 14.39676633 20.62692698
   1.48565400 18.51201867 20.62692698
  19.31350000 18.51201867 20.62692698
   4.45696200 18.51201867 20.62692698
  22.28480000 18.51201867 20.62692698
   0.00000000 16.45439250 21.74322867
  17.82780000 16.45439250 21.74322867
   2.97130800 16.45439250 21.74322867
  20.79920000 16.45439250 21.74322867
   5.94261600 16.45439250  5.99383754
  23.77050000 16.45439250  5.99383754
   8.91392400 16.45439250  5.99383754
  26.74180000 16.45439250  5.99383754
   7.42827000 14.39676633  7.11013923
  25.25610000 14.39676633  7.11013923
  10.39957800 14.39676633  7.11013923
  28.22740000 14.39676633  7.11013923
   7.42827000 18.51201867  7.11013923
  25.25610000 18.51201867  7.11013923
  10.39957800 18.51201867  7.11013923
  28.22740000 18.51201867  7.11013923
   5.94261600 16.45439250  8.57584531
  23.77050000 16.45439250  8.57584531
   8.91392400 16.45439250  8.57584531
  26.74180000 16.45439250  8.57584531
   5.94261600 13.16351400  9.27660101
  23.77050000 13.16351400  9.27660101
   8.91392400 13.16351400  9.27660101
  26.74180000 13.16351400  9.27660101
   7.42827000 17.77154095 10.56494887
  25.25610000 17.77154095 10.56494887
  10.39957800 17.77154095 10.56494887
  28.22740000 17.77154095 10.56494887
   7.42827000 15.13724405 10.56494887
  25.25610000 15.13724405 10.56494887
  10.39957800 15.13724405 10.56494887
  28.22740000 15.13724405 10.56494887
   5.94261600 13.16351400 11.85854994
  23.77050000 13.16351400 11.85854994
   8.91392400 13.16351400 11.85854994
  26.74180000 13.16351400 11.85854994
   5.94261600 16.45439250 12.57351985
  23.77050000 16.45439250 12.57351985
   8.91392400 16.45439250 12.57351985
  26.74180000 16.45439250 12.57351985
   7.42827000 14.45029012 13.86853311
  25.25610000 14.45029012 13.86853311
  10.39957800 14.45029012 13.86853311
  28.22740000 14.45029012 13.86853311
   7.42827000 18.45849488 13.86853311
  25.25610000 18.45849488 13.86853311
  10.39957800 18.45849488 13.86853311
  28.22740000 18.45849488 13.86853311
   5.94261600 16.45439250 15.16354637
  23.77050000 16.45439250 15.16354637
   8.91392400 16.45439250 15.16354637
  26.74180000 16.45439250 15.16354637
   5.94261600 13.16351400 15.87851627
  23.77050000 13.16351400 15.87851627
   8.91392400 13.16351400 15.87851627
  26.74180000 13.16351400 15.87851627
   7.42827000 17.77154095 17.17211734
  25.25610000 17.77154095 17.17211734
  10.39957800 17.77154095 17.17211734
  28.22740000 17.77154095 17.17211734
   7.42827000 15.13724405 17.17211734
  25.25610000 15.13724405 17.17211734
  10.39957800 15.13724405 17.17211734
  28.22740000 15.13724405 17.17211734
   5.94261600 13.16351400 18.46046521
  23.77050000 13.16351400 18.46046521
   8.91392400 13.16351400 18.46046521
  26.74180000 13.16351400 18.46046521
   5.94261600 16.45439250 19.16122091
  23.77050000 16.45439250 19.16122091
   8.91392400 16.45439250 19.16122091
  26.74180000 16.45439250 19.16122091
   7.42827000 14.39676633 20.62692698
  25.25610000 14.39676633 20.62692698
  10.39957800 14.39676633 20.62692698
  28.22740000 14.39676633 20.62692698
   7.42827000 18.51201867 20.62692698
  25.25610000 18.51201867 20.62692698
  10.39957800 18.51201867 20.62692698
  28.22740000 18.51201867 20.62692698
   5.94261600 16.45439250 21.74322867
  23.77050000 16.45439250 21.74322867
   8.91392400 16.45439250 21.74322867
  26.74180000 16.45439250 21.74322867
  11.88523200 16.45439250  5.99383754
  29.71310000 16.45439250  5.99383754
  14.85654000 16.45439250  5.99383754
  32.68440000 16.45439250  5.99383754
  13.37088600 14.39676633  7.11013923
  31.19870000 14.39676633  7.11013923
  16.34219400 14.39676633  7.11013923
  34.17000000 14.39676633  7.11013923
  13.37088600 18.51201867  7.11013923
  31.19870000 18.51201867  7.11013923
  16.34219400 18.51201867  7.11013923
  34.17000000 18.51201867  7.11013923
  11.88523200 16.45439250  8.57584531
  29.71310000 16.45439250  8.57584531
  14.85654000 16.45439250  8.57584531
  32.68440000 16.45439250  8.57584531
  11.88523200 13.16351400  9.27660101
  29.71310000 13.16351400  9.27660101
  14.85654000 13.16351400  9.27660101
  32.68440000 13.16351400  9.27660101
  13.37088600 17.77154095 10.56494887
  31.19870000 17.77154095 10.56494887
  16.34219400 17.77154095 10.56494887
  34.17000000 17.77154095 10.56494887
  13.37088600 15.13724405 10.56494887
  31.19870000 15.13724405 10.56494887
  16.34219400 15.13724405 10.56494887
  34.17000000 15.13724405 10.56494887
  11.88523200 13.16351400 11.85854994
  29.71310000 13.16351400 11.85854994
  14.85654000 13.16351400 11.85854994
  32.68440000 13.16351400 11.85854994
  11.88523200 16.45439250 12.57351985
  29.71310000 16.45439250 12.57351985
  14.85654000 16.45439250 12.57351985
  32.68440000 16.45439250 12.57351985
  13.37088600 14.45029012 13.86853311
  31.19870000 14.45029012 13.86853311
  16.34219400 14.45029012 13.86853311
  34.17000000 14.45029012 13.86853311
  13.37088600 18.45849488 13.86853311
  31.19870000 18.45849488 13.86853311
  16.34219400 18.45849488 13.86853311
  34.17000000 18.45849488 13.86853311
  11.88523200 16.45439250 15.16354637
  29.71310000 16.45439250 15.16354637
  14.85654000 16.45439250 15.16354637
  32.68440000 16.45439250 15.16354637
  11.88523200 13.16351400 15.87851627
  29.71310000 13.16351400 15.87851627
  14.85654000 13.16351400 15.87851627
  32.68440000 13.16351400 15.87851627
  13.37088600 17.77154095 17.17211734
  31.19870000 17.77154095 17.17211734
  16.34219400 17.77154095 17.17211734
  34.17000000 17.77154095 17.17211734
  13.37088600 15.13724405 17.17211734
  31.19870000 15.13724405 17.17211734
  16.34219400 15.13724405 17.17211734
  34.17000000 15.13724405 17.17211734
  11.88523200 13.16351400 18.46046521
  29.71310000 13.16351400 18.46046521
  14.85654000 13.16351400 18.46046521
  32.68440000 13.16351400 18.46046521
  11.88523200 16.45439250 19.16122091
  29.71310000 16.45439250 19.16122091
  14.85654000 16.45439250 19.16122091
  32.68440000 16.45439250 19.16122091
  13.37088600 14.39676633 20.62692698
  31.19870000 14.39676633 20.62692698
  16.34219400 14.39676633 20.62692698
  34.17000000 14.39676633 20.62692698
  13.37088600 18.51201867 20.62692698
  31.19870000 18.51201867 20.62692698
  16.34219400 18.51201867 20.62692698
  34.17000000 18.51201867 20.62692698
  11.88523200 16.45439250 21.74322867
  29.71310000 16.45439250 21.74322867
  14.85654000 16.45439250 21.74322867
  32.68440000 16.45439250 21.74322867
 


--------------------------------------------------------------------------------------------------------


 use serial FFT for orbitals x direction half grid
 k-point     1 :   0.0000 0.0000 0.0000  plane waves:  455267

 maximum and minimum number of plane-waves per node :    455267   455267

 maximum number of plane-waves:    455267
 maximum index in each direction: 
   IXMAX=   79   IYMAX=   44   IZMAX=   61
   IXMIN=    0   IYMIN=  -44   IZMIN=  -61


 serial   3D FFT for wavefunctions
 parallel 3D FFT for charge:
    minimum data exchange during FFTs selected (reduces bandwidth)


 total amount of memory used by VASP MPI-rank0  1864530. kBytes
=======================================================================

   base                                    :      30000. kBytes
   nonlr-proj                              :     807411. kBytes
   fftplans                                :      88549. kBytes
   grid                                    :     627468. kBytes
   one-center                              :       8398. kBytes
   wavefun                                 :     302704. kBytes
 
     INWAV:  cpu time      0.0000: real time      0.0000
 Broyden mixing: mesh for mixing (old mesh)
   NGX =159   NGY = 89   NGZ =123
  (NGX  =640   NGY  =360   NGZ  =500)
  gives a total of ****** points

 initial charge density was supplied:
 charge density of overlapping atoms calculated
 number of electron    8640.0000000 magnetization 
 keeping initial charge density in first step


--------------------------------------------------------------------------------------------------------


 Maximum index for non-local projection operator          9595
 Maximum index for augmentation-charges          1114 (set IRDMAX)


--------------------------------------------------------------------------------------------------------


 First call to EWALD:  gamma=   0.066
 Maximum number of real-space cells   2x   4x   3
 Maximum number of reciprocal cells   3x   2x   3

    FEWALD:  cpu time     11.8989: real time     63.5895
++++ Slurm JobID = 3298631
rm: cannot remove 'WAVECAR': No such file or directory
 running  128 mpi-ranks, with    8 threads/rank, on    4 nodes
 distrk:  each k-point on  128 cores,    1 groups
 distr:  one band on    1 cores,  128 groups
 Offloading initialized ...   16 GPUs detected
 WARNING: INIT_OFFLOAD: several MPI-ranks need to share a GPU, which is not
     supported by NCCL. The use of NCCL will be switched off. To avoid this,
     reduce the number of MPI-ranks: #-of-ranks <= #-of-GPUs (on every node!).

Out of memory allocating 921600000 bytes of device memory
Failing in Thread:1
total/free CUDA memory: 102005473280/206635008
Present table dump for device[1]: NVIDIA Tesla GPU 0, compute capability 9.0, threadid=1
Hint: specify 0x800 bit in NV_ACC_DEBUG for verbose info.
host:0x2557280 device:0x4003de5fd800 size:32 presentcount:0+3 line:643 name:var%comm
host:0x25572a0 device:0x4003de5ef600 size:32 presentcount:0+4 line:652 name:var%comm_kinter
host:0x25572c0 device:0x4003de5ef800 size:32 presentcount:0+6 line:655 name:var%comm_kin
host:0x25572e0 device:0x4005bc1ffa00 size:32 presentcount:0+3 line:646 name:var%comm_inter
host:0x2557300 device:0x4005bc1ffc00 size:32 presentcount:0+7 line:649 name:var%comm_inb
host:0x256be80 device:0x4003da0ecd00 size:8 presentcount:0+1 line:-1 name:_setexm_struct_def_21
host:0x2576f40 device:0x4003da0ece00 size:28 presentcount:0+1 line:-1 name:_ml_ff_constant_21
host:0x2577c80 device:0x4003da0ecf00 size:30437 presentcount:0+1 line:-1 name:_ml_ff_taglist_21
host:0x25afc80 device:0x4003da0f4600 size:8 presentcount:0+1 line:-1 name:_mopenacc_tutor_21
host:0x25c2740 device:0x4003da0f4a00 size:32 presentcount:0+1 line:-1 name:_mbj_21
host:0x25cd640 device:0x4003da0f4d00 size:8 presentcount:0+1 line:-1 name:_sym_prec_21
host:0x26030c0 device:0x4003da0f4e00 size:344 presentcount:0+1 line:-1 name:_tet_21
host:0x261c840 device:0x4003da0f5000 size:392 presentcount:0+1 line:-1 name:_mymath_21
host:0x2817368 device:0x4003de5f0400 size:4800 presentcount:0+2 line:614 name:var
host:0x2818628 device:0x4003de5fbc00 size:1984 presentcount:0+2 line:403 name:var
host:0x281a910 device:0x40059c3ffa00 size:864 presentcount:0+4 line:2639 name:hamiltonian
host:0x286ac80 device:0x4003de5fec00 size:2712 presentcount:0+2 line:428 name:var
host:0x286b718 device:0x4005bc1fc600 size:2248 presentcount:0+1 line:742 name:var
host:0x286eb50 device:0x400ab21ffc00 size:288 presentcount:0+1 line:195 name:latt_cur
host:0x2871658 device:0x4005dc3fe400 size:5088 presentcount:0+28 line:517 name:var
host:0x2872a38 device:0x4006325f6000 size:5088 presentcount:0+6 line:517 name:var
host:0x2873e18 device:0x4006325e9600 size:5088 presentcount:0+7 line:517 name:var
host:0x287a2a8 device:0x4005bc1ff800 size:304 presentcount:0+1 line:567 name:var
host:0x287a3d8 device:0x4006325fe200 size:304 presentcount:0+1 line:567 name:var
host:0x2e48ec0 device:0x4003da002600 size:960024 presentcount:0+1 line:-1 name:_setexm_struct_def_16
host:0x2f8f080 device:0x4003da0f4700 size:580 presentcount:0+1 line:-1 name:_wpbe_16
host:0x2f8f900 device:0x4003da0f4b00 size:288 presentcount:0+1 line:-1 name:_mbj_16
host:0x9f446c0 device:0x4003da0f5200 size:624 presentcount:0+1 line:-1 name:_mlr_optic_16
host:0x4421fb20 device:0x4006323ef000 size:8 presentcount:0+2 line:616 name:var%wtkpt(:)
host:0x4421fb50 device:0x4003de5ffa00 size:8 presentcount:0+3 line:616 name:var%nityp(:)
host:0x453dcc80 device:0x4006325f9000 size:528 presentcount:0+1 line:480 name:var
host:0x4962d890 device:0x4005bc1ffe00 size:8 presentcount:0+4 line:405 name:var%nityp(:)
host:0x49b2c0a0 device:0x4003de5f2200 size:1000 presentcount:0+4 line:519 name:var%lpctz(:)
host:0x49faf1a0 device:0x4006327e8a00 size:28464 presentcount:0+1 line:853 name:var(:)
host:0x49fc1920 device:0x4006329e8a00 size:40000 presentcount:0+1 line:857 name:var%psp(:,:)
host:0x49fcb590 device:0x400ab23fbc00 size:8000 presentcount:0+1 line:857 name:var%psprho(:)
host:0x49fce820 device:0x4006323f8c00 size:24000 presentcount:0+2 line:466 name:var%psprnl(:,:,:)
host:0x49ffe200 device:0x4006323f0400 size:4320 presentcount:0+4 line:405 name:var%ityp(:)
host:0x49fff310 device:0x4006323e8a00 size:25920 presentcount:0+4 line:405 name:var%posion(:,:)
host:0x4a042670 device:0x4006327efa00 size:40000 presentcount:0+1 line:857 name:var%psp(:,:)
host:0x4a04c2e0 device:0x400ab21fbc00 size:8000 presentcount:0+1 line:857 name:var%pspcor(:)
host:0x4a04e250 device:0x400ab21fdc00 size:8000 presentcount:0+1 line:857 name:var%psprho(:)
host:0x4a0514e0 device:0x4006323f2a00 size:24000 presentcount:0+2 line:466 name:var%psprnl(:,:,:)
host:0x4a09e4a0 device:0x4005dc3ffc00 size:24 presentcount:0+3 line:466 name:var%lps(:)
host:0x4a09e550 device:0x4005bc1fd000 size:24 presentcount:0+3 line:466 name:var%lps(:)
host:0x4a186bd0 device:0x4003de5ffe00 size:24 presentcount:0+3 line:616 name:var%vkpt(:,:)
host:0x4a1abe80 device:0x4003de5f0200 size:16 presentcount:0+2 line:430 name:var%psrmax(:)
host:0x4a1ac440 device:0x4006323ef200 size:4320 presentcount:0+3 line:616 name:var%ityp(:)
host:0x4a1ad550 device:0x4003de5ff800 size:8 presentcount:0+3 line:616 name:var%lmmax(:)
host:0x4a1ad580 device:0x4003de5ffc00 size:8 presentcount:0+3 line:616 name:var%nt_global(:)
host:0x4a1ad5b0 device:0x4003de5fda00 size:4320 presentcount:0+3 line:616 name:var%npro_pos(:)
host:0x4a1ae6c0 device:0x4003de5fc600 size:4324 presentcount:0+3 line:616 name:var%lmbase(:)
host:0x4a1af7d0 device:0x4006323f8800 size:4 presentcount:0+2 line:616 name:var%nplwkp(:)
host:0x4a1af800 device:0x4006323f8a00 size:4 presentcount:0+2 line:616 name:var%nplwkp_tot(:)
host:0x4a1af830 device:0x4006323fea00 size:4 presentcount:0+2 line:616 name:var%ngvector_pos(:)
host:0x4a1af860 device:0x4006323f2800 size:4 presentcount:0+2 line:616 name:var%ngvector(:)
host:0x4a1af890 device:0x4003de5f1800 size:1280 presentcount:0+4 line:519 name:var%lpctx(:)
host:0x4a1afdc0 device:0x4003de5f1e00 size:720 presentcount:0+4 line:519 name:var%lpcty(:)
host:0x4a1b00c0 device:0x4003de5f2600 size:1280 presentcount:0+4 line:519 name:var%lpctx_(:)
host:0x4a1b05f0 device:0x4003de5f2c00 size:720 presentcount:0+4 line:519 name:var%lpcty_(:)
host:0x4a1b08f0 device:0x4003de5f3000 size:1000 presentcount:0+4 line:519 name:var%lpctz_(:)
host:0x4a1b0d00 device:0x4006325f7400 size:1280 presentcount:0+1 line:519 name:var%lpctx(:)
host:0x4a1b1230 device:0x4006325f7a00 size:720 presentcount:0+1 line:519 name:var%lpcty(:)
host:0x4a1b1530 device:0x4006325f7e00 size:1000 presentcount:0+1 line:519 name:var%lpctz(:)
host:0x4a1b1940 device:0x4006325f8200 size:1280 presentcount:0+1 line:519 name:var%lpctx_(:)
host:0x4a1b1e70 device:0x4006325f8800 size:720 presentcount:0+1 line:519 name:var%lpcty_(:)
host:0x4a1b2170 device:0x4006325f8c00 size:1000 presentcount:0+1 line:519 name:var%lpctz_(:)
host:0x4a1b2580 device:0x4006323fee00 size:2560 presentcount:0+1 line:519 name:var%lpctx(:)
host:0x4a1b2fb0 device:0x4006325eaa00 size:1440 presentcount:0+1 line:519 name:var%lpcty(:)
host:0x4a1b3580 device:0x4006325e8a00 size:2000 presentcount:0+1 line:519 name:var%lpctz(:)
host:0x4a1b3d80 device:0x4006325eb000 size:2560 presentcount:0+1 line:519 name:var%lpctx_(:)
host:0x4a1b47b0 device:0x4006325eba00 size:1440 presentcount:0+1 line:519 name:var%lpcty_(:)
host:0x4a1b4d80 device:0x4006325ec000 size:2000 presentcount:0+1 line:519 name:var%lpctz_(:)
host:0x4a2a0e60 device:0x4006325f0400 size:2824 presentcount:0+1 line:482 name:var%i2(:)
host:0x4a2a1990 device:0x4006325f1000 size:2824 presentcount:0+1 line:482 name:var%i3(:)
host:0x4a2a24c0 device:0x4006325f1c00 size:5020 presentcount:0+1 line:482 name:var%i2(:)
host:0x4a2a3890 device:0x4006325f3000 size:5020 presentcount:0+1 line:482 name:var%i3(:)
host:0x4a2a4c60 device:0x4006325ec800 size:7200 presentcount:0+2 line:482 name:var%i2(:)
host:0x4a2a68b0 device:0x4006325ee600 size:7200 presentcount:0+2 line:482 name:var%i3(:)
host:0x4a2a8920 device:0x4006d4c5fa00 size:921600 presentcount:0+2 line:482 name:var%index(:,:)
host:0x4a389950 device:0x4006325fe400 size:2560 presentcount:0+1 line:569 name:var%ind1(:)
host:0x4a38a380 device:0x4006325fee00 size:2824 presentcount:0+1 line:569 name:var%indcol(:)
host:0x4a38aeb0 device:0x4006325f9400 size:2824 presentcount:0+1 line:482 name:var%i2(:)
host:0x4a38b9e0 device:0x4006325fa000 size:2824 presentcount:0+1 line:482 name:var%i3(:)
host:0x4a38c510 device:0x4006325fac00 size:1512 presentcount:0+1 line:482 name:var%i2(:)
host:0x4a38cb20 device:0x4006325fb200 size:1512 presentcount:0+1 line:482 name:var%i3(:)
host:0x4a38d130 device:0x4005bc1fd200 size:4320 presentcount:0+2 line:430 name:var%nlimax(:)
host:0x4a38e240 device:0x4005bc1fe600 size:4324 presentcount:0+2 line:430 name:var%lmbase(:)
host:0x4a38f350 device:0x4003de5ee400 size:4324 presentcount:0+2 line:430 name:var%nlibase(:)
host:0x4a390460 device:0x4003de5f3400 size:17132 presentcount:0+4 line:519 name:var%nindpwconjg(:)
host:0x4a394780 device:0x4003de5f7800 size:17132 presentcount:0+4 line:519 name:var%ind_in_sphere(:)
host:0x4a3c66a0 device:0x4006325fd800 size:1280 presentcount:0+1 line:569 name:var%ind1(:)
host:0x4a3c6bd0 device:0x4006325fde00 size:700 presentcount:0+1 line:569 name:var%indcol(:)
host:0x4a3c6ec0 device:0x40051012e800 size:180000 presentcount:0+4 line:482 name:var%i2(:)
host:0x4a3f2e10 device:0x40051015a800 size:180000 presentcount:0+4 line:482 name:var%i3(:)
host:0x4a41ed60 device:0x4006323bca00 size:180000 presentcount:0+8 line:482 name:var%index(:,:)
host:0x4a44acb0 device:0x4006329bca00 size:180000 presentcount:0+8 line:482 name:var%i2(:)
host:0x4a476c00 device:0x400510186800 size:180000 presentcount:0+8 line:482 name:var%i3(:)
host:0x4a4a3180 device:0x400632400000 size:1821184 presentcount:0+3 line:616 name:var%nindpw(:,:)
host:0x4a65fbb0 device:0x4003de5fc400 size:8 presentcount:0+2 line:616 name:var%nb_totk(:,:)
host:0x4a65fbe0 device:0x4006323fec00 size:4 presentcount:0+2 line:616 name:var%luseinv(:)
host:0x4a65fc10 device:0x4003de5efe00 size:4 presentcount:0+2 line:616 name:var%at_gamma(:)
host:0x4a65fc40 device:0x4006325bca00 size:180000 presentcount:0+3 line:616 name:var%pl_index(:,:)
host:0x4a68bb90 device:0x4006327bca00 size:180000 presentcount:0+3 line:616 name:var%pl_col(:,:)
host:0x4a6b7ae0 device:0x4006323ffa00 size:8 presentcount:0+2 line:405 name:var%lmmax(:)
host:0x4a6b7b10 device:0x4003de5efa00 size:8 presentcount:0+2 line:430 name:var%lmax(:)
host:0x4a6b7b40 device:0x4006323f1600 size:4324 presentcount:0+2 line:405 name:var%lmbase(:)
host:0x4a6b8c50 device:0x4003de5efc00 size:8 presentcount:0+2 line:430 name:var%lmmax(:)
host:0x4a6b8c80 device:0x4003de5f0000 size:8 presentcount:0+2 line:430 name:var%channels(:)
host:0x4a6b8cb0 device:0x4005dc3ff800 size:16 presentcount:0+2 line:430 name:var%rsmooth(:)
host:0x4a6b8cf0 device:0x4005dc3ffa00 size:400 presentcount:0+2 line:464 name:var
host:0x4a6b8e80 device:0x4005dc3ffe00 size:400 presentcount:0+2 line:464 name:var
host:0x4a7298a0 device:0x4006325fbc00 size:516 presentcount:0+1 line:499 name:var%ptr(:)
host:0x4a729ad0 device:0x4006325fb800 size:516 presentcount:0+1 line:499 name:var%n(:)
host:0x4a729d00 device:0x4006325fc400 size:516 presentcount:0+1 line:499 name:var%ptri(:)
host:0x4a729f30 device:0x4006325fc000 size:516 presentcount:0+1 line:499 name:var%ni(:)
host:0x4a72a160 device:0x4006325fcc00 size:516 presentcount:0+1 line:499 name:var%ptr(:)
host:0x4a72a390 device:0x4006325fc800 size:516 presentcount:0+1 line:499 name:var%n(:)
host:0x4a72a5c0 device:0x4005bc1fe400 size:4 presentcount:0+1 line:499 name:var%tbli(:)
host:0x4a72a5f0 device:0x4006325fd400 size:516 presentcount:0+1 line:499 name:var%ptri(:)
host:0x4a72a820 device:0x4006325fd000 size:516 presentcount:0+1 line:499 name:var%ni(:)
host:0x4a744240 device:0x4006325f4400 size:516 presentcount:0+1 line:499 name:var%ptr(:)
host:0x4a744470 device:0x4006323ffc00 size:516 presentcount:0+1 line:499 name:var%n(:)
host:0x4a7446a0 device:0x4006325f4c00 size:516 presentcount:0+1 line:499 name:var%ptri(:)
host:0x4a7448d0 device:0x4006325f4800 size:516 presentcount:0+1 line:499 name:var%ni(:)
host:0x4a744b00 device:0x4006325f5400 size:516 presentcount:0+1 line:499 name:var%ptr(:)
host:0x4a744d30 device:0x4006325f5000 size:516 presentcount:0+1 line:499 name:var%n(:)
host:0x4a744f60 device:0x4006325f5c00 size:516 presentcount:0+1 line:499 name:var%ptri(:)
host:0x4a745190 device:0x4006325f5800 size:516 presentcount:0+1 line:499 name:var%ni(:)
host:0x4a899b40 device:0x4006d5600000 size:7284736 presentcount:0+3 line:616 name:var%datake(:,:,:)
host:0x4af8cdc0 device:0x400632600000 size:1821184 presentcount:0+3 line:616 name:var%igx(:,:)
host:0x4b14a450 device:0x400632200000 size:1821184 presentcount:0+3 line:616 name:var%igy(:,:)
host:0x4b307cf0 device:0x400632800000 size:1821184 presentcount:0+3 line:616 name:var%igz(:,:)
host:0x4b4c5bc0 device:0x400633200000 size:7284272 presentcount:0+4 line:519 name:var%fftsca(:,:)
host:0x4bbb8220 device:0x4006d4c00000 size:224000 presentcount:0+1 line:499 name:var%tbl(:)
host:0x4bc25880 device:0x400ab21b9400 size:272160 presentcount:0+1 line:499 name:var%tbli(:)
host:0x4bc67fd0 device:0x400ab23b9400 size:272160 presentcount:0+1 line:499 name:var%tbl(:)
host:0x4bd80530 device:0x4006d4e00000 size:1807360 presentcount:0+1 line:499 name:var%tbl(:)
host:0x4c0f6120 device:0x400ab2000000 size:1807200 presentcount:0+1 line:499 name:var%tbli(:)
host:0x4c2b1190 device:0x400ab2200000 size:1807200 presentcount:0+1 line:499 name:var%tbl(:)
host:0x4c6278a0 device:0x400ab2400000 size:1807200 presentcount:0+1 line:499 name:var%tbli(:)
host:0x4d252420 device:0x4005dc3f4000 size:41984 presentcount:0+1 line:746 name:var%auxtot(:,:,:)
host:0x4d272420 device:0x4003de5e4000 size:41984 presentcount:0+2 line:746 name:var%fertot(:,:,:)
host:0x4d280030 device:0x40051011a000 size:83968 presentcount:0+2 line:746 name:var%celtot(:,:,:)
host:0x4e282280 device:0x400632a00000 size:7200000 presentcount:0+1 line:195 name:dencor(:)
host:0x4f04c570 device:0x400631e00000 size:2799360 presentcount:0+2 line:194 name:cdij(:,:,:,:)
host:0x4f2fbc90 device:0x400ab2600000 size:2799360 presentcount:0+2 line:194 name:cqij(:,:,:,:)
host:0x4f85b940 device:0x4006d5200000 size:4030464 presentcount:0+5 line:746 name:var%gproj(:,:,:,:)
host:0x4fee96d0 device:0x4005101ca800 size:98304 presentcount:0+1 line:1101 name:w1%gproj(:)
host:0x56dfd3c0 device:0x4006d4d40a00 size:393216 presentcount:0+2 line:1226 name:wa%gproj(:,:)
host:0x56e5d3f0 device:0x400aa30c0000 size:393216 presentcount:0+2 line:1226 name:wa%gproj(:,:)
host:0x56ec49b0 device:0x400c75600000 size:3145728 presentcount:0+2 line:1226 name:wa%gproj(:,:)
host:0x5b0dc4e0 device:0x4006329fcc00 size:2048 presentcount:0+1 line:179 name:w1(:)
host:0x5b0dcd00 device:0x4006327fa600 size:2048 presentcount:0+1 line:179 name:wtmp(:)
host:0x5b112ad0 device:0x400b31e00000 size:7284736 presentcount:0+1 line:1101 name:w1%cptwfp(:)
host:0x5b805300 device:0x4005101b2800 size:98304 presentcount:0+1 line:1101 name:w1%gproj(:)
host:0x5b81d330 device:0x400ab25b9400 size:98304 presentcount:0+1 line:1101 name:w1%gproj(:)
host:0x5b835360 device:0x400ab25d1400 size:98304 presentcount:0+1 line:1101 name:w1%gproj(:)
host:0x5ba5b8b0 device:0x400c76a00000 size:14569472 presentcount:0+1 line:202 name:precon(:,:)
host:0x5c8486b0 device:0x400aafa00000 size:7284736 presentcount:0+1 line:1101 name:w1%cptwfp(:)
host:0x5cf432e0 device:0x400c75a00000 size:7284736 presentcount:0+1 line:1101 name:w1%cptwfp(:)
host:0x5d635f30 device:0x400c76200000 size:7284736 presentcount:0+1 line:1101 name:w1%cptwfp(:)
host:0x400404e410a0 device:0x400633a00000 size:45593280 presentcount:0+2 line:430 name:var%nli(:,:)
host:0x40040e3139e0 device:0x400ab2a00000 size:14458880 presentcount:0+1 line:195 name:cstrf(:,:)
host:0x40046c0031a0 device:0x40068dc00000 size:230400000 presentcount:0+2 line:194 name:sv(:,:)
host:0x40047c3a6f80 device:0x400c71e00000 size:29138944 presentcount:0+2 line:1226 name:wa%cptwfp(:,:)
host:0x40047df87190 device:0x400c73a00000 size:29138944 presentcount:0+2 line:1226 name:wa%cptwfp(:,:)
host:0x4005200012b0 device:0x400640000000 size:807411968 presentcount:0+2 line:430 name:var%rproj(:)
host:0x400600004a60 device:0x400620000000 size:298674176 presentcount:0+5 line:746 name:var%cptwfp(:,:,:,:)
host:0x400611ce73a0 device:0x400b20000000 size:233111552 presentcount:0+2 line:1226 name:wa%cptwfp(:,:)
host:0x4007600079d0 device:0x400a80000000 size:230400000 presentcount:0+1 line:1101 name:w1%cr(:)
host:0x40076dbd7be0 device:0x400670400000 size:230400000 presentcount:0+1 line:1236 name:w1%cr(:)
host:0x400880008000 device:0x4006c0000000 size:230400000 presentcount:0+1 line:1101 name:w1%cr(:)
host:0x40088dbd8210 device:0x400680000000 size:230400000 presentcount:0+1 line:1236 name:w1%cr(:)
host:0x4009e0000020 device:0x400420000000 size:230400000 presentcount:0+1 line:1101 name:w1%cr(:)
host:0x4009edbc0230 device:0x400c51e00000 size:230400000 presentcount:0+1 line:1236 name:w1%cr(:)
host:0x400a60000650 device:0x400c31e00000 size:230400000 presentcount:0+1 line:1101 name:w1%cr(:)
host:0x400a6dbc0860 device:0x400c11e00000 size:230400000 presentcount:0+1 line:1236 name:w1%cr(:)
host:0xffffec4d6d10 device:0x4006327fb200 size:3024 presentcount:0+12 line:682 name:var
host:0xffffec4d78e0 device:0x40057c3ff800 size:1480 presentcount:0+1 line:174 name:w_ini
host:0xffffec4d7eb0 device:0x4006327f9c00 size:1480 presentcount:0+1 line:174 name:wopt
host:0xffffec4d8480 device:0x4005bc1fbc00 size:1480 presentcount:0+1 line:174 name:wtmpa
allocated block device:0x4003de5e4000 size:41984 thread:1
allocated block device:0x4003de5ee400 size:4608 thread:1
allocated block device:0x4003de5ef600 size:512 thread:1
allocated block device:0x4003de5ef800 size:512 thread:1
allocated block device:0x4003de5efa00 size:512 thread:1
allocated block device:0x4003de5efc00 size:512 thread:1
allocated block device:0x4003de5efe00 size:512 thread:1
allocated block device:0x4003de5f0000 size:512 thread:1
allocated block device:0x4003de5f0200 size:512 thread:1
allocated block device:0x4003de5f0400 size:5120 thread:1
allocated block device:0x4003de5f1800 size:1536 thread:1
allocated block device:0x4003de5f1e00 size:1024 thread:1
allocated block device:0x4003de5f2200 size:1024 thread:1
allocated block device:0x4003de5f2600 size:1536 thread:1
allocated block device:0x4003de5f2c00 size:1024 thread:1
allocated block device:0x4003de5f3000 size:1024 thread:1
allocated block device:0x4003de5f3400 size:17408 thread:1
allocated block device:0x4003de5f7800 size:17408 thread:1
allocated block device:0x4003de5fbc00 size:2048 thread:1
allocated block device:0x4003de5fc400 size:512 thread:1
allocated block device:0x4003de5fc600 size:4608 thread:1
allocated block device:0x4003de5fd800 size:512 thread:1
allocated block device:0x4003de5fda00 size:4608 thread:1
allocated block device:0x4003de5fec00 size:3072 thread:1
allocated block device:0x4003de5ff800 size:512 thread:1
allocated block device:0x4003de5ffa00 size:512 thread:1
allocated block device:0x4003de5ffc00 size:512 thread:1
allocated block device:0x4003de5ffe00 size:512 thread:1
allocated block device:0x400420000000 size:298674176 thread:1
allocated block device:0x40051011a000 size:83968 thread:1
allocated block device:0x40051012e800 size:180224 thread:1
allocated block device:0x40051015a800 size:180224 thread:1
allocated block device:0x400510186800 size:180224 thread:1
allocated block device:0x4005101b2800 size:98304 thread:1
allocated block device:0x4005101ca800 size:98304 thread:1
allocated block device:0x40057c3ff800 size:1536 thread:1
allocated block device:0x40059c3ffa00 size:1024 thread:1
allocated block device:0x4005bc1fbc00 size:2048 thread:1
allocated block device:0x4005bc1fc600 size:2560 thread:1
allocated block device:0x4005bc1fd000 size:512 thread:1
allocated block device:0x4005bc1fd200 size:4608 thread:1
allocated block device:0x4005bc1fe400 size:512 thread:1
allocated block device:0x4005bc1fe600 size:4608 thread:1
allocated block device:0x4005bc1ff800 size:512 thread:1
allocated block device:0x4005bc1ffa00 size:512 thread:1
allocated block device:0x4005bc1ffc00 size:512 thread:1
allocated block device:0x4005bc1ffe00 size:512 thread:1
allocated block device:0x4005dc3f4000 size:41984 thread:1
allocated block device:0x4005dc3fe400 size:5120 thread:1
allocated block device:0x4005dc3ff800 size:512 thread:1
allocated block device:0x4005dc3ffa00 size:512 thread:1
allocated block device:0x4005dc3ffc00 size:512 thread:1
allocated block device:0x4005dc3ffe00 size:512 thread:1
allocated block device:0x400620000000 size:298674176 thread:1
allocated block device:0x400631e00000 size:4030464 thread:1
allocated block device:0x400632200000 size:1821184 thread:1
allocated block device:0x4006323bca00 size:180224 thread:1
allocated block device:0x4006323e8a00 size:26112 thread:1
allocated block device:0x4006323ef000 size:512 thread:1
allocated block device:0x4006323ef200 size:4608 thread:1
allocated block device:0x4006323f0400 size:4608 thread:1
allocated block device:0x4006323f1600 size:4608 thread:1
allocated block device:0x4006323f2800 size:512 thread:1
allocated block device:0x4006323f2a00 size:24064 thread:1
allocated block device:0x4006323f8800 size:512 thread:1
allocated block device:0x4006323f8a00 size:512 thread:1
allocated block device:0x4006323f8c00 size:24064 thread:1
allocated block device:0x4006323fea00 size:512 thread:1
allocated block device:0x4006323fec00 size:512 thread:1
allocated block device:0x4006323fee00 size:3072 thread:1
allocated block device:0x4006323ffa00 size:512 thread:1
allocated block device:0x4006323ffc00 size:1024 thread:1
allocated block device:0x400632400000 size:1821184 thread:1
allocated block device:0x4006325bca00 size:180224 thread:1
allocated block device:0x4006325e8a00 size:3072 thread:1
allocated block device:0x4006325e9600 size:5120 thread:1
allocated block device:0x4006325eaa00 size:1536 thread:1
allocated block device:0x4006325eb000 size:2560 thread:1
allocated block device:0x4006325eba00 size:1536 thread:1
allocated block device:0x4006325ec000 size:2048 thread:1
allocated block device:0x4006325ec800 size:7680 thread:1
allocated block device:0x4006325ee600 size:7680 thread:1
allocated block device:0x4006325f0400 size:3072 thread:1
allocated block device:0x4006325f1000 size:3072 thread:1
allocated block device:0x4006325f1c00 size:5120 thread:1
allocated block device:0x4006325f3000 size:5120 thread:1
allocated block device:0x4006325f4400 size:1024 thread:1
allocated block device:0x4006325f4800 size:1024 thread:1
allocated block device:0x4006325f4c00 size:1024 thread:1
allocated block device:0x4006325f5000 size:1024 thread:1
allocated block device:0x4006325f5400 size:1024 thread:1
allocated block device:0x4006325f5800 size:1024 thread:1
allocated block device:0x4006325f5c00 size:1024 thread:1
allocated block device:0x4006325f6000 size:5120 thread:1
allocated block device:0x4006325f7400 size:1536 thread:1
allocated block device:0x4006325f7a00 size:1024 thread:1
allocated block device:0x4006325f7e00 size:1024 thread:1
allocated block device:0x4006325f8200 size:1536 thread:1
allocated block device:0x4006325f8800 size:1024 thread:1
allocated block device:0x4006325f8c00 size:1024 thread:1
allocated block device:0x4006325f9000 size:1024 thread:1
allocated block device:0x4006325f9400 size:3072 thread:1
allocated block device:0x4006325fa000 size:3072 thread:1
allocated block device:0x4006325fac00 size:1536 thread:1
allocated block device:0x4006325fb200 size:1536 thread:1
allocated block device:0x4006325fb800 size:1024 thread:1
allocated block device:0x4006325fbc00 size:1024 thread:1
allocated block device:0x4006325fc000 size:1024 thread:1
allocated block device:0x4006325fc400 size:1024 thread:1
allocated block device:0x4006325fc800 size:1024 thread:1
allocated block device:0x4006325fcc00 size:1024 thread:1
allocated block device:0x4006325fd000 size:1024 thread:1
allocated block device:0x4006325fd400 size:1024 thread:1
allocated block device:0x4006325fd800 size:1536 thread:1
allocated block device:0x4006325fde00 size:1024 thread:1
allocated block device:0x4006325fe200 size:512 thread:1
allocated block device:0x4006325fe400 size:2560 thread:1
allocated block device:0x4006325fee00 size:3072 thread:1
allocated block device:0x400632600000 size:1821184 thread:1
allocated block device:0x4006327bca00 size:180224 thread:1
allocated block device:0x4006327e8a00 size:28672 thread:1
allocated block device:0x4006327efa00 size:40448 thread:1
allocated block device:0x4006327f9c00 size:2560 thread:1
allocated block device:0x4006327fa600 size:3072 thread:1
allocated block device:0x4006327fb200 size:3072 thread:1
allocated block device:0x400632800000 size:1821184 thread:1
allocated block device:0x4006329bca00 size:180224 thread:1
allocated block device:0x4006329e8a00 size:40448 thread:1
allocated block device:0x4006329fcc00 size:2048 thread:1
allocated block device:0x400632a00000 size:7284736 thread:1
allocated block device:0x400633200000 size:7284736 thread:1
allocated block device:0x400633a00000 size:45593600 thread:1
allocated block device:0x400640000000 size:807412224 thread:1
allocated block device:0x400670400000 size:230400000 thread:1
allocated block device:0x400680000000 size:230400000 thread:1
allocated block device:0x40068dc00000 size:230400000 thread:1
allocated block device:0x4006c0000000 size:230400000 thread:1
allocated block device:0x4006d4c00000 size:391680 thread:1
allocated block device:0x4006d4c5fa00 size:921600 thread:1
allocated block device:0x4006d4d40a00 size:393216 thread:1
allocated block device:0x4006d4e00000 size:2799616 thread:1
allocated block device:0x4006d5200000 size:4030464 thread:1
allocated block device:0x4006d5600000 size:7284736 thread:1
allocated block device:0x400a80000000 size:230400000 thread:1
allocated block device:0x400aa30c0000 size:393216 thread:1
allocated block device:0x400aafa00000 size:7284736 thread:1
allocated block device:0x400ab2000000 size:1807360 thread:1
allocated block device:0x400ab21b9400 size:272384 thread:1
allocated block device:0x400ab21fbc00 size:8192 thread:1
allocated block device:0x400ab21fdc00 size:8192 thread:1
allocated block device:0x400ab21ffc00 size:512 thread:1
allocated block device:0x400ab2200000 size:1807360 thread:1
allocated block device:0x400ab23b9400 size:272384 thread:1
allocated block device:0x400ab23fbc00 size:8192 thread:1
allocated block device:0x400ab2400000 size:1807360 thread:1
allocated block device:0x400ab25b9400 size:98304 thread:1
allocated block device:0x400ab25d1400 size:98304 thread:1
allocated block device:0x400ab2600000 size:2799616 thread:1
allocated block device:0x400ab2a00000 size:14458880 thread:1
allocated block device:0x400b20000000 size:298674176 thread:1
allocated block device:0x400b31e00000 size:7284736 thread:1
allocated block device:0x400c11e00000 size:230400000 thread:1
allocated block device:0x400c31e00000 size:230400000 thread:1
allocated block device:0x400c51e00000 size:230400000 thread:1
allocated block device:0x400c71e00000 size:29138944 thread:1
allocated block device:0x400c73a00000 size:29138944 thread:1
allocated block device:0x400c75600000 size:3145728 thread:1
allocated block device:0x400c75a00000 size:7284736 thread:1
allocated block device:0x400c76200000 size:7284736 thread:1
allocated block device:0x400c76a00000 size:14569472 thread:1
Accelerator Fatal Error: call to cuMemAlloc returned error 2 (CUDA_ERROR_OUT_OF_MEMORY): Out of memory
 File: /lus/lfs1aip2/projects/u6cb/software/VASP/vasp.6.5.1/build/gam/hamil.f90
 Function: hamiltmu:978
 Line: 1005

Out of memory allocating 230400000 bytes of device memory
Failing in Thread:1
total/free CUDA memory: 102005473280/84410368
Present table dump for device[1]: NVIDIA Tesla GPU 0, compute capability 9.0, threadid=1
Hint: specify 0x800 bit in NV_ACC_DEBUG for verbose info.
host:0x2557280 device:0x4006de5fc000 size:32 presentcount:0+3 line:643 name:var%comm
host:0x25572a0 device:0x4008bc1ffa00 size:32 presentcount:0+4 line:652 name:var%comm_kinter
host:0x25572c0 device:0x4008bc1ffc00 size:32 presentcount:0+6 line:655 name:var%comm_kin
host:0x25572e0 device:0x4008bc1ff400 size:32 presentcount:0+3 line:646 name:var%comm_inter
host:0x2557300 device:0x4008bc1ff600 size:32 presentcount:0+7 line:649 name:var%comm_inb
host:0x256be80 device:0x4006da0ecd00 size:8 presentcount:0+1 line:-1 name:_setexm_struct_def_21
host:0x2576f40 device:0x4006da0ece00 size:28 presentcount:0+1 line:-1 name:_ml_ff_constant_21
host:0x2577c80 device:0x4006da0ecf00 size:30437 presentcount:0+1 line:-1 name:_ml_ff_taglist_21
host:0x25afc80 device:0x4006da0f4600 size:8 presentcount:0+1 line:-1 name:_mopenacc_tutor_21
host:0x25c2740 device:0x4006da0f4a00 size:32 presentcount:0+1 line:-1 name:_mbj_21
host:0x25cd640 device:0x4006da0f4d00 size:8 presentcount:0+1 line:-1 name:_sym_prec_21
host:0x26030c0 device:0x4006da0f4e00 size:344 presentcount:0+1 line:-1 name:_tet_21
host:0x261c840 device:0x4006da0f5000 size:392 presentcount:0+1 line:-1 name:_mymath_21
host:0x2817368 device:0x4006de5eec00 size:4800 presentcount:0+2 line:614 name:var
host:0x2818628 device:0x4006de5fa400 size:1984 presentcount:0+2 line:403 name:var
host:0x281a910 device:0x40087c3ff800 size:864 presentcount:0+4 line:2639 name:hamiltonian
host:0x286ac80 device:0x4006de5fd400 size:2712 presentcount:0+2 line:428 name:var
host:0x286b718 device:0x4008bc1fae00 size:2248 presentcount:0+1 line:742 name:var
host:0x286eb50 device:0x4009327ff800 size:288 presentcount:0+1 line:195 name:latt_cur
host:0x2871658 device:0x4008dc3fe400 size:5088 presentcount:0+28 line:517 name:var
host:0x2872a38 device:0x4009325f4800 size:5088 presentcount:0+6 line:517 name:var
host:0x2873e18 device:0x4009325e8a00 size:5088 presentcount:0+7 line:517 name:var
host:0x287a2a8 device:0x4008bc1fe000 size:304 presentcount:0+1 line:567 name:var
host:0x287a3d8 device:0x4009325fca00 size:304 presentcount:0+1 line:567 name:var
host:0x2e48ec0 device:0x4006da002600 size:960024 presentcount:0+1 line:-1 name:_setexm_struct_def_16
host:0x2f8f080 device:0x4006da0f4700 size:580 presentcount:0+1 line:-1 name:_wpbe_16
host:0x2f8f900 device:0x4006da0f4b00 size:288 presentcount:0+1 line:-1 name:_mbj_16
host:0x9f446c0 device:0x4006da0f5200 size:624 presentcount:0+1 line:-1 name:_mlr_optic_16
host:0x3b4ecc20 device:0x4009325f7800 size:528 presentcount:0+1 line:480 name:var
host:0x3f73d830 device:0x4008bc1ff800 size:8 presentcount:0+4 line:405 name:var%nityp(:)
host:0x3fc3c040 device:0x4006de5f0a00 size:1000 presentcount:0+4 line:519 name:var%lpctz(:)
host:0x400b22b0 device:0x4006de5fe800 size:8 presentcount:0+2 line:616 name:var%wtkpt(:)
host:0x400bf140 device:0x4009327e8a00 size:28464 presentcount:0+1 line:853 name:var(:)
host:0x400d18c0 device:0x4009329e8a00 size:40000 presentcount:0+1 line:857 name:var%psp(:,:)
host:0x400db530 device:0x4009327fd800 size:8000 presentcount:0+1 line:857 name:var%psprho(:)
host:0x400de7c0 device:0x4009323f7400 size:24000 presentcount:0+2 line:466 name:var%psprnl(:,:,:)
host:0x4010e1a0 device:0x4009323ef000 size:4320 presentcount:0+4 line:405 name:var%ityp(:)
host:0x4010f2b0 device:0x4009323e8a00 size:25920 presentcount:0+4 line:405 name:var%posion(:,:)
host:0x40152610 device:0x4009327efa00 size:40000 presentcount:0+1 line:857 name:var%psp(:,:)
host:0x4015c280 device:0x4009327f9800 size:8000 presentcount:0+1 line:857 name:var%pspcor(:)
host:0x4015e1f0 device:0x4009327fb800 size:8000 presentcount:0+1 line:857 name:var%psprho(:)
host:0x40161480 device:0x4009323f1400 size:24000 presentcount:0+2 line:466 name:var%psprnl(:,:,:)
host:0x401ae440 device:0x4008dc3ffc00 size:24 presentcount:0+3 line:466 name:var%lps(:)
host:0x401ae4f0 device:0x4008bc1fb800 size:24 presentcount:0+3 line:466 name:var%lps(:)
host:0x401fb270 device:0x4006de5fe600 size:24 presentcount:0+3 line:616 name:var%vkpt(:,:)
host:0x40220390 device:0x4006de5fe200 size:8 presentcount:0+3 line:616 name:var%nityp(:)
host:0x40220550 device:0x4006de5eea00 size:16 presentcount:0+2 line:430 name:var%psrmax(:)
host:0x40220b10 device:0x4006de5fea00 size:4320 presentcount:0+3 line:616 name:var%ityp(:)
host:0x40221c20 device:0x4006de5fe000 size:8 presentcount:0+3 line:616 name:var%lmmax(:)
host:0x40221c50 device:0x4006de5fe400 size:8 presentcount:0+3 line:616 name:var%nt_global(:)
host:0x40221c80 device:0x4006de5fc200 size:4320 presentcount:0+3 line:616 name:var%npro_pos(:)
host:0x40222d90 device:0x4006de5fae00 size:4324 presentcount:0+3 line:616 name:var%lmbase(:)
host:0x40223ea0 device:0x4006de5ffe00 size:4 presentcount:0+2 line:616 name:var%nplwkp(:)
host:0x40223ed0 device:0x4009323f7200 size:4 presentcount:0+2 line:616 name:var%nplwkp_tot(:)
host:0x40223f00 device:0x4009323fd200 size:4 presentcount:0+2 line:616 name:var%ngvector_pos(:)
host:0x40223f30 device:0x4006de5ffc00 size:4 presentcount:0+2 line:616 name:var%ngvector(:)
host:0x40223f60 device:0x4006de5f0000 size:1280 presentcount:0+4 line:519 name:var%lpctx(:)
host:0x40224490 device:0x4006de5f0600 size:720 presentcount:0+4 line:519 name:var%lpcty(:)
host:0x40224790 device:0x4006de5f0e00 size:1280 presentcount:0+4 line:519 name:var%lpctx_(:)
host:0x40224cc0 device:0x4006de5f1400 size:720 presentcount:0+4 line:519 name:var%lpcty_(:)
host:0x40224fc0 device:0x4006de5f1800 size:1000 presentcount:0+4 line:519 name:var%lpctz_(:)
host:0x402253d0 device:0x4009325f5c00 size:1280 presentcount:0+1 line:519 name:var%lpctx(:)
host:0x40225900 device:0x4009325f6200 size:720 presentcount:0+1 line:519 name:var%lpcty(:)
host:0x40225c00 device:0x4009325f6600 size:1000 presentcount:0+1 line:519 name:var%lpctz(:)
host:0x40226010 device:0x4009325f6a00 size:1280 presentcount:0+1 line:519 name:var%lpctx_(:)
host:0x40226540 device:0x4009325f7000 size:720 presentcount:0+1 line:519 name:var%lpcty_(:)
host:0x40226840 device:0x4009325f7400 size:1000 presentcount:0+1 line:519 name:var%lpctz_(:)
host:0x40226c50 device:0x4009323fd600 size:2560 presentcount:0+1 line:519 name:var%lpctx(:)
host:0x40227680 device:0x4009323ff000 size:1440 presentcount:0+1 line:519 name:var%lpcty(:)
host:0x40227c50 device:0x4009323fe200 size:2000 presentcount:0+1 line:519 name:var%lpctz(:)
host:0x40228450 device:0x4009323ff600 size:2560 presentcount:0+1 line:519 name:var%lpctx_(:)
host:0x40228e80 device:0x4009325e9e00 size:1440 presentcount:0+1 line:519 name:var%lpcty_(:)
host:0x40229450 device:0x4009325ea400 size:2000 presentcount:0+1 line:519 name:var%lpctz_(:)
host:0x40315530 device:0x4009325ee800 size:2824 presentcount:0+1 line:482 name:var%i2(:)
host:0x40316060 device:0x4009325ef400 size:2824 presentcount:0+1 line:482 name:var%i3(:)
host:0x40316b90 device:0x4009325f0000 size:5020 presentcount:0+1 line:482 name:var%i2(:)
host:0x40317f60 device:0x4009325f1400 size:5020 presentcount:0+1 line:482 name:var%i3(:)
host:0x40319330 device:0x4009325eac00 size:7200 presentcount:0+2 line:482 name:var%i2(:)
host:0x4031af80 device:0x4009325eca00 size:7200 presentcount:0+2 line:482 name:var%i3(:)
host:0x4031cff0 device:0x4009f4c5fa00 size:921600 presentcount:0+2 line:482 name:var%index(:,:)
host:0x403fe020 device:0x4009325fcc00 size:2560 presentcount:0+1 line:569 name:var%ind1(:)
host:0x403fea50 device:0x4009325fd600 size:2824 presentcount:0+1 line:569 name:var%indcol(:)
host:0x403ff580 device:0x4009325f7c00 size:2824 presentcount:0+1 line:482 name:var%i2(:)
host:0x404000b0 device:0x4009325f8800 size:2824 presentcount:0+1 line:482 name:var%i3(:)
host:0x40400be0 device:0x4009325f9400 size:1512 presentcount:0+1 line:482 name:var%i2(:)
host:0x404011f0 device:0x4009325f9a00 size:1512 presentcount:0+1 line:482 name:var%i3(:)
host:0x40401800 device:0x4008bc1fba00 size:4320 presentcount:0+2 line:430 name:var%nlimax(:)
host:0x40402910 device:0x4008bc1fce00 size:4324 presentcount:0+2 line:430 name:var%lmbase(:)
host:0x40403a20 device:0x4008bc1fe200 size:4324 presentcount:0+2 line:430 name:var%nlibase(:)
host:0x40404b30 device:0x4006de5f1c00 size:17132 presentcount:0+4 line:519 name:var%nindpwconjg(:)
host:0x40408e50 device:0x4006de5f6000 size:17132 presentcount:0+4 line:519 name:var%ind_in_sphere(:)
host:0x4040e0a0 device:0x4009325fa400 size:516 presentcount:0+1 line:499 name:var%ptr(:)
host:0x4040e2d0 device:0x4009325fa000 size:516 presentcount:0+1 line:499 name:var%n(:)
host:0x4040e500 device:0x400dd21b9400 size:181440 presentcount:0+1 line:499 name:var%tbli(:)
host:0x4043a9f0 device:0x4009325fac00 size:516 presentcount:0+1 line:499 name:var%ptri(:)
host:0x4043ac20 device:0x4008bc1fcc00 size:4 presentcount:0+1 line:499 name:var%tbli(:)
host:0x4043ad70 device:0x4009325fc000 size:1280 presentcount:0+1 line:569 name:var%ind1(:)
host:0x4043b2a0 device:0x4009325fc600 size:688 presentcount:0+1 line:569 name:var%indcol(:)
host:0x4043b580 device:0x40080e12e800 size:180000 presentcount:0+4 line:482 name:var%i2(:)
host:0x404674d0 device:0x40080e15a800 size:180000 presentcount:0+4 line:482 name:var%i3(:)
host:0x40493420 device:0x4009323bca00 size:180000 presentcount:0+8 line:482 name:var%index(:,:)
host:0x404bf370 device:0x4009329bca00 size:180000 presentcount:0+8 line:482 name:var%i2(:)
host:0x404eb2c0 device:0x40080e186800 size:180000 presentcount:0+8 line:482 name:var%i3(:)
host:0x40517840 device:0x400932400000 size:1821184 presentcount:0+3 line:616 name:var%nindpw(:,:)
host:0x406d4270 device:0x4006de5fac00 size:8 presentcount:0+2 line:616 name:var%nb_totk(:,:)
host:0x406d42a0 device:0x4009323fd400 size:4 presentcount:0+2 line:616 name:var%luseinv(:)
host:0x406d42d0 device:0x4006de5ee600 size:4 presentcount:0+2 line:616 name:var%at_gamma(:)
host:0x406d4300 device:0x4009325bca00 size:180000 presentcount:0+3 line:616 name:var%pl_index(:,:)
host:0x40700250 device:0x4009327bca00 size:180000 presentcount:0+3 line:616 name:var%pl_col(:,:)
host:0x4072c1a0 device:0x4009323fee00 size:8 presentcount:0+2 line:405 name:var%lmmax(:)
host:0x4072c1d0 device:0x4008bc1ffe00 size:8 presentcount:0+2 line:430 name:var%lmax(:)
host:0x4072c200 device:0x4009323f0200 size:4324 presentcount:0+2 line:405 name:var%lmbase(:)
host:0x4072d310 device:0x4006de5ee400 size:8 presentcount:0+2 line:430 name:var%lmmax(:)
host:0x4072d340 device:0x4006de5ee800 size:8 presentcount:0+2 line:430 name:var%channels(:)
host:0x4072d370 device:0x4008dc3ff800 size:16 presentcount:0+2 line:430 name:var%rsmooth(:)
host:0x4072d3b0 device:0x4008dc3ffa00 size:400 presentcount:0+2 line:464 name:var
host:0x4072d540 device:0x4008dc3ffe00 size:400 presentcount:0+2 line:464 name:var
host:0x4079df60 device:0x4009f4c00000 size:220160 presentcount:0+1 line:499 name:var%tbl(:)
host:0x408097c0 device:0x4009325fa800 size:516 presentcount:0+1 line:499 name:var%ni(:)
host:0x408099f0 device:0x400dd23b9400 size:181440 presentcount:0+1 line:499 name:var%tbl(:)
host:0x40835ee0 device:0x4009325fb400 size:516 presentcount:0+1 line:499 name:var%ptr(:)
host:0x40836110 device:0x4009325fb000 size:516 presentcount:0+1 line:499 name:var%n(:)
host:0x4083ceb0 device:0x4009325f2c00 size:516 presentcount:0+1 line:499 name:var%ptr(:)
host:0x4083d0e0 device:0x4009325f2800 size:516 presentcount:0+1 line:499 name:var%n(:)
host:0x4083d310 device:0x4009325f3400 size:516 presentcount:0+1 line:499 name:var%ptri(:)
host:0x4083d540 device:0x4009325f3000 size:516 presentcount:0+1 line:499 name:var%ni(:)
host:0x4083d770 device:0x4009325f3c00 size:516 presentcount:0+1 line:499 name:var%ptr(:)
host:0x4083d9a0 device:0x4009325f3800 size:516 presentcount:0+1 line:499 name:var%n(:)
host:0x4083dbd0 device:0x4009325f4400 size:516 presentcount:0+1 line:499 name:var%ptri(:)
host:0x4083de00 device:0x4009325f4000 size:516 presentcount:0+1 line:499 name:var%ni(:)
host:0x40862830 device:0x4009325fbc00 size:516 presentcount:0+1 line:499 name:var%ptri(:)
host:0x40862a60 device:0x4009325fb800 size:516 presentcount:0+1 line:499 name:var%ni(:)
host:0x409a9ae0 device:0x4009f5600000 size:7284736 presentcount:0+3 line:616 name:var%datake(:,:,:)
host:0x4109cd60 device:0x400932600000 size:1821184 presentcount:0+3 line:616 name:var%igx(:,:)
host:0x4125a3f0 device:0x400932200000 size:1821184 presentcount:0+3 line:616 name:var%igy(:,:)
host:0x41417c90 device:0x400932800000 size:1821184 presentcount:0+3 line:616 name:var%igz(:,:)
host:0x415d5b60 device:0x400933200000 size:7284272 presentcount:0+4 line:519 name:var%fftsca(:,:)
host:0x41d70340 device:0x4009f4e00000 size:1807360 presentcount:0+1 line:499 name:var%tbl(:)
host:0x420e5f30 device:0x400dd2000000 size:1807200 presentcount:0+1 line:499 name:var%tbli(:)
host:0x422a0fa0 device:0x400dd2200000 size:1807200 presentcount:0+1 line:499 name:var%tbl(:)
host:0x426176b0 device:0x400dd2400000 size:1807200 presentcount:0+1 line:499 name:var%tbli(:)
host:0x43372420 device:0x4008dc3f4000 size:41984 presentcount:0+1 line:746 name:var%auxtot(:,:,:)
host:0x433b2420 device:0x4006de5e4000 size:41984 presentcount:0+2 line:746 name:var%fertot(:,:,:)
host:0x433c0030 device:0x40080e11a000 size:83968 presentcount:0+2 line:746 name:var%celtot(:,:,:)
host:0x442cdc20 device:0x400932a00000 size:7200000 presentcount:0+1 line:195 name:dencor(:)
host:0x45097f10 device:0x400931e00000 size:2799360 presentcount:0+2 line:194 name:cdij(:,:,:,:)
host:0x45347630 device:0x400dd2600000 size:2799360 presentcount:0+2 line:194 name:cqij(:,:,:,:)
host:0x458a72e0 device:0x4009f5200000 size:4030464 presentcount:0+5 line:746 name:var%gproj(:,:,:,:)
host:0x45f34840 device:0x40080e1ca800 size:98304 presentcount:0+1 line:1101 name:w1%gproj(:)
host:0x4ce03050 device:0x4009f4d40a00 size:393216 presentcount:0+2 line:1226 name:wa%gproj(:,:)
host:0x4ce63080 device:0x400dc38c0000 size:393216 presentcount:0+2 line:1226 name:wa%gproj(:,:)
host:0x4ceca010 device:0x400f55600000 size:3145728 presentcount:0+2 line:1226 name:wa%gproj(:,:)
host:0x510e4440 device:0x400dd21f5600 size:2048 presentcount:0+1 line:179 name:wtmp(:)
host:0x51110510 device:0x4009329fe200 size:2048 presentcount:0+1 line:179 name:w1(:)
host:0x51118580 device:0x400e31e00000 size:7284736 presentcount:0+1 line:1101 name:w1%cptwfp(:)
host:0x5180adb0 device:0x40080e1b2800 size:98304 presentcount:0+1 line:1101 name:w1%gproj(:)
host:0x51822de0 device:0x400dd23e5a00 size:98304 presentcount:0+1 line:1101 name:w1%gproj(:)
host:0x5183ae10 device:0x40080e1e2800 size:98304 presentcount:0+1 line:1101 name:w1%gproj(:)
host:0x51a5e1b0 device:0x400f56a00000 size:14569472 presentcount:0+1 line:202 name:precon(:,:)
host:0x5284a980 device:0x400dcfa00000 size:7284736 presentcount:0+1 line:1101 name:w1%cptwfp(:)
host:0x52f44f80 device:0x400f55a00000 size:7284736 presentcount:0+1 line:1101 name:w1%cptwfp(:)
host:0x5363fbb0 device:0x400f56200000 size:7284736 presentcount:0+1 line:1101 name:w1%cptwfp(:)
host:0x4006bee539e0 device:0x400dd2a00000 size:14458880 presentcount:0+1 line:195 name:cstrf(:,:)
host:0x4007140010a0 device:0x400933a00000 size:45593280 presentcount:0+2 line:430 name:var%nli(:,:)
host:0x400778406950 device:0x400f51e00000 size:29138944 presentcount:0+2 line:1226 name:wa%cptwfp(:,:)
host:0x40077d086b60 device:0x400f53a00000 size:29138944 presentcount:0+2 line:1226 name:wa%cptwfp(:,:)
host:0x4008200012b0 device:0x400940000000 size:807411968 presentcount:0+2 line:430 name:var%rproj(:)
host:0x4008502131a0 device:0x4009adc00000 size:230400000 presentcount:0+2 line:194 name:sv(:,:)
host:0x400900004a60 device:0x400920000000 size:298674176 presentcount:0+5 line:746 name:var%cptwfp(:,:,:,:)
host:0x400911ce6d70 device:0x400e20000000 size:233111552 presentcount:0+2 line:1226 name:wa%cptwfp(:,:)
host:0x400991ce73a0 device:0x400720000000 size:230400000 presentcount:0+1 line:1101 name:w1%cr(:)
host:0x4009c6e975b0 device:0x400970400000 size:230400000 presentcount:0+1 line:1236 name:w1%cr(:)
host:0x400a600079d0 device:0x4009e0000000 size:230400000 presentcount:0+1 line:1101 name:w1%cr(:)
host:0x400a6dbd7be0 device:0x4009a0000000 size:230400000 presentcount:0+1 line:1236 name:w1%cr(:)
host:0x400c80008000 device:0x400da0000000 size:230400000 presentcount:0+1 line:1101 name:w1%cr(:)
host:0x400c8dbd8210 device:0x400f31e00000 size:230400000 presentcount:0+1 line:1236 name:w1%cr(:)
host:0x400d80000020 device:0x400f11e00000 size:230400000 presentcount:0+1 line:1101 name:w1%cr(:)
host:0x400d8dbc0230 device:0x400ef1e00000 size:230400000 presentcount:0+1 line:1236 name:w1%cr(:)
host:0x400f60005ae0 device:0x400fa0000000 size:921600000 presentcount:0+1 line:1005 name:cwork1(:,:)
host:0xffffd09ab470 device:0x400dd21f6200 size:3024 presentcount:0+12 line:682 name:var
host:0xffffd09ac040 device:0x40089c3ff600 size:1480 presentcount:0+1 line:174 name:w_ini
host:0xffffd09ac610 device:0x4009325ff600 size:1480 presentcount:0+1 line:174 name:wopt
host:0xffffd09acbe0 device:0x4008bc1fa400 size:1480 presentcount:0+1 line:174 name:wtmpa
allocated block device:0x4006de5e4000 size:41984 thread:1
allocated block device:0x4006de5ee400 size:512 thread:1
allocated block device:0x4006de5ee600 size:512 thread:1
allocated block device:0x4006de5ee800 size:512 thread:1
allocated block device:0x4006de5eea00 size:512 thread:1
allocated block device:0x4006de5eec00 size:5120 thread:1
allocated block device:0x4006de5f0000 size:1536 thread:1
allocated block device:0x4006de5f0600 size:1024 thread:1
allocated block device:0x4006de5f0a00 size:1024 thread:1
allocated block device:0x4006de5f0e00 size:1536 thread:1
allocated block device:0x4006de5f1400 size:1024 thread:1
allocated block device:0x4006de5f1800 size:1024 thread:1
allocated block device:0x4006de5f1c00 size:17408 thread:1
allocated block device:0x4006de5f6000 size:17408 thread:1
allocated block device:0x4006de5fa400 size:2048 thread:1
allocated block device:0x4006de5fac00 size:512 thread:1
allocated block device:0x4006de5fae00 size:4608 thread:1
allocated block device:0x4006de5fc000 size:512 thread:1
allocated block device:0x4006de5fc200 size:4608 thread:1
allocated block device:0x4006de5fd400 size:3072 thread:1
allocated block device:0x4006de5fe000 size:512 thread:1
allocated block device:0x4006de5fe200 size:512 thread:1
allocated block device:0x4006de5fe400 size:512 thread:1
allocated block device:0x4006de5fe600 size:512 thread:1
allocated block device:0x4006de5fe800 size:512 thread:1
allocated block device:0x4006de5fea00 size:4608 thread:1
allocated block device:0x4006de5ffc00 size:512 thread:1
allocated block device:0x4006de5ffe00 size:512 thread:1
allocated block device:0x400720000000 size:230400000 thread:1
allocated block device:0x40080e11a000 size:83968 thread:1
allocated block device:0x40080e12e800 size:180224 thread:1
allocated block device:0x40080e15a800 size:180224 thread:1
allocated block device:0x40080e186800 size:180224 thread:1
allocated block device:0x40080e1b2800 size:98304 thread:1
allocated block device:0x40080e1ca800 size:98304 thread:1
allocated block device:0x40080e1e2800 size:98304 thread:1
allocated block device:0x40087c3ff800 size:1024 thread:1
allocated block device:0x40089c3ff600 size:1536 thread:1
allocated block device:0x4008bc1fa400 size:2048 thread:1
allocated block device:0x4008bc1fae00 size:2560 thread:1
allocated block device:0x4008bc1fb800 size:512 thread:1
allocated block device:0x4008bc1fba00 size:4608 thread:1
allocated block device:0x4008bc1fcc00 size:512 thread:1
allocated block device:0x4008bc1fce00 size:4608 thread:1
allocated block device:0x4008bc1fe000 size:512 thread:1
allocated block device:0x4008bc1fe200 size:4608 thread:1
allocated block device:0x4008bc1ff400 size:512 thread:1
allocated block device:0x4008bc1ff600 size:512 thread:1
allocated block device:0x4008bc1ff800 size:512 thread:1
allocated block device:0x4008bc1ffa00 size:512 thread:1
allocated block device:0x4008bc1ffc00 size:512 thread:1
allocated block device:0x4008bc1ffe00 size:512 thread:1
allocated block device:0x4008dc3f4000 size:41984 thread:1
allocated block device:0x4008dc3fe400 size:5120 thread:1
allocated block device:0x4008dc3ff800 size:512 thread:1
allocated block device:0x4008dc3ffa00 size:512 thread:1
allocated block device:0x4008dc3ffc00 size:512 thread:1
allocated block device:0x4008dc3ffe00 size:512 thread:1
allocated block device:0x400920000000 size:298674176 thread:1
allocated block device:0x400931e00000 size:4030464 thread:1
allocated block device:0x400932200000 size:1821184 thread:1
allocated block device:0x4009323bca00 size:180224 thread:1
allocated block device:0x4009323e8a00 size:26112 thread:1
allocated block device:0x4009323ef000 size:4608 thread:1
allocated block device:0x4009323f0200 size:4608 thread:1
allocated block device:0x4009323f1400 size:24064 thread:1
allocated block device:0x4009323f7200 size:512 thread:1
allocated block device:0x4009323f7400 size:24064 thread:1
allocated block device:0x4009323fd200 size:512 thread:1
allocated block device:0x4009323fd400 size:512 thread:1
allocated block device:0x4009323fd600 size:3072 thread:1
allocated block device:0x4009323fe200 size:3072 thread:1
allocated block device:0x4009323fee00 size:512 thread:1
allocated block device:0x4009323ff000 size:1536 thread:1
allocated block device:0x4009323ff600 size:2560 thread:1
allocated block device:0x400932400000 size:1821184 thread:1
allocated block device:0x4009325bca00 size:180224 thread:1
allocated block device:0x4009325e8a00 size:5120 thread:1
allocated block device:0x4009325e9e00 size:1536 thread:1
allocated block device:0x4009325ea400 size:2048 thread:1
allocated block device:0x4009325eac00 size:7680 thread:1
allocated block device:0x4009325eca00 size:7680 thread:1
allocated block device:0x4009325ee800 size:3072 thread:1
allocated block device:0x4009325ef400 size:3072 thread:1
allocated block device:0x4009325f0000 size:5120 thread:1
allocated block device:0x4009325f1400 size:5120 thread:1
allocated block device:0x4009325f2800 size:1024 thread:1
allocated block device:0x4009325f2c00 size:1024 thread:1
allocated block device:0x4009325f3000 size:1024 thread:1
allocated block device:0x4009325f3400 size:1024 thread:1
allocated block device:0x4009325f3800 size:1024 thread:1
allocated block device:0x4009325f3c00 size:1024 thread:1
allocated block device:0x4009325f4000 size:1024 thread:1
allocated block device:0x4009325f4400 size:1024 thread:1
allocated block device:0x4009325f4800 size:5120 thread:1
allocated block device:0x4009325f5c00 size:1536 thread:1
allocated block device:0x4009325f6200 size:1024 thread:1
allocated block device:0x4009325f6600 size:1024 thread:1
allocated block device:0x4009325f6a00 size:1536 thread:1
allocated block device:0x4009325f7000 size:1024 thread:1
allocated block device:0x4009325f7400 size:1024 thread:1
allocated block device:0x4009325f7800 size:1024 thread:1
allocated block device:0x4009325f7c00 size:3072 thread:1
allocated block device:0x4009325f8800 size:3072 thread:1
allocated block device:0x4009325f9400 size:1536 thread:1
allocated block device:0x4009325f9a00 size:1536 thread:1
allocated block device:0x4009325fa000 size:1024 thread:1
allocated block device:0x4009325fa400 size:1024 thread:1
allocated block device:0x4009325fa800 size:1024 thread:1
allocated block device:0x4009325fac00 size:1024 thread:1
allocated block device:0x4009325fb000 size:1024 thread:1
allocated block device:0x4009325fb400 size:1024 thread:1
allocated block device:0x4009325fb800 size:1024 thread:1
allocated block device:0x4009325fbc00 size:1024 thread:1
allocated block device:0x4009325fc000 size:1536 thread:1
allocated block device:0x4009325fc600 size:1024 thread:1
allocated block device:0x4009325fca00 size:512 thread:1
allocated block device:0x4009325fcc00 size:2560 thread:1
allocated block device:0x4009325fd600 size:3072 thread:1
allocated block device:0x4009325ff600 size:2560 thread:1
allocated block device:0x400932600000 size:1821184 thread:1
allocated block device:0x4009327bca00 size:180224 thread:1
allocated block device:0x4009327e8a00 size:28672 thread:1
allocated block device:0x4009327efa00 size:40448 thread:1
allocated block device:0x4009327f9800 size:8192 thread:1
allocated block device:0x4009327fb800 size:8192 thread:1
allocated block device:0x4009327fd800 size:8192 thread:1
allocated block device:0x4009327ff800 size:512 thread:1
allocated block device:0x400932800000 size:1821184 thread:1
allocated block device:0x4009329bca00 size:180224 thread:1
allocated block device:0x4009329e8a00 size:40448 thread:1
allocated block device:0x4009329fe200 size:2048 thread:1
allocated block device:0x400932a00000 size:7284736 thread:1
allocated block device:0x400933200000 size:7284736 thread:1
allocated block device:0x400933a00000 size:45593600 thread:1
allocated block device:0x400940000000 size:807412224 thread:1
allocated block device:0x400970400000 size:230400000 thread:1
allocated block device:0x4009a0000000 size:230400000 thread:1
allocated block device:0x4009adc00000 size:230400000 thread:1
allocated block device:0x4009e0000000 size:230400000 thread:1
allocated block device:0x4009f4c00000 size:391680 thread:1
allocated block device:0x4009f4c5fa00 size:921600 thread:1
allocated block device:0x4009f4d40a00 size:393216 thread:1
allocated block device:0x4009f4e00000 size:2799616 thread:1
allocated block device:0x4009f5200000 size:4030464 thread:1
allocated block device:0x4009f5600000 size:7284736 thread:1
allocated block device:0x400da0000000 size:298674176 thread:1
allocated block device:0x400dc38c0000 size:393216 thread:1
allocated block device:0x400dcfa00000 size:7284736 thread:1
allocated block device:0x400dd2000000 size:1807360 thread:1
allocated block device:0x400dd21b9400 size:181760 thread:1
allocated block device:0x400dd21f5600 size:3072 thread:1
allocated block device:0x400dd21f6200 size:3072 thread:1
allocated block device:0x400dd2200000 size:1807360 thread:1
allocated block device:0x400dd23b9400 size:181760 thread:1
allocated block device:0x400dd23e5a00 size:98304 thread:1
allocated block device:0x400dd2400000 size:1807360 thread:1
allocated block device:0x400dd2600000 size:2799616 thread:1
allocated block device:0x400dd2a00000 size:14458880 thread:1
allocated block device:0x400e20000000 size:298674176 thread:1
allocated block device:0x400e31e00000 size:7284736 thread:1
allocated block device:0x400ef1e00000 size:230400000 thread:1
allocated block device:0x400f11e00000 size:230400000 thread:1
allocated block device:0x400f31e00000 size:230400000 thread:1
allocated block device:0x400f51e00000 size:29138944 thread:1
allocated block device:0x400f53a00000 size:29138944 thread:1
allocated block device:0x400f55600000 size:3145728 thread:1
allocated block device:0x400f55a00000 size:7284736 thread:1
allocated block device:0x400f56200000 size:7284736 thread:1
allocated block device:0x400f56a00000 size:14569472 thread:1
allocated block device:0x400fa0000000 size:921600000 thread:1
Accelerator Fatal Error: call to cuMemAlloc returned error 2 (CUDA_ERROR_OUT_OF_MEMORY): Out of memory
 File: /lus/lfs1aip2/projects/u6cb/software/VASP/vasp.6.5.1/build/gam/fft_base.f90
 Function: restride_r2q_cmplx:945
 Line: 964

Out of memory allocating 921600000 bytes of device memory
Failing in Thread:1
total/free CUDA memory: 102005473280/319946752
Present table dump for device[1]: NVIDIA Tesla GPU 0, compute capability 9.0, threadid=1
Hint: specify 0x800 bit in NV_ACC_DEBUG for verbose info.
host:0x2557280 device:0x40061e5fc000 size:32 presentcount:0+3 line:643 name:var%comm
host:0x25572a0 device:0x4007f51ffa00 size:32 presentcount:0+4 line:652 name:var%comm_kinter
host:0x25572c0 device:0x4007f51ffc00 size:32 presentcount:0+6 line:655 name:var%comm_kin
host:0x25572e0 device:0x4007f51ff400 size:32 presentcount:0+3 line:646 name:var%comm_inter
host:0x2557300 device:0x4007f51ff600 size:32 presentcount:0+7 line:649 name:var%comm_inb
host:0x256be80 device:0x40061a0ecd00 size:8 presentcount:0+1 line:-1 name:_setexm_struct_def_21
host:0x2576f40 device:0x40061a0ece00 size:28 presentcount:0+1 line:-1 name:_ml_ff_constant_21
host:0x2577c80 device:0x40061a0ecf00 size:30437 presentcount:0+1 line:-1 name:_ml_ff_taglist_21
host:0x25afc80 device:0x40061a0f4600 size:8 presentcount:0+1 line:-1 name:_mopenacc_tutor_21
host:0x25c2740 device:0x40061a0f4a00 size:32 presentcount:0+1 line:-1 name:_mbj_21
host:0x25cd640 device:0x40061a0f4d00 size:8 presentcount:0+1 line:-1 name:_sym_prec_21
host:0x26030c0 device:0x40061a0f4e00 size:344 presentcount:0+1 line:-1 name:_tet_21
host:0x261c840 device:0x40061a0f5000 size:392 presentcount:0+1 line:-1 name:_mymath_21
host:0x2817368 device:0x40061e5eec00 size:4800 presentcount:0+2 line:614 name:var
host:0x2818628 device:0x40061e5fa400 size:1984 presentcount:0+2 line:403 name:var
host:0x281a910 device:0x4007b53ff800 size:864 presentcount:0+4 line:2639 name:hamiltonian
host:0x286ac80 device:0x40061e5fd400 size:2712 presentcount:0+2 line:428 name:var
host:0x286b718 device:0x4007f51fae00 size:2248 presentcount:0+1 line:742 name:var
host:0x286eb50 device:0x4008727ff800 size:288 presentcount:0+1 line:195 name:latt_cur
host:0x2871658 device:0x4008153fe400 size:5088 presentcount:0+28 line:517 name:var
host:0x2872a38 device:0x4008725f4800 size:5088 presentcount:0+6 line:517 name:var
host:0x2873e18 device:0x4008725e8a00 size:5088 presentcount:0+7 line:517 name:var
host:0x287a2a8 device:0x4007f51fe000 size:304 presentcount:0+1 line:567 name:var
host:0x287a3d8 device:0x4008725fca00 size:304 presentcount:0+1 line:567 name:var
host:0x2e48ec0 device:0x40061a002600 size:960024 presentcount:0+1 line:-1 name:_setexm_struct_def_16
host:0x2f8f080 device:0x40061a0f4700 size:580 presentcount:0+1 line:-1 name:_wpbe_16
host:0x2f8f900 device:0x40061a0f4b00 size:288 presentcount:0+1 line:-1 name:_mbj_16
host:0x9f446c0 device:0x40061a0f5200 size:624 presentcount:0+1 line:-1 name:_mlr_optic_16
host:0x44beab90 device:0x4008725f7800 size:528 presentcount:0+1 line:480 name:var
host:0x44bebe00 device:0x4008153ffa00 size:400 presentcount:0+2 line:464 name:var
host:0x44bebf90 device:0x4008153ffe00 size:400 presentcount:0+2 line:464 name:var
host:0x44bf4e70 device:0x40061e5fe800 size:8 presentcount:0+2 line:616 name:var%wtkpt(:)
host:0x44bf4ea0 device:0x40061e5fe200 size:8 presentcount:0+3 line:616 name:var%nityp(:)
host:0x44bf4ed0 device:0x40061e5eea00 size:16 presentcount:0+2 line:430 name:var%psrmax(:)
host:0x44bf53a0 device:0x40061e5fe600 size:24 presentcount:0+3 line:616 name:var%vkpt(:,:)
host:0x48ed0050 device:0x4007f51ff800 size:8 presentcount:0+4 line:405 name:var%nityp(:)
host:0x494473f0 device:0x40061e5f0a00 size:1000 presentcount:0+4 line:519 name:var%lpctz(:)
host:0x498ca2c0 device:0x4008727e8a00 size:28464 presentcount:0+1 line:853 name:var(:)
host:0x498dca40 device:0x4008729e8a00 size:40000 presentcount:0+1 line:857 name:var%psp(:,:)
host:0x498e66b0 device:0x4008727fd800 size:8000 presentcount:0+1 line:857 name:var%psprho(:)
host:0x498e9940 device:0x4008723f7400 size:24000 presentcount:0+2 line:466 name:var%psprnl(:,:,:)
host:0x49919320 device:0x4008723ef000 size:4320 presentcount:0+4 line:405 name:var%ityp(:)
host:0x4991a430 device:0x4008723e8a00 size:25920 presentcount:0+4 line:405 name:var%posion(:,:)
host:0x4995d790 device:0x4008727f9800 size:8000 presentcount:0+1 line:857 name:var%pspcor(:)
host:0x4995f700 device:0x4008727fb800 size:8000 presentcount:0+1 line:857 name:var%psprho(:)
host:0x49963270 device:0x4008727efa00 size:40000 presentcount:0+1 line:857 name:var%psp(:,:)
host:0x4996cee0 device:0x4008723f1400 size:24000 presentcount:0+2 line:466 name:var%psprnl(:,:,:)
host:0x499b9620 device:0x4008153ffc00 size:24 presentcount:0+3 line:466 name:var%lps(:)
host:0x499b96d0 device:0x4007f51fb800 size:24 presentcount:0+3 line:466 name:var%lps(:)
host:0x49ad7dc0 device:0x40061e5fea00 size:4320 presentcount:0+3 line:616 name:var%ityp(:)
host:0x49ad8ed0 device:0x40061e5fe000 size:8 presentcount:0+3 line:616 name:var%lmmax(:)
host:0x49ad8f00 device:0x40061e5fe400 size:8 presentcount:0+3 line:616 name:var%nt_global(:)
host:0x49ad8f30 device:0x40061e5fc200 size:4320 presentcount:0+3 line:616 name:var%npro_pos(:)
host:0x49ada040 device:0x40061e5fae00 size:4324 presentcount:0+3 line:616 name:var%lmbase(:)
host:0x49adb150 device:0x40061e5ffe00 size:4 presentcount:0+2 line:616 name:var%nplwkp(:)
host:0x49adb180 device:0x4008723f7200 size:4 presentcount:0+2 line:616 name:var%nplwkp_tot(:)
host:0x49adb1b0 device:0x4008723fd200 size:4 presentcount:0+2 line:616 name:var%ngvector_pos(:)
host:0x49adb1e0 device:0x40061e5ffc00 size:4 presentcount:0+2 line:616 name:var%ngvector(:)
host:0x49adb210 device:0x40061e5f0000 size:1280 presentcount:0+4 line:519 name:var%lpctx(:)
host:0x49adb740 device:0x40061e5f0600 size:720 presentcount:0+4 line:519 name:var%lpcty(:)
host:0x49adba40 device:0x40061e5f0e00 size:1280 presentcount:0+4 line:519 name:var%lpctx_(:)
host:0x49adbf70 device:0x40061e5f1400 size:720 presentcount:0+4 line:519 name:var%lpcty_(:)
host:0x49adc270 device:0x40061e5f1800 size:1000 presentcount:0+4 line:519 name:var%lpctz_(:)
host:0x49adc680 device:0x4008725f5c00 size:1280 presentcount:0+1 line:519 name:var%lpctx(:)
host:0x49adcbb0 device:0x4008725f6200 size:720 presentcount:0+1 line:519 name:var%lpcty(:)
host:0x49adceb0 device:0x4008725f6600 size:1000 presentcount:0+1 line:519 name:var%lpctz(:)
host:0x49add2c0 device:0x4008725f6a00 size:1280 presentcount:0+1 line:519 name:var%lpctx_(:)
host:0x49add7f0 device:0x4008725f7000 size:720 presentcount:0+1 line:519 name:var%lpcty_(:)
host:0x49addaf0 device:0x4008725f7400 size:1000 presentcount:0+1 line:519 name:var%lpctz_(:)
host:0x49addf00 device:0x4008723fd600 size:2560 presentcount:0+1 line:519 name:var%lpctx(:)
host:0x49ade930 device:0x4008723ff000 size:1440 presentcount:0+1 line:519 name:var%lpcty(:)
host:0x49adef00 device:0x4008723fe200 size:2000 presentcount:0+1 line:519 name:var%lpctz(:)
host:0x49adf700 device:0x4008723ff600 size:2560 presentcount:0+1 line:519 name:var%lpctx_(:)
host:0x49ae0130 device:0x4008725e9e00 size:1440 presentcount:0+1 line:519 name:var%lpcty_(:)
host:0x49ae0700 device:0x4008725ea400 size:2000 presentcount:0+1 line:519 name:var%lpctz_(:)
host:0x49bcc7e0 device:0x4008725ee800 size:2824 presentcount:0+1 line:482 name:var%i2(:)
host:0x49bcd310 device:0x4008725ef400 size:2824 presentcount:0+1 line:482 name:var%i3(:)
host:0x49bcde40 device:0x4008725f0000 size:5020 presentcount:0+1 line:482 name:var%i2(:)
host:0x49bcf210 device:0x4008725f1400 size:5020 presentcount:0+1 line:482 name:var%i3(:)
host:0x49bd05e0 device:0x4008725eac00 size:7200 presentcount:0+2 line:482 name:var%i2(:)
host:0x49bd2230 device:0x4008725eca00 size:7200 presentcount:0+2 line:482 name:var%i3(:)
host:0x49bd42a0 device:0x4008fb85fa00 size:921600 presentcount:0+2 line:482 name:var%index(:,:)
host:0x49cb52d0 device:0x4008725fcc00 size:2560 presentcount:0+1 line:569 name:var%ind1(:)
host:0x49cb5d00 device:0x4008725fd600 size:2824 presentcount:0+1 line:569 name:var%indcol(:)
host:0x49cb6830 device:0x4008725f7c00 size:2824 presentcount:0+1 line:482 name:var%i2(:)
host:0x49cb7360 device:0x4008725f8800 size:2824 presentcount:0+1 line:482 name:var%i3(:)
host:0x49cb7e90 device:0x4008725f9400 size:1512 presentcount:0+1 line:482 name:var%i2(:)
host:0x49cb84a0 device:0x4008725f9a00 size:1512 presentcount:0+1 line:482 name:var%i3(:)
host:0x49cb8ab0 device:0x4007f51fba00 size:4320 presentcount:0+2 line:430 name:var%nlimax(:)
host:0x49cb9bc0 device:0x4007f51fce00 size:4324 presentcount:0+2 line:430 name:var%lmbase(:)
host:0x49cbacd0 device:0x4007f51fe200 size:4324 presentcount:0+2 line:430 name:var%nlibase(:)
host:0x49cbbde0 device:0x40061e5f1c00 size:17132 presentcount:0+4 line:519 name:var%nindpwconjg(:)
host:0x49cc0100 device:0x40061e5f6000 size:17132 presentcount:0+4 line:519 name:var%ind_in_sphere(:)
host:0x49cc54d0 device:0x400cd21b9400 size:181440 presentcount:0+1 line:499 name:var%tbli(:)
host:0x49cf19c0 device:0x4008725fac00 size:516 presentcount:0+1 line:499 name:var%ptri(:)
host:0x49cf1bf0 device:0x4008725fa800 size:516 presentcount:0+1 line:499 name:var%ni(:)
host:0x49cf1e20 device:0x4007f51fcc00 size:4 presentcount:0+1 line:499 name:var%tbli(:)
host:0x49cf2020 device:0x4008725fc000 size:1280 presentcount:0+1 line:569 name:var%ind1(:)
host:0x49cf2550 device:0x4008725fc600 size:720 presentcount:0+1 line:569 name:var%indcol(:)
host:0x49cf2850 device:0x40074812e800 size:180000 presentcount:0+4 line:482 name:var%i2(:)
host:0x49d1e7a0 device:0x40074815a800 size:180000 presentcount:0+4 line:482 name:var%i3(:)
host:0x49d4a6f0 device:0x4008723bca00 size:180000 presentcount:0+8 line:482 name:var%index(:,:)
host:0x49d76640 device:0x4008729bca00 size:180000 presentcount:0+8 line:482 name:var%i2(:)
host:0x49da2590 device:0x400748186800 size:180000 presentcount:0+8 line:482 name:var%i3(:)
host:0x49dceb10 device:0x400872400000 size:1821184 presentcount:0+3 line:616 name:var%nindpw(:,:)
host:0x49f8b540 device:0x40061e5fac00 size:8 presentcount:0+2 line:616 name:var%nb_totk(:,:)
host:0x49f8b570 device:0x4008723fd400 size:4 presentcount:0+2 line:616 name:var%luseinv(:)
host:0x49f8b5a0 device:0x40061e5ee600 size:4 presentcount:0+2 line:616 name:var%at_gamma(:)
host:0x49f8b5d0 device:0x4008725bca00 size:180000 presentcount:0+3 line:616 name:var%pl_index(:,:)
host:0x49fb7520 device:0x4008727bca00 size:180000 presentcount:0+3 line:616 name:var%pl_col(:,:)
host:0x49fe3690 device:0x4008723fee00 size:8 presentcount:0+2 line:405 name:var%lmmax(:)
host:0x49fe36c0 device:0x4008723f0200 size:4324 presentcount:0+2 line:405 name:var%lmbase(:)
host:0x49fe47d0 device:0x4007f51ffe00 size:8 presentcount:0+2 line:430 name:var%lmax(:)
host:0x49fe4800 device:0x40061e5ee400 size:8 presentcount:0+2 line:430 name:var%lmmax(:)
host:0x49fe4830 device:0x40061e5ee800 size:8 presentcount:0+2 line:430 name:var%channels(:)
host:0x49fe4860 device:0x4008153ff800 size:16 presentcount:0+2 line:430 name:var%rsmooth(:)
host:0x4a055100 device:0x4008725fa400 size:516 presentcount:0+1 line:499 name:var%ptr(:)
host:0x4a055330 device:0x4008725fa000 size:516 presentcount:0+1 line:499 name:var%n(:)
host:0x4a055560 device:0x4008725fb400 size:516 presentcount:0+1 line:499 name:var%ptr(:)
host:0x4a055790 device:0x4008725fb000 size:516 presentcount:0+1 line:499 name:var%n(:)
host:0x4a0559c0 device:0x4008725fbc00 size:516 presentcount:0+1 line:499 name:var%ptri(:)
host:0x4a055bf0 device:0x4008725fb800 size:516 presentcount:0+1 line:499 name:var%ni(:)
host:0x4a061a50 device:0x4008725f2c00 size:516 presentcount:0+1 line:499 name:var%ptr(:)
host:0x4a061c80 device:0x4008725f2800 size:516 presentcount:0+1 line:499 name:var%n(:)
host:0x4a061eb0 device:0x4008725f3400 size:516 presentcount:0+1 line:499 name:var%ptri(:)
host:0x4a0620e0 device:0x4008725f3000 size:516 presentcount:0+1 line:499 name:var%ni(:)
host:0x4a062310 device:0x4008725f3c00 size:516 presentcount:0+1 line:499 name:var%ptr(:)
host:0x4a062540 device:0x4008725f3800 size:516 presentcount:0+1 line:499 name:var%n(:)
host:0x4a062770 device:0x4008725f4400 size:516 presentcount:0+1 line:499 name:var%ptri(:)
host:0x4a0629a0 device:0x4008725f4000 size:516 presentcount:0+1 line:499 name:var%ni(:)
host:0x4a1b4c60 device:0x4008fc200000 size:7284736 presentcount:0+3 line:616 name:var%datake(:,:,:)
host:0x4a8a7ee0 device:0x400872600000 size:1821184 presentcount:0+3 line:616 name:var%igx(:,:)
host:0x4aa65570 device:0x400872200000 size:1821184 presentcount:0+3 line:616 name:var%igy(:,:)
host:0x4ac22e10 device:0x400872800000 size:1821184 presentcount:0+3 line:616 name:var%igz(:,:)
host:0x4ade0ce0 device:0x400873200000 size:7284272 presentcount:0+4 line:519 name:var%fftsca(:,:)
host:0x4b4d3340 device:0x4008fb800000 size:230400 presentcount:0+1 line:499 name:var%tbl(:)
host:0x4b543ba0 device:0x400cd23b9400 size:181440 presentcount:0+1 line:499 name:var%tbl(:)
host:0x4b571740 device:0x4008fba00000 size:1807360 presentcount:0+1 line:499 name:var%tbl(:)
host:0x4b8e7330 device:0x400cd2000000 size:1807200 presentcount:0+1 line:499 name:var%tbli(:)
host:0x4baa23a0 device:0x400cd2200000 size:1807200 presentcount:0+1 line:499 name:var%tbl(:)
host:0x4bde0030 device:0x4008153f4000 size:41984 presentcount:0+1 line:746 name:var%auxtot(:,:,:)
host:0x4bdf2420 device:0x40061e5e4000 size:41984 presentcount:0+2 line:746 name:var%fertot(:,:,:)
host:0x4be18ab0 device:0x400cd2400000 size:1807200 presentcount:0+1 line:499 name:var%tbli(:)
host:0x4ca38630 device:0x40074811a000 size:83968 presentcount:0+2 line:746 name:var%celtot(:,:,:)
host:0x4cd10890 device:0x400871e00000 size:2799360 presentcount:0+2 line:194 name:cdij(:,:,:,:)
host:0x4e106af0 device:0x400872a00000 size:7200000 presentcount:0+1 line:195 name:dencor(:)
host:0x4eed0ff0 device:0x400cd2600000 size:2799360 presentcount:0+2 line:194 name:cqij(:,:,:,:)
host:0x4f430ca0 device:0x4008fbe00000 size:4030464 presentcount:0+5 line:746 name:var%gproj(:,:,:,:)
host:0x4fa42ba0 device:0x4007481ca800 size:98304 presentcount:0+1 line:1101 name:w1%gproj(:)
host:0x566286d0 device:0x400eb5600000 size:3145728 presentcount:0+2 line:1226 name:wa%gproj(:,:)
host:0x5a917810 device:0x4008729fe200 size:2048 presentcount:0+1 line:179 name:w1(:)
host:0x5a918030 device:0x400cd21f5600 size:2048 presentcount:0+1 line:179 name:wtmp(:)
host:0x5a91b880 device:0x400eb6200000 size:7284736 presentcount:0+1 line:1101 name:w1%cptwfp(:)
host:0x5b017ee0 device:0x4008fb940a00 size:393216 presentcount:0+2 line:1226 name:wa%gproj(:,:)
host:0x5b077f10 device:0x400cc30c0000 size:393216 presentcount:0+2 line:1226 name:wa%gproj(:,:)
host:0x5b0d7f40 device:0x4007481b2800 size:98304 presentcount:0+1 line:1101 name:w1%gproj(:)
host:0x5b0eff70 device:0x400cd23e5a00 size:98304 presentcount:0+1 line:1101 name:w1%gproj(:)
host:0x5b107fa0 device:0x4007481e2800 size:98304 presentcount:0+1 line:1101 name:w1%gproj(:)
host:0x5b27f630 device:0x400eb6a00000 size:14569472 presentcount:0+1 line:202 name:precon(:,:)
host:0x5c06be00 device:0x400d71e00000 size:7284736 presentcount:0+1 line:1101 name:w1%cptwfp(:)
host:0x5c766400 device:0x400cd0200000 size:7284736 presentcount:0+1 line:1101 name:w1%cptwfp(:)
host:0x5ce61030 device:0x400eb5a00000 size:7284736 presentcount:0+1 line:1101 name:w1%cptwfp(:)
host:0x40064c0010a0 device:0x400873a00000 size:45593280 presentcount:0+2 line:430 name:var%nli(:,:)
host:0x40064eb839e0 device:0x400cd2a00000 size:14458880 presentcount:0+1 line:195 name:cstrf(:,:)
host:0x4006b23131a0 device:0x4008e0000000 size:230400000 presentcount:0+2 line:194 name:sv(:,:)
host:0x4007600012b0 device:0x400880000000 size:807411968 presentcount:0+2 line:430 name:var%rproj(:)
host:0x400791dd6f80 device:0x400eb1e00000 size:29138944 presentcount:0+2 line:1226 name:wa%cptwfp(:,:)
host:0x400796a57190 device:0x400eb3a00000 size:29138944 presentcount:0+2 line:1226 name:wa%cptwfp(:,:)
host:0x400840004a60 device:0x400860000000 size:298674176 presentcount:0+5 line:746 name:var%cptwfp(:,:,:,:)
host:0x4008d1ce73a0 device:0x400d60000000 size:233111552 presentcount:0+2 line:1226 name:wa%cptwfp(:,:)
host:0x400940000020 device:0x400660000000 size:230400000 presentcount:0+1 line:1101 name:w1%cr(:)
host:0x4009a00079d0 device:0x400ca0000000 size:230400000 presentcount:0+1 line:1101 name:w1%cr(:)
host:0x4009adbd7be0 device:0x4008b0400000 size:230400000 presentcount:0+1 line:1236 name:w1%cr(:)
host:0x400ac0008000 device:0x4008edc00000 size:230400000 presentcount:0+1 line:1101 name:w1%cr(:)
host:0x400acdbd8210 device:0x400831000000 size:230400000 presentcount:0+1 line:1236 name:w1%cr(:)
host:0x400c20000230 device:0x400e91e00000 size:230400000 presentcount:0+1 line:1236 name:w1%cr(:)
host:0x400c2dbc0650 device:0x400e71e00000 size:230400000 presentcount:0+1 line:1101 name:w1%cr(:)
host:0x400c80000860 device:0x400e51e00000 size:230400000 presentcount:0+1 line:1236 name:w1%cr(:)
host:0xfffff60f9000 device:0x400cd21f6200 size:3024 presentcount:0+12 line:682 name:var
host:0xfffff60f9bd0 device:0x4007d53ff600 size:1480 presentcount:0+1 line:174 name:w_ini
host:0xfffff60fa1a0 device:0x4008725ff600 size:1480 presentcount:0+1 line:174 name:wopt
host:0xfffff60fa770 device:0x4007f51fa400 size:1480 presentcount:0+1 line:174 name:wtmpa
allocated block device:0x40061e5e4000 size:41984 thread:1
allocated block device:0x40061e5ee400 size:512 thread:1
allocated block device:0x40061e5ee600 size:512 thread:1
allocated block device:0x40061e5ee800 size:512 thread:1
allocated block device:0x40061e5eea00 size:512 thread:1
allocated block device:0x40061e5eec00 size:5120 thread:1
allocated block device:0x40061e5f0000 size:1536 thread:1
allocated block device:0x40061e5f0600 size:1024 thread:1
allocated block device:0x40061e5f0a00 size:1024 thread:1
allocated block device:0x40061e5f0e00 size:1536 thread:1
allocated block device:0x40061e5f1400 size:1024 thread:1
allocated block device:0x40061e5f1800 size:1024 thread:1
allocated block device:0x40061e5f1c00 size:17408 thread:1
allocated block device:0x40061e5f6000 size:17408 thread:1
allocated block device:0x40061e5fa400 size:2048 thread:1
allocated block device:0x40061e5fac00 size:512 thread:1
allocated block device:0x40061e5fae00 size:4608 thread:1
allocated block device:0x40061e5fc000 size:512 thread:1
allocated block device:0x40061e5fc200 size:4608 thread:1
allocated block device:0x40061e5fd400 size:3072 thread:1
allocated block device:0x40061e5fe000 size:512 thread:1
allocated block device:0x40061e5fe200 size:512 thread:1
allocated block device:0x40061e5fe400 size:512 thread:1
allocated block device:0x40061e5fe600 size:512 thread:1
allocated block device:0x40061e5fe800 size:512 thread:1
allocated block device:0x40061e5fea00 size:4608 thread:1
allocated block device:0x40061e5ffc00 size:512 thread:1
allocated block device:0x40061e5ffe00 size:512 thread:1
allocated block device:0x400660000000 size:298674176 thread:1
allocated block device:0x40074811a000 size:83968 thread:1
allocated block device:0x40074812e800 size:180224 thread:1
allocated block device:0x40074815a800 size:180224 thread:1
allocated block device:0x400748186800 size:180224 thread:1
allocated block device:0x4007481b2800 size:98304 thread:1
allocated block device:0x4007481ca800 size:98304 thread:1
allocated block device:0x4007481e2800 size:98304 thread:1
allocated block device:0x4007b53ff800 size:1024 thread:1
allocated block device:0x4007d53ff600 size:1536 thread:1
allocated block device:0x4007f51fa400 size:2048 thread:1
allocated block device:0x4007f51fae00 size:2560 thread:1
allocated block device:0x4007f51fb800 size:512 thread:1
allocated block device:0x4007f51fba00 size:4608 thread:1
allocated block device:0x4007f51fcc00 size:512 thread:1
allocated block device:0x4007f51fce00 size:4608 thread:1
allocated block device:0x4007f51fe000 size:512 thread:1
allocated block device:0x4007f51fe200 size:4608 thread:1
allocated block device:0x4007f51ff400 size:512 thread:1
allocated block device:0x4007f51ff600 size:512 thread:1
allocated block device:0x4007f51ff800 size:512 thread:1
allocated block device:0x4007f51ffa00 size:512 thread:1
allocated block device:0x4007f51ffc00 size:512 thread:1
allocated block device:0x4007f51ffe00 size:512 thread:1
allocated block device:0x4008153f4000 size:41984 thread:1
allocated block device:0x4008153fe400 size:5120 thread:1
allocated block device:0x4008153ff800 size:512 thread:1
allocated block device:0x4008153ffa00 size:512 thread:1
allocated block device:0x4008153ffc00 size:512 thread:1
allocated block device:0x4008153ffe00 size:512 thread:1
allocated block device:0x400831000000 size:230400000 thread:1
allocated block device:0x400860000000 size:298674176 thread:1
allocated block device:0x400871e00000 size:4030464 thread:1
allocated block device:0x400872200000 size:1821184 thread:1
allocated block device:0x4008723bca00 size:180224 thread:1
allocated block device:0x4008723e8a00 size:26112 thread:1
allocated block device:0x4008723ef000 size:4608 thread:1
allocated block device:0x4008723f0200 size:4608 thread:1
allocated block device:0x4008723f1400 size:24064 thread:1
allocated block device:0x4008723f7200 size:512 thread:1
allocated block device:0x4008723f7400 size:24064 thread:1
allocated block device:0x4008723fd200 size:512 thread:1
allocated block device:0x4008723fd400 size:512 thread:1
allocated block device:0x4008723fd600 size:3072 thread:1
allocated block device:0x4008723fe200 size:3072 thread:1
allocated block device:0x4008723fee00 size:512 thread:1
allocated block device:0x4008723ff000 size:1536 thread:1
allocated block device:0x4008723ff600 size:2560 thread:1
allocated block device:0x400872400000 size:1821184 thread:1
allocated block device:0x4008725bca00 size:180224 thread:1
allocated block device:0x4008725e8a00 size:5120 thread:1
allocated block device:0x4008725e9e00 size:1536 thread:1
allocated block device:0x4008725ea400 size:2048 thread:1
allocated block device:0x4008725eac00 size:7680 thread:1
allocated block device:0x4008725eca00 size:7680 thread:1
allocated block device:0x4008725ee800 size:3072 thread:1
allocated block device:0x4008725ef400 size:3072 thread:1
allocated block device:0x4008725f0000 size:5120 thread:1
allocated block device:0x4008725f1400 size:5120 thread:1
allocated block device:0x4008725f2800 size:1024 thread:1
allocated block device:0x4008725f2c00 size:1024 thread:1
allocated block device:0x4008725f3000 size:1024 thread:1
allocated block device:0x4008725f3400 size:1024 thread:1
allocated block device:0x4008725f3800 size:1024 thread:1
allocated block device:0x4008725f3c00 size:1024 thread:1
allocated block device:0x4008725f4000 size:1024 thread:1
allocated block device:0x4008725f4400 size:1024 thread:1
allocated block device:0x4008725f4800 size:5120 thread:1
allocated block device:0x4008725f5c00 size:1536 thread:1
allocated block device:0x4008725f6200 size:1024 thread:1
allocated block device:0x4008725f6600 size:1024 thread:1
allocated block device:0x4008725f6a00 size:1536 thread:1
allocated block device:0x4008725f7000 size:1024 thread:1
allocated block device:0x4008725f7400 size:1024 thread:1
allocated block device:0x4008725f7800 size:1024 thread:1
allocated block device:0x4008725f7c00 size:3072 thread:1
allocated block device:0x4008725f8800 size:3072 thread:1
allocated block device:0x4008725f9400 size:1536 thread:1
allocated block device:0x4008725f9a00 size:1536 thread:1
allocated block device:0x4008725fa000 size:1024 thread:1
allocated block device:0x4008725fa400 size:1024 thread:1
allocated block device:0x4008725fa800 size:1024 thread:1
allocated block device:0x4008725fac00 size:1024 thread:1
allocated block device:0x4008725fb000 size:1024 thread:1
allocated block device:0x4008725fb400 size:1024 thread:1
allocated block device:0x4008725fb800 size:1024 thread:1
allocated block device:0x4008725fbc00 size:1024 thread:1
allocated block device:0x4008725fc000 size:1536 thread:1
allocated block device:0x4008725fc600 size:1024 thread:1
allocated block device:0x4008725fca00 size:512 thread:1
allocated block device:0x4008725fcc00 size:2560 thread:1
allocated block device:0x4008725fd600 size:3072 thread:1
allocated block device:0x4008725ff600 size:2560 thread:1
allocated block device:0x400872600000 size:1821184 thread:1
allocated block device:0x4008727bca00 size:180224 thread:1
allocated block device:0x4008727e8a00 size:28672 thread:1
allocated block device:0x4008727efa00 size:40448 thread:1
allocated block device:0x4008727f9800 size:8192 thread:1
allocated block device:0x4008727fb800 size:8192 thread:1
allocated block device:0x4008727fd800 size:8192 thread:1
allocated block device:0x4008727ff800 size:512 thread:1
allocated block device:0x400872800000 size:1821184 thread:1
allocated block device:0x4008729bca00 size:180224 thread:1
allocated block device:0x4008729e8a00 size:40448 thread:1
allocated block device:0x4008729fe200 size:2048 thread:1
allocated block device:0x400872a00000 size:7284736 thread:1
allocated block device:0x400873200000 size:7284736 thread:1
allocated block device:0x400873a00000 size:45593600 thread:1
allocated block device:0x400880000000 size:807412224 thread:1
allocated block device:0x4008b0400000 size:230400000 thread:1
allocated block device:0x4008e0000000 size:230400000 thread:1
allocated block device:0x4008edc00000 size:230400000 thread:1
allocated block device:0x4008fb800000 size:391680 thread:1
allocated block device:0x4008fb85fa00 size:921600 thread:1
allocated block device:0x4008fb940a00 size:393216 thread:1
allocated block device:0x4008fba00000 size:2799616 thread:1
allocated block device:0x4008fbe00000 size:4030464 thread:1
allocated block device:0x4008fc200000 size:7284736 thread:1
allocated block device:0x400ca0000000 size:230400000 thread:1
allocated block device:0x400cc30c0000 size:393216 thread:1
allocated block device:0x400cd0200000 size:7284736 thread:1
allocated block device:0x400cd2000000 size:1807360 thread:1
allocated block device:0x400cd21b9400 size:181760 thread:1
allocated block device:0x400cd21f5600 size:3072 thread:1
allocated block device:0x400cd21f6200 size:3072 thread:1
allocated block device:0x400cd2200000 size:1807360 thread:1
allocated block device:0x400cd23b9400 size:181760 thread:1
allocated block device:0x400cd23e5a00 size:98304 thread:1
allocated block device:0x400cd2400000 size:1807360 thread:1
allocated block device:0x400cd2600000 size:2799616 thread:1
allocated block device:0x400cd2a00000 size:14458880 thread:1
allocated block device:0x400d60000000 size:298674176 thread:1
allocated block device:0x400d71e00000 size:7284736 thread:1
allocated block device:0x400e51e00000 size:230400000 thread:1
allocated block device:0x400e71e00000 size:230400000 thread:1
allocated block device:0x400e91e00000 size:230400000 thread:1
allocated block device:0x400eb1e00000 size:29138944 thread:1
allocated block device:0x400eb3a00000 size:29138944 thread:1
allocated block device:0x400eb5600000 size:3145728 thread:1
allocated block device:0x400eb5a00000 size:7284736 thread:1
allocated block device:0x400eb6200000 size:7284736 thread:1
allocated block device:0x400eb6a00000 size:14569472 thread:1
Accelerator Fatal Error: call to cuMemAlloc returned error 2 (CUDA_ERROR_OUT_OF_MEMORY): Out of memory
 File: /lus/lfs1aip2/projects/u6cb/software/VASP/vasp.6.5.1/build/gam/hamil.f90
 Function: hamiltmu:978
 Line: 1005

Out of memory allocating 921600000 bytes of device memory
Failing in Thread:1
total/free CUDA memory: 102005473280/314179584
Present table dump for device[1]: NVIDIA Tesla GPU 0, compute capability 9.0, threadid=1
Hint: specify 0x800 bit in NV_ACC_DEBUG for verbose info.
host:0x2557280 device:0x4004be5fc000 size:32 presentcount:0+3 line:643 name:var%comm
host:0x25572a0 device:0x40069c1ffa00 size:32 presentcount:0+4 line:652 name:var%comm_kinter
Out of memory allocating 921600000 bytes of device memory
Failing in Thread:1
total/free CUDA memory: 102005473280/316604416
Present table dump for device[1]: NVIDIA Tesla GPU 0, compute capability 9.0, threadid=1
Hint: specify 0x800 bit in NV_ACC_DEBUG for verbose info.
host:0x2557280 device:0x40043e3fd800 size:32 presentcount:0+3 line:643 name:var%comm
host:0x25572a0 device:0x40043e3ef600 size:32 presentcount:0+4 line:652 name:var%comm_kinter
host:0x25572c0 device:0x40043e3ef800 size:32 presentcount:0+6 line:655 name:var%comm_kin
host:0x25572e0 device:0x40061c3ffa00 size:32 presentcount:0+3 line:646 name:var%comm_inter
host:0x2557300 device:0x40061c3ffc00 size:32 presentcount:0+7 line:649 name:var%comm_inb
host:0x256be80 device:0x40043a0ecd00 size:8 presentcount:0+1 line:-1 name:_setexm_struct_def_21
host:0x2576f40 device:0x40043a0ece00 size:28 presentcount:0+1 line:-1 name:_ml_ff_constant_21
host:0x2577c80 device:0x40043a0ecf00 size:30437 presentcount:0+1 line:-1 name:_ml_ff_taglist_21
host:0x25afc80 device:0x40043a0f4600 size:8 presentcount:0+1 line:-1 name:_mopenacc_tutor_21
host:0x25c2740 device:0x40043a0f4a00 size:32 presentcount:0+1 line:-1 name:_mbj_21
host:0x25cd640 device:0x40043a0f4d00 size:8 presentcount:0+1 line:-1 name:_sym_prec_21
host:0x26030c0 device:0x40043a0f4e00 size:344 presentcount:0+1 line:-1 name:_tet_21
host:0x261c840 device:0x40043a0f5000 size:392 presentcount:0+1 line:-1 name:_mymath_21
host:0x2817368 device:0x40043e3f0400 size:4800 presentcount:0+2 line:614 name:var
host:0x2818628 device:0x40043e3fbc00 size:1984 presentcount:0+2 line:403 name:var
host:0x281a910 device:0x4005fc1ffa00 size:864 presentcount:0+4 line:2639 name:hamiltonian
host:0x286ac80 device:0x40043e3fec00 size:2712 presentcount:0+2 line:428 name:var
host:0x286b718 device:0x40061c3fc600 size:2248 presentcount:0+1 line:742 name:var
host:0x286eb50 device:0x400b121ffc00 size:288 presentcount:0+1 line:195 name:latt_cur
host:0x2871658 device:0x40063c1fe400 size:5088 presentcount:0+28 line:517 name:var
host:0x2872a38 device:0x4006925f6000 size:5088 presentcount:0+6 line:517 name:var
host:0x2873e18 device:0x4006925e9600 size:5088 presentcount:0+7 line:517 name:var
host:0x287a2a8 device:0x40061c3ff800 size:304 presentcount:0+1 line:567 name:var
host:0x287a3d8 device:0x4006925fe200 size:304 presentcount:0+1 line:567 name:var
host:0x2e48ec0 device:0x40043a002600 size:960024 presentcount:0+1 line:-1 name:_setexm_struct_def_16
host:0x2f8f080 device:0x40043a0f4700 size:580 presentcount:0+1 line:-1 name:_wpbe_16
host:0x2f8f900 device:0x40043a0f4b00 size:288 presentcount:0+1 line:-1 name:_mbj_16
host:0x9f446c0 device:0x40043a0f5200 size:624 presentcount:0+1 line:-1 name:_mlr_optic_16
host:0x12948370 device:0x40063c1ffa00 size:400 presentcount:0+2 line:464 name:var
host:0x12948500 device:0x40063c1ffe00 size:400 presentcount:0+2 line:464 name:var
host:0x12d8f080 device:0x4006925f9000 size:528 presentcount:0+1 line:480 name:var
host:0x16fdffd0 device:0x40061c3ffe00 size:8 presentcount:0+4 line:405 name:var%nityp(:)
host:0x174de7e0 device:0x40043e3f2200 size:1000 presentcount:0+4 line:519 name:var%lpctz(:)
host:0x17961ba0 device:0x4006927e8a00 size:28464 presentcount:0+1 line:853 name:var(:)
host:0x17974320 device:0x4006929e8a00 size:40000 presentcount:0+1 line:857 name:var%psp(:,:)
host:0x1797df90 device:0x400b123fbc00 size:8000 presentcount:0+1 line:857 name:var%psprho(:)
host:0x17981220 device:0x4006923f8c00 size:24000 presentcount:0+2 line:466 name:var%psprnl(:,:,:)
host:0x179b0c00 device:0x4006923f0400 size:4320 presentcount:0+4 line:405 name:var%ityp(:)
host:0x179b1d10 device:0x4006923e8a00 size:25920 presentcount:0+4 line:405 name:var%posion(:,:)
host:0x179f4f70 device:0x400b121fbc00 size:8000 presentcount:0+1 line:857 name:var%pspcor(:)
host:0x179f6ee0 device:0x400b121fdc00 size:8000 presentcount:0+1 line:857 name:var%psprho(:)
host:0x179faa50 device:0x4006927efa00 size:40000 presentcount:0+1 line:857 name:var%psp(:,:)
host:0x17a046c0 device:0x4006923f2a00 size:24000 presentcount:0+2 line:466 name:var%psprnl(:,:,:)
host:0x17a176c0 device:0x4006923ef000 size:8 presentcount:0+2 line:616 name:var%wtkpt(:)
host:0x17a178f0 device:0x4006925fbc00 size:516 presentcount:0+1 line:499 name:var%ptr(:)
host:0x17a44740 device:0x40063c1ffc00 size:24 presentcount:0+3 line:466 name:var%lps(:)
host:0x17a447f0 device:0x40061c3fd000 size:24 presentcount:0+3 line:466 name:var%lps(:)
host:0x17a9fa10 device:0x40043e3ffe00 size:24 presentcount:0+3 line:616 name:var%vkpt(:,:)
host:0x17ac4b30 device:0x40043e3ffa00 size:8 presentcount:0+3 line:616 name:var%nityp(:)
host:0x17ac4cf0 device:0x40043e3f0200 size:16 presentcount:0+2 line:430 name:var%psrmax(:)
host:0x17ac52b0 device:0x4006923ef200 size:4320 presentcount:0+3 line:616 name:var%ityp(:)
host:0x17ac63c0 device:0x40043e3ff800 size:8 presentcount:0+3 line:616 name:var%lmmax(:)
host:0x17ac63f0 device:0x40043e3ffc00 size:8 presentcount:0+3 line:616 name:var%nt_global(:)
host:0x17ac6420 device:0x40043e3fda00 size:4320 presentcount:0+3 line:616 name:var%npro_pos(:)
host:0x17ac7530 device:0x40043e3fc600 size:4324 presentcount:0+3 line:616 name:var%lmbase(:)
host:0x17ac8640 device:0x4006923f8800 size:4 presentcount:0+2 line:616 name:var%nplwkp(:)
host:0x17ac8670 device:0x4006923f8a00 size:4 presentcount:0+2 line:616 name:var%nplwkp_tot(:)
host:0x17ac86a0 device:0x4006923fea00 size:4 presentcount:0+2 line:616 name:var%ngvector_pos(:)
host:0x17ac86d0 device:0x4006923f2800 size:4 presentcount:0+2 line:616 name:var%ngvector(:)
host:0x17ac8700 device:0x40043e3f1800 size:1280 presentcount:0+4 line:519 name:var%lpctx(:)
host:0x17ac8c30 device:0x40043e3f1e00 size:720 presentcount:0+4 line:519 name:var%lpcty(:)
host:0x17ac8f30 device:0x40043e3f2600 size:1280 presentcount:0+4 line:519 name:var%lpctx_(:)
host:0x17ac9460 device:0x40043e3f2c00 size:720 presentcount:0+4 line:519 name:var%lpcty_(:)
host:0x17ac9760 device:0x40043e3f3000 size:1000 presentcount:0+4 line:519 name:var%lpctz_(:)
host:0x17ac9b70 device:0x4006925f7400 size:1280 presentcount:0+1 line:519 name:var%lpctx(:)
host:0x17aca0a0 device:0x4006925f7a00 size:720 presentcount:0+1 line:519 name:var%lpcty(:)
host:0x17aca3a0 device:0x4006925f7e00 size:1000 presentcount:0+1 line:519 name:var%lpctz(:)
host:0x17aca7b0 device:0x4006925f8200 size:1280 presentcount:0+1 line:519 name:var%lpctx_(:)
host:0x17acace0 device:0x4006925f8800 size:720 presentcount:0+1 line:519 name:var%lpcty_(:)
host:0x17acafe0 device:0x4006925f8c00 size:1000 presentcount:0+1 line:519 name:var%lpctz_(:)
host:0x17acb3f0 device:0x4006923fee00 size:2560 presentcount:0+1 line:519 name:var%lpctx(:)
host:0x17acbe20 device:0x4006925eaa00 size:1440 presentcount:0+1 line:519 name:var%lpcty(:)
host:0x17acc3f0 device:0x4006925e8a00 size:2000 presentcount:0+1 line:519 name:var%lpctz(:)
host:0x17accbf0 device:0x4006925eb000 size:2560 presentcount:0+1 line:519 name:var%lpctx_(:)
host:0x17acd620 device:0x4006925eba00 size:1440 presentcount:0+1 line:519 name:var%lpcty_(:)
host:0x17acdbf0 device:0x4006925ec000 size:2000 presentcount:0+1 line:519 name:var%lpctz_(:)
host:0x17bb9cd0 device:0x4006925f0400 size:2824 presentcount:0+1 line:482 name:var%i2(:)
host:0x17bba800 device:0x4006925f1000 size:2824 presentcount:0+1 line:482 name:var%i3(:)
host:0x17bbb330 device:0x4006925f1c00 size:5020 presentcount:0+1 line:482 name:var%i2(:)
host:0x17bbc700 device:0x4006925f3000 size:5020 presentcount:0+1 line:482 name:var%i3(:)
host:0x17bbdad0 device:0x4006925ec800 size:7200 presentcount:0+2 line:482 name:var%i2(:)
host:0x17bbf720 device:0x4006925ee600 size:7200 presentcount:0+2 line:482 name:var%i3(:)
host:0x17bc1790 device:0x400734c5fa00 size:921600 presentcount:0+2 line:482 name:var%index(:,:)
host:0x17ca27c0 device:0x4006925fe400 size:2560 presentcount:0+1 line:569 name:var%ind1(:)
host:0x17ca31f0 device:0x4006925fee00 size:2824 presentcount:0+1 line:569 name:var%indcol(:)
host:0x17ca3d20 device:0x4006925f9400 size:2824 presentcount:0+1 line:482 name:var%i2(:)
host:0x17ca4850 device:0x4006925fa000 size:2824 presentcount:0+1 line:482 name:var%i3(:)
host:0x17ca5380 device:0x4006925fac00 size:1512 presentcount:0+1 line:482 name:var%i2(:)
host:0x17ca5990 device:0x4006925fb200 size:1512 presentcount:0+1 line:482 name:var%i3(:)
host:0x17ca5fa0 device:0x40061c3fd200 size:4320 presentcount:0+2 line:430 name:var%nlimax(:)
host:0x17ca70b0 device:0x40061c3fe600 size:4324 presentcount:0+2 line:430 name:var%lmbase(:)
host:0x17ca81c0 device:0x40043e3ee400 size:4324 presentcount:0+2 line:430 name:var%nlibase(:)
host:0x17ca92d0 device:0x40043e3f3400 size:17132 presentcount:0+4 line:519 name:var%nindpwconjg(:)
host:0x17cad5f0 device:0x40043e3f7800 size:17132 presentcount:0+4 line:519 name:var%ind_in_sphere(:)
host:0x17cb2530 device:0x4006925fb800 size:516 presentcount:0+1 line:499 name:var%n(:)
host:0x17cdf510 device:0x4006925fd800 size:1280 presentcount:0+1 line:569 name:var%ind1(:)
host:0x17cdfa40 device:0x4006925fde00 size:724 presentcount:0+1 line:569 name:var%indcol(:)
host:0x17cdfd40 device:0x40056e32e800 size:180000 presentcount:0+4 line:482 name:var%i2(:)
host:0x17d0bc90 device:0x40056e35a800 size:180000 presentcount:0+4 line:482 name:var%i3(:)
host:0x17d37be0 device:0x4006923bca00 size:180000 presentcount:0+8 line:482 name:var%index(:,:)
host:0x17d63b30 device:0x4006929bca00 size:180000 presentcount:0+8 line:482 name:var%i2(:)
host:0x17d8fa80 device:0x40056e386800 size:180000 presentcount:0+8 line:482 name:var%i3(:)
host:0x17dbc000 device:0x400692400000 size:1821184 presentcount:0+3 line:616 name:var%nindpw(:,:)
host:0x17f78a30 device:0x40043e3fc400 size:8 presentcount:0+2 line:616 name:var%nb_totk(:,:)
host:0x17f78a60 device:0x4006923fec00 size:4 presentcount:0+2 line:616 name:var%luseinv(:)
host:0x17f78a90 device:0x40043e3efe00 size:4 presentcount:0+2 line:616 name:var%at_gamma(:)
host:0x17f78ac0 device:0x4006925bca00 size:180000 presentcount:0+3 line:616 name:var%pl_index(:,:)
host:0x17fa4a10 device:0x4006927bca00 size:180000 presentcount:0+3 line:616 name:var%pl_col(:,:)
host:0x17fd0960 device:0x4006923ffa00 size:8 presentcount:0+2 line:405 name:var%lmmax(:)
host:0x17fd0990 device:0x40043e3efa00 size:8 presentcount:0+2 line:430 name:var%lmax(:)
host:0x17fd09c0 device:0x4006923f1600 size:4324 presentcount:0+2 line:405 name:var%lmbase(:)
host:0x17fd1ad0 device:0x40043e3efc00 size:8 presentcount:0+2 line:430 name:var%lmmax(:)
host:0x17fd1b00 device:0x40043e3f0000 size:8 presentcount:0+2 line:430 name:var%channels(:)
host:0x17fd1b30 device:0x40063c1ff800 size:16 presentcount:0+2 line:430 name:var%rsmooth(:)
host:0x180423d0 device:0x400734c00000 size:231680 presentcount:0+1 line:499 name:var%tbl(:)
host:0x180b3630 device:0x400b121b9400 size:272160 presentcount:0+1 line:499 name:var%tbli(:)
host:0x180f5d80 device:0x4006925fc400 size:516 presentcount:0+1 line:499 name:var%ptri(:)
host:0x180f5fb0 device:0x4006925fc000 size:516 presentcount:0+1 line:499 name:var%ni(:)
host:0x180f61e0 device:0x4006925fcc00 size:516 presentcount:0+1 line:499 name:var%ptr(:)
host:0x180f6410 device:0x4006925fc800 size:516 presentcount:0+1 line:499 name:var%n(:)
host:0x180f6640 device:0x40061c3fe400 size:4 presentcount:0+1 line:499 name:var%tbli(:)
host:0x180f6670 device:0x4006925fd400 size:516 presentcount:0+1 line:499 name:var%ptri(:)
host:0x180f68a0 device:0x4006925fd000 size:516 presentcount:0+1 line:499 name:var%ni(:)
host:0x180f8c80 device:0x4006925f4400 size:516 presentcount:0+1 line:499 name:var%ptr(:)
host:0x18103bd0 device:0x4006923ffc00 size:516 presentcount:0+1 line:499 name:var%n(:)
host:0x18103e00 device:0x4006925f4c00 size:516 presentcount:0+1 line:499 name:var%ptri(:)
host:0x18104030 device:0x4006925f4800 size:516 presentcount:0+1 line:499 name:var%ni(:)
host:0x18104260 device:0x4006925f5400 size:516 presentcount:0+1 line:499 name:var%ptr(:)
host:0x18104490 device:0x4006925f5000 size:516 presentcount:0+1 line:499 name:var%n(:)
host:0x181046c0 device:0x4006925f5c00 size:516 presentcount:0+1 line:499 name:var%ptri(:)
host:0x181048f0 device:0x4006925f5800 size:516 presentcount:0+1 line:499 name:var%ni(:)
host:0x1824c690 device:0x400735600000 size:7284736 presentcount:0+3 line:616 name:var%datake(:,:,:)
host:0x1893f910 device:0x400692600000 size:1821184 presentcount:0+3 line:616 name:var%igx(:,:)
host:0x18afcfa0 device:0x400692200000 size:1821184 presentcount:0+3 line:616 name:var%igy(:,:)
host:0x18cba840 device:0x400692800000 size:1821184 presentcount:0+3 line:616 name:var%igz(:,:)
host:0x18e78710 device:0x400693200000 size:7284272 presentcount:0+4 line:519 name:var%fftsca(:,:)
host:0x1956ad70 device:0x400b123b9400 size:272160 presentcount:0+1 line:499 name:var%tbl(:)
host:0x196832d0 device:0x400734e00000 size:1807360 presentcount:0+1 line:499 name:var%tbl(:)
host:0x199f8ec0 device:0x400b12000000 size:1807200 presentcount:0+1 line:499 name:var%tbli(:)
host:0x19bb3f30 device:0x400b12200000 size:1807200 presentcount:0+1 line:499 name:var%tbl(:)
host:0x19f2a640 device:0x400b12400000 size:1807200 presentcount:0+1 line:499 name:var%tbli(:)
host:0x1ab62420 device:0x40063c1f4000 size:41984 presentcount:0+1 line:746 name:var%auxtot(:,:,:)
host:0x1ab92420 device:0x40043e3e4000 size:41984 presentcount:0+2 line:746 name:var%fertot(:,:,:)
host:0x1aba0030 device:0x40056e31a000 size:83968 presentcount:0+2 line:746 name:var%celtot(:,:,:)
host:0x1adcd760 device:0x400691e00000 size:2799360 presentcount:0+2 line:194 name:cdij(:,:,:,:)
host:0x1c1d1070 device:0x400692a00000 size:7200000 presentcount:0+1 line:195 name:dencor(:)
host:0x1cf9b570 device:0x400b12600000 size:2799360 presentcount:0+2 line:194 name:cqij(:,:,:,:)
host:0x1d4fb220 device:0x400735200000 size:4030464 presentcount:0+5 line:746 name:var%gproj(:,:,:,:)
host:0x1db8a070 device:0x40056e3b2800 size:98304 presentcount:0+1 line:1101 name:w1%gproj(:)
host:0x24713c00 device:0x400734d40a00 size:393216 presentcount:0+2 line:1226 name:wa%gproj(:,:)
host:0x24773c30 device:0x400b038c0000 size:393216 presentcount:0+2 line:1226 name:wa%gproj(:,:)
host:0x247dafe0 device:0x400c95600000 size:3145728 presentcount:0+2 line:1226 name:wa%gproj(:,:)
host:0x289f1bb0 device:0x40056e3ca800 size:98304 presentcount:0+1 line:1101 name:w1%gproj(:)
host:0x28a1b050 device:0x4006929fcc00 size:2048 presentcount:0+1 line:179 name:w1(:)
host:0x28a1e9a0 device:0x4006927fa600 size:2048 presentcount:0+1 line:179 name:wtmp(:)
host:0x28a29230 device:0x400b71e00000 size:7284736 presentcount:0+1 line:1101 name:w1%cptwfp(:)
host:0x2911ba60 device:0x400b125b9400 size:98304 presentcount:0+1 line:1101 name:w1%gproj(:)
host:0x29133a90 device:0x400b125d1400 size:98304 presentcount:0+1 line:1101 name:w1%gproj(:)
host:0x29371ee0 device:0x400c96a00000 size:14569472 presentcount:0+1 line:202 name:precon(:,:)
host:0x2a15ead0 device:0x400b0fa00000 size:7284736 presentcount:0+1 line:1101 name:w1%cptwfp(:)
host:0x2a8594f0 device:0x400c95a00000 size:7284736 presentcount:0+1 line:1101 name:w1%cptwfp(:)
host:0x2af4bf30 device:0x400c96200000 size:7284736 presentcount:0+1 line:1101 name:w1%cptwfp(:)
host:0x40047c0010a0 device:0x400693a00000 size:45593280 presentcount:0+2 line:430 name:var%nli(:,:)
host:0x40047eb839e0 device:0x400b12a00000 size:14458880 presentcount:0+1 line:195 name:cstrf(:,:)
host:0x4004ca3131a0 device:0x4006edc00000 size:230400000 presentcount:0+2 line:194 name:sv(:,:)
host:0x4004dadb6d70 device:0x400c91e00000 size:29138944 presentcount:0+2 line:1226 name:wa%cptwfp(:,:)
host:0x4005800012b0 device:0x4006a0000000 size:807411968 presentcount:0+2 line:430 name:var%rproj(:)
host:0x4005b0216f80 device:0x400c93a00000 size:29138944 presentcount:0+2 line:1226 name:wa%cptwfp(:,:)
host:0x4005b1df7190 device:0x400b60000000 size:233111552 presentcount:0+2 line:1226 name:wa%cptwfp(:,:)
host:0x400660004a60 device:0x400680000000 size:298674176 presentcount:0+5 line:746 name:var%cptwfp(:,:,:,:)
host:0x400671ce77c0 device:0x400480000000 size:230400000 presentcount:0+1 line:1101 name:w1%cr(:)
host:0x4007a00079d0 device:0x4006d0400000 size:230400000 presentcount:0+1 line:1236 name:w1%cr(:)
host:0x4007adbd7df0 device:0x400720000000 size:230400000 presentcount:0+1 line:1101 name:w1%cr(:)
host:0x4009c0008000 device:0x4006e0000000 size:230400000 presentcount:0+1 line:1236 name:w1%cr(:)
host:0x4009cdbd8420 device:0x400ae0000000 size:230400000 presentcount:0+1 line:1101 name:w1%cr(:)
host:0x400ac0000020 device:0x400c71e00000 size:230400000 presentcount:0+1 line:1236 name:w1%cr(:)
host:0x400acdbc0440 device:0x400c51e00000 size:230400000 presentcount:0+1 line:1101 name:w1%cr(:)
host:0x400b40000650 device:0x400c31e00000 size:230400000 presentcount:0+1 line:1236 name:w1%cr(:)
host:0xffffc571b490 device:0x4006927fb200 size:3024 presentcount:0+12 line:682 name:var
host:0xffffc571c060 device:0x4005dc5ff800 size:1480 presentcount:0+1 line:174 name:w_ini
host:0xffffc571c630 device:0x4006927f9c00 size:1480 presentcount:0+1 line:174 name:wopt
host:0xffffc571cc00 device:0x40061c3fbc00 size:1480 presentcount:0+1 line:174 name:wtmpa
allocated block device:0x40043e3e4000 size:41984 thread:1
allocated block device:0x40043e3ee400 size:4608 thread:1
allocated block device:0x40043e3ef600 size:512 thread:1
allocated block device:0x40043e3ef800 size:512 thread:1
allocated block device:0x40043e3efa00 size:512 thread:1
allocated block device:0x40043e3efc00 size:512 thread:1
allocated block device:0x40043e3efe00 size:512 thread:1
allocated block device:0x40043e3f0000 size:512 thread:1
allocated block device:0x40043e3f0200 size:512 thread:1
allocated block device:0x40043e3f0400 size:5120 thread:1
allocated block device:0x40043e3f1800 size:1536 thread:1
allocated block device:0x40043e3f1e00 size:1024 thread:1
allocated block device:0x40043e3f2200 size:1024 thread:1
allocated block device:0x40043e3f2600 size:1536 thread:1
allocated block device:0x40043e3f2c00 size:1024 thread:1
allocated block device:0x40043e3f3000 size:1024 thread:1
allocated block device:0x40043e3f3400 size:17408 thread:1
allocated block device:0x40043e3f7800 size:17408 thread:1
allocated block device:0x40043e3fbc00 size:2048 thread:1
allocated block device:0x40043e3fc400 size:512 thread:1
allocated block device:0x40043e3fc600 size:4608 thread:1
allocated block device:0x40043e3fd800 size:512 thread:1
allocated block device:0x40043e3fda00 size:4608 thread:1
allocated block device:0x40043e3fec00 size:3072 thread:1
allocated block device:0x40043e3ff800 size:512 thread:1
allocated block device:0x40043e3ffa00 size:512 thread:1
allocated block device:0x40043e3ffc00 size:512 thread:1
allocated block device:0x40043e3ffe00 size:512 thread:1
allocated block device:0x400480000000 size:230400000 thread:1
allocated block device:0x40056e31a000 size:83968 thread:1
allocated block device:0x40056e32e800 size:180224 thread:1
allocated block device:0x40056e35a800 size:180224 thread:1
allocated block device:0x40056e386800 size:180224 thread:1
allocated block device:0x40056e3b2800 size:98304 thread:1
allocated block device:0x40056e3ca800 size:98304 thread:1
allocated block device:0x4005dc5ff800 size:1536 thread:1
allocated block device:0x4005fc1ffa00 size:1024 thread:1
allocated block device:0x40061c3fbc00 size:2048 thread:1
allocated block device:0x40061c3fc600 size:2560 thread:1
allocated block device:0x40061c3fd000 size:512 thread:1
allocated block device:0x40061c3fd200 size:4608 thread:1
allocated block device:0x40061c3fe400 size:512 thread:1
allocated block device:0x40061c3fe600 size:4608 thread:1
allocated block device:0x40061c3ff800 size:512 thread:1
allocated block device:0x40061c3ffa00 size:512 thread:1
allocated block device:0x40061c3ffc00 size:512 thread:1
allocated block device:0x40061c3ffe00 size:512 thread:1
allocated block device:0x40063c1f4000 size:41984 thread:1
allocated block device:0x40063c1fe400 size:5120 thread:1
allocated block device:0x40063c1ff800 size:512 thread:1
allocated block device:0x40063c1ffa00 size:512 thread:1
allocated block device:0x40063c1ffc00 size:512 thread:1
allocated block device:0x40063c1ffe00 size:512 thread:1
allocated block device:0x400680000000 size:298674176 thread:1
allocated block device:0x400691e00000 size:4030464 thread:1
allocated block device:0x400692200000 size:1821184 thread:1
allocated block device:0x4006923bca00 size:180224 thread:1
allocated block device:0x4006923e8a00 size:26112 thread:1
allocated block device:0x4006923ef000 size:512 thread:1
allocated block device:0x4006923ef200 size:4608 thread:1
allocated block device:0x4006923f0400 size:4608 thread:1
allocated block device:0x4006923f1600 size:4608 thread:1
allocated block device:0x4006923f2800 size:512 thread:1
allocated block device:0x4006923f2a00 size:24064 thread:1
allocated block device:0x4006923f8800 size:512 thread:1
allocated block device:0x4006923f8a00 size:512 thread:1
allocated block device:0x4006923f8c00 size:24064 thread:1
allocated block device:0x4006923fea00 size:512 thread:1
allocated block device:0x4006923fec00 size:512 thread:1
allocated block device:0x4006923fee00 size:3072 thread:1
allocated block device:0x4006923ffa00 size:512 thread:1
allocated block device:0x4006923ffc00 size:1024 thread:1
allocated block device:0x400692400000 size:1821184 thread:1
allocated block device:0x4006925bca00 size:180224 thread:1
allocated block device:0x4006925e8a00 size:3072 thread:1
allocated block device:0x4006925e9600 size:5120 thread:1
allocated block device:0x4006925eaa00 size:1536 thread:1
allocated block device:0x4006925eb000 size:2560 thread:1
allocated block device:0x4006925eba00 size:1536 thread:1
allocated block device:0x4006925ec000 size:2048 thread:1
allocated block device:0x4006925ec800 size:7680 thread:1
allocated block device:0x4006925ee600 size:7680 thread:1
allocated block device:0x4006925f0400 size:3072 thread:1
allocated block device:0x4006925f1000 size:3072 thread:1
allocated block device:0x4006925f1c00 size:5120 thread:1
allocated block device:0x4006925f3000 size:5120 thread:1
allocated block device:0x4006925f4400 size:1024 thread:1
allocated block device:0x4006925f4800 size:1024 thread:1
allocated block device:0x4006925f4c00 size:1024 thread:1
allocated block device:0x4006925f5000 size:1024 thread:1
allocated block device:0x4006925f5400 size:1024 thread:1
allocated block device:0x4006925f5800 size:1024 thread:1
allocated block device:0x4006925f5c00 size:1024 thread:1
allocated block device:0x4006925f6000 size:5120 thread:1
allocated block device:0x4006925f7400 size:1536 thread:1
allocated block device:0x4006925f7a00 size:1024 thread:1
allocated block device:0x4006925f7e00 size:1024 thread:1
allocated block device:0x4006925f8200 size:1536 thread:1
allocated block device:0x4006925f8800 size:1024 thread:1
allocated block device:0x4006925f8c00 size:1024 thread:1
allocated block device:0x4006925f9000 size:1024 thread:1
allocated block device:0x4006925f9400 size:3072 thread:1
allocated block device:0x4006925fa000 size:3072 thread:1
allocated block device:0x4006925fac00 size:1536 thread:1
allocated block device:0x4006925fb200 size:1536 thread:1
allocated block device:0x4006925fb800 size:1024 thread:1
allocated block device:0x4006925fbc00 size:1024 thread:1
allocated block device:0x4006925fc000 size:1024 thread:1
allocated block device:0x4006925fc400 size:1024 thread:1
allocated block device:0x4006925fc800 size:1024 thread:1
allocated block device:0x4006925fcc00 size:1024 thread:1
allocated block device:0x4006925fd000 size:1024 thread:1
allocated block device:0x4006925fd400 size:1024 thread:1
allocated block device:0x4006925fd800 size:1536 thread:1
allocated block device:0x4006925fde00 size:1024 thread:1
allocated block device:0x4006925fe200 size:512 thread:1
allocated block device:0x4006925fe400 size:2560 thread:1
allocated block device:0x4006925fee00 size:3072 thread:1
allocated block device:0x400692600000 size:1821184 thread:1
allocated block device:0x4006927bca00 size:180224 thread:1
allocated block device:0x4006927e8a00 size:28672 thread:1
allocated block device:0x4006927efa00 size:40448 thread:1
allocated block device:0x4006927f9c00 size:2560 thread:1
allocated block device:0x4006927fa600 size:3072 thread:1
allocated block device:0x4006927fb200 size:3072 thread:1
allocated block device:0x400692800000 size:1821184 thread:1
allocated block device:0x4006929bca00 size:180224 thread:1
allocated block device:0x4006929e8a00 size:40448 thread:1
allocated block device:0x4006929fcc00 size:2048 thread:1
allocated block device:0x400692a00000 size:7284736 thread:1
allocated block device:0x400693200000 size:7284736 thread:1
allocated block device:0x400693a00000 size:45593600 thread:1
allocated block device:0x4006a0000000 size:807412224 thread:1
allocated block device:0x4006d0400000 size:230400000 thread:1
host:0x25572c0 device:0x40069c1ffc00 size:32 presentcount:0+6 line:655 name:var%comm_kin
host:0x25572e0 device:0x40069c1ff400 size:32 presentcount:0+3 line:646 name:var%comm_inter
host:0x2557300 device:0x40069c1ff600 size:32 presentcount:0+7 line:649 name:var%comm_inb
host:0x256be80 device:0x4004ba0ecd00 size:8 presentcount:0+1 line:-1 name:_setexm_struct_def_21
host:0x2576f40 device:0x4004ba0ece00 size:28 presentcount:0+1 line:-1 name:_ml_ff_constant_21
host:0x2577c80 device:0x4004ba0ecf00 size:30437 presentcount:0+1 line:-1 name:_ml_ff_taglist_21
allocated block device:0x4006e0000000 size:230400000 thread:1
allocated block device:0x4006edc00000 size:230400000 thread:1
allocated block device:0x400720000000 size:230400000 thread:1
allocated block device:0x400734c00000 size:391680 thread:1
allocated block device:0x400734c5fa00 size:921600 thread:1
allocated block device:0x400734d40a00 size:393216 thread:1
allocated block device:0x400734e00000 size:2799616 thread:1
allocated block device:0x400735200000 size:4030464 thread:1
allocated block device:0x400735600000 size:7284736 thread:1
allocated block device:0x400ae0000000 size:298674176 thread:1
allocated block device:0x400b038c0000 size:393216 thread:1
allocated block device:0x400b0fa00000 size:7284736 thread:1
allocated block device:0x400b12000000 size:1807360 thread:1
allocated block device:0x400b121b9400 size:272384 thread:1
allocated block device:0x400b121fbc00 size:8192 thread:1
allocated block device:0x400b121fdc00 size:8192 thread:1
allocated block device:0x400b121ffc00 size:512 thread:1
host:0x25afc80 device:0x4004ba0f4600 size:8 presentcount:0+1 line:-1 name:_mopenacc_tutor_21
host:0x25c2740 device:0x4004ba0f4a00 size:32 presentcount:0+1 line:-1 name:_mbj_21
host:0x25cd640 device:0x4004ba0f4d00 size:8 presentcount:0+1 line:-1 name:_sym_prec_21
host:0x26030c0 device:0x4004ba0f4e00 size:344 presentcount:0+1 line:-1 name:_tet_21
host:0x261c840 device:0x4004ba0f5000 size:392 presentcount:0+1 line:-1 name:_mymath_21
host:0x2817368 device:0x4004be5eec00 size:4800 presentcount:0+2 line:614 name:var
host:0x2818628 device:0x4004be5fa400 size:1984 presentcount:0+2 line:403 name:var
host:0x281a910 device:0x40065c3ff800 size:864 presentcount:0+4 line:2639 name:hamiltonian
host:0x286ac80 device:0x4004be5fd400 size:2712 presentcount:0+2 line:428 name:var
host:0x286b718 device:0x40069c1fae00 size:2248 presentcount:0+1 line:742 name:var
host:0x286eb50 device:0x4007127ff800 size:288 presentcount:0+1 line:195 name:latt_cur
allocated block device:0x400b12200000 size:1807360 thread:1
allocated block device:0x400b123b9400 size:272384 thread:1
allocated block device:0x400b123fbc00 size:8192 thread:1
allocated block device:0x400b12400000 size:1807360 thread:1
allocated block device:0x400b125b9400 size:98304 thread:1
host:0x2871658 device:0x4006bc3fe400 size:5088 presentcount:0+28 line:517 name:var
host:0x2872a38 device:0x4007125f4800 size:5088 presentcount:0+6 line:517 name:var
host:0x2873e18 device:0x4007125e8a00 size:5088 presentcount:0+7 line:517 name:var
host:0x287a2a8 device:0x40069c1fe000 size:304 presentcount:0+1 line:567 name:var
host:0x287a3d8 device:0x4007125fca00 size:304 presentcount:0+1 line:567 name:var
host:0x2e48ec0 device:0x4004ba002600 size:960024 presentcount:0+1 line:-1 name:_setexm_struct_def_16
host:0x2f8f080 device:0x4004ba0f4700 size:580 presentcount:0+1 line:-1 name:_wpbe_16
allocated block device:0x400b125d1400 size:98304 thread:1
allocated block device:0x400b12600000 size:2799616 thread:1
allocated block device:0x400b12a00000 size:14458880 thread:1
allocated block device:0x400b60000000 size:298674176 thread:1
allocated block device:0x400b71e00000 size:7284736 thread:1
allocated block device:0x400c31e00000 size:230400000 thread:1
allocated block device:0x400c51e00000 size:230400000 thread:1
allocated block device:0x400c71e00000 size:230400000 thread:1
allocated block device:0x400c91e00000 size:29138944 thread:1
allocated block device:0x400c93a00000 size:29138944 thread:1
allocated block device:0x400c95600000 size:3145728 thread:1
allocated block device:0x400c95a00000 size:7284736 thread:1
allocated block device:0x400c96200000 size:7284736 thread:1
allocated block device:0x400c96a00000 size:14569472 thread:1
host:0x2f8f900 device:0x4004ba0f4b00 size:288 presentcount:0+1 line:-1 name:_mbj_16
host:0x9f446c0 device:0x4004ba0f5200 size:624 presentcount:0+1 line:-1 name:_mlr_optic_16
host:0x29bcdcf0 device:0x4004be5fe600 size:24 presentcount:0+3 line:616 name:var%vkpt(:,:)
host:0x29bcddc0 device:0x4004be5fe800 size:8 presentcount:0+2 line:616 name:var%wtkpt(:)
host:0x29bcddf0 device:0x4004be5fe200 size:8 presentcount:0+3 line:616 name:var%nityp(:)
Accelerator Fatal Error: call to cuMemAlloc returned error 2 (CUDA_ERROR_OUT_OF_MEMORY): Out of memory
 File: /lus/lfs1aip2/projects/u6cb/software/VASP/vasp.6.5.1/build/gam/hamil.f90
 Function: hamiltmu:978
 Line: 1005

host:0x29bcdf70 device:0x4004be5eea00 size:16 presentcount:0+2 line:430 name:var%psrmax(:)
host:0x29bcdfb0 device:0x4004be5fe000 size:8 presentcount:0+3 line:616 name:var%lmmax(:)
host:0x29bcdfe0 device:0x4004be5fe400 size:8 presentcount:0+3 line:616 name:var%nt_global(:)
host:0x29bce010 device:0x4004be5ffe00 size:4 presentcount:0+2 line:616 name:var%nplwkp(:)
host:0x29bce040 device:0x4007123f7200 size:4 presentcount:0+2 line:616 name:var%nplwkp_tot(:)
host:0x29bce070 device:0x4007123fd200 size:4 presentcount:0+2 line:616 name:var%ngvector_pos(:)
host:0x29bce0a0 device:0x4004be5ffc00 size:4 presentcount:0+2 line:616 name:var%ngvector(:)
host:0x29bce0d0 device:0x4004be5fac00 size:8 presentcount:0+2 line:616 name:var%nb_totk(:,:)
host:0x29bce100 device:0x4007123fd400 size:4 presentcount:0+2 line:616 name:var%luseinv(:)
host:0x29bce130 device:0x4004be5ee600 size:4 presentcount:0+2 line:616 name:var%at_gamma(:)
host:0x29bce160 device:0x4007123fee00 size:8 presentcount:0+2 line:405 name:var%lmmax(:)
host:0x29bce190 device:0x40069c1ffe00 size:8 presentcount:0+2 line:430 name:var%lmax(:)
host:0x29bce1c0 device:0x4004be5ee400 size:8 presentcount:0+2 line:430 name:var%lmmax(:)
host:0x2ad8cdb0 device:0x4007125f7800 size:528 presentcount:0+1 line:480 name:var
host:0x2efdd980 device:0x40069c1ff800 size:8 presentcount:0+4 line:405 name:var%nityp(:)
host:0x2f4dc190 device:0x4004be5f0a00 size:1000 presentcount:0+4 line:519 name:var%lpctz(:)
host:0x2f95f290 device:0x4007127e8a00 size:28464 presentcount:0+1 line:853 name:var(:)
host:0x2f971a10 device:0x4007129e8a00 size:40000 presentcount:0+1 line:857 name:var%psp(:,:)
host:0x2f97b680 device:0x4007127fd800 size:8000 presentcount:0+1 line:857 name:var%psprho(:)
host:0x2f97e910 device:0x4007123f7400 size:24000 presentcount:0+2 line:466 name:var%psprnl(:,:,:)
host:0x2f9ae2f0 device:0x4007123ef000 size:4320 presentcount:0+4 line:405 name:var%ityp(:)
host:0x2f9af400 device:0x4007123e8a00 size:25920 presentcount:0+4 line:405 name:var%posion(:,:)
host:0x2f9f2760 device:0x4007127efa00 size:40000 presentcount:0+1 line:857 name:var%psp(:,:)
host:0x2f9fc3d0 device:0x4007127f9800 size:8000 presentcount:0+1 line:857 name:var%pspcor(:)
host:0x2f9fe340 device:0x4007127fb800 size:8000 presentcount:0+1 line:857 name:var%psprho(:)
host:0x2fa015d0 device:0x4007123f1400 size:24000 presentcount:0+2 line:466 name:var%psprnl(:,:,:)
host:0x2fa4e590 device:0x4006bc3ffc00 size:24 presentcount:0+3 line:466 name:var%lps(:)
host:0x2fa4e640 device:0x40069c1fb800 size:24 presentcount:0+3 line:466 name:var%lps(:)
host:0x2fb4d830 device:0x4004be5fea00 size:4320 presentcount:0+3 line:616 name:var%ityp(:)
host:0x2fb4e940 device:0x4004be5fc200 size:4320 presentcount:0+3 line:616 name:var%npro_pos(:)
host:0x2fb4fa50 device:0x4004be5fae00 size:4324 presentcount:0+3 line:616 name:var%lmbase(:)
host:0x2fb50b60 device:0x4004be5f0000 size:1280 presentcount:0+4 line:519 name:var%lpctx(:)
host:0x2fb51090 device:0x4004be5f0600 size:720 presentcount:0+4 line:519 name:var%lpcty(:)
host:0x2fb51390 device:0x4004be5f0e00 size:1280 presentcount:0+4 line:519 name:var%lpctx_(:)
host:0x2fb518c0 device:0x4004be5f1400 size:720 presentcount:0+4 line:519 name:var%lpcty_(:)
host:0x2fb51bc0 device:0x4004be5f1800 size:1000 presentcount:0+4 line:519 name:var%lpctz_(:)
host:0x2fb51fd0 device:0x4007125f5c00 size:1280 presentcount:0+1 line:519 name:var%lpctx(:)
host:0x2fb52500 device:0x4007125f6200 size:720 presentcount:0+1 line:519 name:var%lpcty(:)
host:0x2fb52800 device:0x4007125f6600 size:1000 presentcount:0+1 line:519 name:var%lpctz(:)
host:0x2fb52c10 device:0x4007125f6a00 size:1280 presentcount:0+1 line:519 name:var%lpctx_(:)
host:0x2fb53140 device:0x4007125f7000 size:720 presentcount:0+1 line:519 name:var%lpcty_(:)
host:0x2fb53440 device:0x4007125f7400 size:1000 presentcount:0+1 line:519 name:var%lpctz_(:)
host:0x2fb53850 device:0x4007123fd600 size:2560 presentcount:0+1 line:519 name:var%lpctx(:)
host:0x2fb54280 device:0x4007123ff000 size:1440 presentcount:0+1 line:519 name:var%lpcty(:)
host:0x2fb54850 device:0x4007123fe200 size:2000 presentcount:0+1 line:519 name:var%lpctz(:)
host:0x2fb55050 device:0x4007123ff600 size:2560 presentcount:0+1 line:519 name:var%lpctx_(:)
host:0x2fb55a80 device:0x4007125e9e00 size:1440 presentcount:0+1 line:519 name:var%lpcty_(:)
host:0x2fb56050 device:0x4007125ea400 size:2000 presentcount:0+1 line:519 name:var%lpctz_(:)
host:0x2fc42130 device:0x4007125ee800 size:2824 presentcount:0+1 line:482 name:var%i2(:)
host:0x2fc42c60 device:0x4007125ef400 size:2824 presentcount:0+1 line:482 name:var%i3(:)
host:0x2fc43790 device:0x4007125f0000 size:5020 presentcount:0+1 line:482 name:var%i2(:)
host:0x2fc44b60 device:0x4007125f1400 size:5020 presentcount:0+1 line:482 name:var%i3(:)
host:0x2fc45f30 device:0x4007125eac00 size:7200 presentcount:0+2 line:482 name:var%i2(:)
host:0x2fc47b80 device:0x4007125eca00 size:7200 presentcount:0+2 line:482 name:var%i3(:)
host:0x2fc49bf0 device:0x4007b4c5fa00 size:921600 presentcount:0+2 line:482 name:var%index(:,:)
host:0x2fd2ac20 device:0x4007125fcc00 size:2560 presentcount:0+1 line:569 name:var%ind1(:)
host:0x2fd2b650 device:0x4007125fd600 size:2824 presentcount:0+1 line:569 name:var%indcol(:)
host:0x2fd2c180 device:0x4007125f7c00 size:2824 presentcount:0+1 line:482 name:var%i2(:)
host:0x2fd2ccb0 device:0x4007125f8800 size:2824 presentcount:0+1 line:482 name:var%i3(:)
host:0x2fd2d7e0 device:0x4007125f9400 size:1512 presentcount:0+1 line:482 name:var%i2(:)
host:0x2fd2ddf0 device:0x4007125f9a00 size:1512 presentcount:0+1 line:482 name:var%i3(:)
host:0x2fd2e400 device:0x40069c1fba00 size:4320 presentcount:0+2 line:430 name:var%nlimax(:)
host:0x2fd2f510 device:0x40069c1fce00 size:4324 presentcount:0+2 line:430 name:var%lmbase(:)
host:0x2fd30620 device:0x40069c1fe200 size:4324 presentcount:0+2 line:430 name:var%nlibase(:)
host:0x2fd31730 device:0x4004be5f1c00 size:17132 presentcount:0+4 line:519 name:var%nindpwconjg(:)
host:0x2fd35a50 device:0x4004be5f6000 size:17132 presentcount:0+4 line:519 name:var%ind_in_sphere(:)
host:0x2fd3aca0 device:0x400b921b9400 size:181440 presentcount:0+1 line:499 name:var%tbli(:)
host:0x2fd67190 device:0x4007125fac00 size:516 presentcount:0+1 line:499 name:var%ptri(:)
host:0x2fd673c0 device:0x4007125fa800 size:516 presentcount:0+1 line:499 name:var%ni(:)
host:0x2fd675f0 device:0x4007125fb400 size:516 presentcount:0+1 line:499 name:var%ptr(:)
host:0x2fd67820 device:0x40069c1fcc00 size:4 presentcount:0+1 line:499 name:var%tbli(:)
host:0x2fd67970 device:0x4007125fc000 size:1280 presentcount:0+1 line:569 name:var%ind1(:)
host:0x2fd67ea0 device:0x4007125fc600 size:688 presentcount:0+1 line:569 name:var%indcol(:)
host:0x2fd68180 device:0x4005f012e800 size:180000 presentcount:0+4 line:482 name:var%i2(:)
host:0x2fd940d0 device:0x4005f015a800 size:180000 presentcount:0+4 line:482 name:var%i3(:)
host:0x2fdc0020 device:0x4007123bca00 size:180000 presentcount:0+8 line:482 name:var%index(:,:)
host:0x2fdebf70 device:0x4007129bca00 size:180000 presentcount:0+8 line:482 name:var%i2(:)
host:0x2fe17ec0 device:0x4005f0186800 size:180000 presentcount:0+8 line:482 name:var%i3(:)
host:0x2fe44440 device:0x400712400000 size:1821184 presentcount:0+3 line:616 name:var%nindpw(:,:)
host:0x30000e70 device:0x4007125bca00 size:180000 presentcount:0+3 line:616 name:var%pl_index(:,:)
host:0x3002cdc0 device:0x4007127bca00 size:180000 presentcount:0+3 line:616 name:var%pl_col(:,:)
host:0x30058d10 device:0x4007123f0200 size:4324 presentcount:0+2 line:405 name:var%lmbase(:)
host:0x30059e20 device:0x4004be5ee800 size:8 presentcount:0+2 line:430 name:var%channels(:)
host:0x30059e50 device:0x4006bc3ff800 size:16 presentcount:0+2 line:430 name:var%rsmooth(:)
host:0x30059e90 device:0x4006bc3ffa00 size:400 presentcount:0+2 line:464 name:var
host:0x3005a020 device:0x4006bc3ffe00 size:400 presentcount:0+2 line:464 name:var
host:0x300caa40 device:0x4007b4c00000 size:220160 presentcount:0+1 line:499 name:var%tbl(:)
host:0x30100670 device:0x4007125fa400 size:516 presentcount:0+1 line:499 name:var%ptr(:)
host:0x301008a0 device:0x4007125fa000 size:516 presentcount:0+1 line:499 name:var%n(:)
host:0x30100ad0 device:0x4007125fb000 size:516 presentcount:0+1 line:499 name:var%n(:)
host:0x30100d00 device:0x4007125fbc00 size:516 presentcount:0+1 line:499 name:var%ptri(:)
host:0x30100f30 device:0x4007125fb800 size:516 presentcount:0+1 line:499 name:var%ni(:)
host:0x30103260 device:0x4007125f2c00 size:516 presentcount:0+1 line:499 name:var%ptr(:)
host:0x30103690 device:0x4007125f2800 size:516 presentcount:0+1 line:499 name:var%n(:)
host:0x301038c0 device:0x4007125f3400 size:516 presentcount:0+1 line:499 name:var%ptri(:)
host:0x30249c30 device:0x4007b5600000 size:7284736 presentcount:0+3 line:616 name:var%datake(:,:,:)
host:0x3093ceb0 device:0x400712600000 size:1821184 presentcount:0+3 line:616 name:var%igx(:,:)
host:0x30afa540 device:0x400712200000 size:1821184 presentcount:0+3 line:616 name:var%igy(:,:)
host:0x30cb7de0 device:0x400712800000 size:1821184 presentcount:0+3 line:616 name:var%igz(:,:)
host:0x30e75cb0 device:0x400713200000 size:7284272 presentcount:0+4 line:519 name:var%fftsca(:,:)
host:0x3159df40 device:0x400b923b9400 size:181440 presentcount:0+1 line:499 name:var%tbl(:)
host:0x315d0fa0 device:0x4007125f3000 size:516 presentcount:0+1 line:499 name:var%ni(:)
host:0x315d11d0 device:0x4007125f3c00 size:516 presentcount:0+1 line:499 name:var%ptr(:)
host:0x315d1400 device:0x4007125f3800 size:516 presentcount:0+1 line:499 name:var%n(:)
host:0x315d1630 device:0x4007125f4400 size:516 presentcount:0+1 line:499 name:var%ptri(:)
host:0x315d1860 device:0x4007125f4000 size:516 presentcount:0+1 line:499 name:var%ni(:)
host:0x3169e000 device:0x4007b4e00000 size:1807360 presentcount:0+1 line:499 name:var%tbl(:)
host:0x31a13bf0 device:0x400b92000000 size:1807200 presentcount:0+1 line:499 name:var%tbli(:)
host:0x31bcec60 device:0x400b92200000 size:1807200 presentcount:0+1 line:499 name:var%tbl(:)
host:0x31f45370 device:0x400b92400000 size:1807200 presentcount:0+1 line:499 name:var%tbli(:)
host:0x323d2420 device:0x4006bc3f4000 size:41984 presentcount:0+1 line:746 name:var%auxtot(:,:,:)
host:0x323e2420 device:0x4004be5e4000 size:41984 presentcount:0+2 line:746 name:var%fertot(:,:,:)
host:0x323f0030 device:0x4005f011a000 size:83968 presentcount:0+2 line:746 name:var%celtot(:,:,:)
host:0x33f2bf60 device:0x400712a00000 size:7200000 presentcount:0+1 line:195 name:dencor(:)
host:0x34cf6250 device:0x400711e00000 size:2799360 presentcount:0+2 line:194 name:cdij(:,:,:,:)
host:0x34fa5970 device:0x400b92600000 size:2799360 presentcount:0+2 line:194 name:cqij(:,:,:,:)
host:0x35505620 device:0x4007b5200000 size:4030464 presentcount:0+5 line:746 name:var%gproj(:,:,:,:)
host:0x35b926e0 device:0x4005f01ca800 size:98304 presentcount:0+1 line:1101 name:w1%gproj(:)
host:0x3c8f2dd0 device:0x4007b4d40a00 size:393216 presentcount:0+2 line:1226 name:wa%gproj(:,:)
host:0x3c952e00 device:0x400b838c0000 size:393216 presentcount:0+2 line:1226 name:wa%gproj(:,:)
host:0x3c9ba1b0 device:0x400d15600000 size:3145728 presentcount:0+2 line:1226 name:wa%gproj(:,:)
host:0x40beb830 device:0x4007129fe200 size:2048 presentcount:0+1 line:179 name:w1(:)
host:0x40bec050 device:0x400b921f5600 size:2048 presentcount:0+1 line:179 name:wtmp(:)
host:0x40bf5400 device:0x400bf1e00000 size:7284736 presentcount:0+1 line:1101 name:w1%cptwfp(:)
host:0x412e7c30 device:0x4005f01b2800 size:98304 presentcount:0+1 line:1101 name:w1%gproj(:)
host:0x412ffc60 device:0x400b923e5a00 size:98304 presentcount:0+1 line:1101 name:w1%gproj(:)
host:0x41317c90 device:0x4005f01e2800 size:98304 presentcount:0+1 line:1101 name:w1%gproj(:)
host:0x415510b0 device:0x400d16a00000 size:14569472 presentcount:0+1 line:202 name:precon(:,:)
host:0x4233dca0 device:0x400b8fa00000 size:7284736 presentcount:0+1 line:1101 name:w1%cptwfp(:)
host:0x42a386c0 device:0x400d15a00000 size:7284736 presentcount:0+1 line:1101 name:w1%cptwfp(:)
host:0x4312b100 device:0x400d16200000 size:7284736 presentcount:0+1 line:1101 name:w1%cptwfp(:)
host:0x4004e40010a0 device:0x400713a00000 size:45593280 presentcount:0+2 line:430 name:var%nli(:,:)
host:0x4004e6b839e0 device:0x400b92a00000 size:14458880 presentcount:0+1 line:195 name:cstrf(:,:)
host:0x4005500031a0 device:0x40076dc00000 size:230400000 presentcount:0+2 line:194 name:sv(:,:)
host:0x4006000012b0 device:0x400720000000 size:807411968 presentcount:0+2 line:430 name:var%rproj(:)
host:0x400630216d70 device:0x400d11e00000 size:29138944 presentcount:0+2 line:1226 name:wa%cptwfp(:,:)
host:0x400631df6f80 device:0x400d13a00000 size:29138944 presentcount:0+2 line:1226 name:wa%cptwfp(:,:)
host:0x4006e0004a60 device:0x400700000000 size:298674176 presentcount:0+5 line:746 name:var%cptwfp(:,:,:,:)
host:0x400791ce7190 device:0x400be0000000 size:233111552 presentcount:0+2 line:1226 name:wa%cptwfp(:,:)
host:0x4008200077c0 device:0x400500000000 size:230400000 presentcount:0+1 line:1101 name:w1%cr(:)
host:0x40082dbd79d0 device:0x400750400000 size:230400000 presentcount:0+1 line:1236 name:w1%cr(:)
host:0x400a40007df0 device:0x4007a0000000 size:230400000 presentcount:0+1 line:1101 name:w1%cr(:)
host:0x400a4dbd8000 device:0x400760000000 size:230400000 presentcount:0+1 line:1236 name:w1%cr(:)
host:0x400b40008420 device:0x400b60000000 size:230400000 presentcount:0+1 line:1101 name:w1%cr(:)
host:0x400b4dbd0020 device:0x400cf1e00000 size:230400000 presentcount:0+1 line:1236 name:w1%cr(:)
host:0x400bc0000440 device:0x400cd1e00000 size:230400000 presentcount:0+1 line:1101 name:w1%cr(:)
host:0x400bcdbc0650 device:0x400cb1e00000 size:230400000 presentcount:0+1 line:1236 name:w1%cr(:)
host:0xffffc5ce5580 device:0x400b921f6200 size:3024 presentcount:0+12 line:682 name:var
host:0xffffc5ce6150 device:0x40067c3ff600 size:1480 presentcount:0+1 line:174 name:w_ini
host:0xffffc5ce6720 device:0x4007125ff600 size:1480 presentcount:0+1 line:174 name:wopt
host:0xffffc5ce6cf0 device:0x40069c1fa400 size:1480 presentcount:0+1 line:174 name:wtmpa
allocated block device:0x4004be5e4000 size:41984 thread:1
allocated block device:0x4004be5ee400 size:512 thread:1
allocated block device:0x4004be5ee600 size:512 thread:1
allocated block device:0x4004be5ee800 size:512 thread:1
allocated block device:0x4004be5eea00 size:512 thread:1
allocated block device:0x4004be5eec00 size:5120 thread:1
allocated block device:0x4004be5f0000 size:1536 thread:1
allocated block device:0x4004be5f0600 size:1024 thread:1
allocated block device:0x4004be5f0a00 size:1024 thread:1
allocated block device:0x4004be5f0e00 size:1536 thread:1
allocated block device:0x4004be5f1400 size:1024 thread:1
allocated block device:0x4004be5f1800 size:1024 thread:1
allocated block device:0x4004be5f1c00 size:17408 thread:1
allocated block device:0x4004be5f6000 size:17408 thread:1
allocated block device:0x4004be5fa400 size:2048 thread:1
allocated block device:0x4004be5fac00 size:512 thread:1
allocated block device:0x4004be5fae00 size:4608 thread:1
allocated block device:0x4004be5fc000 size:512 thread:1
allocated block device:0x4004be5fc200 size:4608 thread:1
allocated block device:0x4004be5fd400 size:3072 thread:1
allocated block device:0x4004be5fe000 size:512 thread:1
allocated block device:0x4004be5fe200 size:512 thread:1
allocated block device:0x4004be5fe400 size:512 thread:1
allocated block device:0x4004be5fe600 size:512 thread:1
allocated block device:0x4004be5fe800 size:512 thread:1
allocated block device:0x4004be5fea00 size:4608 thread:1
allocated block device:0x4004be5ffc00 size:512 thread:1
allocated block device:0x4004be5ffe00 size:512 thread:1
allocated block device:0x400500000000 size:230400000 thread:1
allocated block device:0x4005f011a000 size:83968 thread:1
allocated block device:0x4005f012e800 size:180224 thread:1
allocated block device:0x4005f015a800 size:180224 thread:1
allocated block device:0x4005f0186800 size:180224 thread:1
allocated block device:0x4005f01b2800 size:98304 thread:1
allocated block device:0x4005f01ca800 size:98304 thread:1
allocated block device:0x4005f01e2800 size:98304 thread:1
allocated block device:0x40065c3ff800 size:1024 thread:1
allocated block device:0x40067c3ff600 size:1536 thread:1
allocated block device:0x40069c1fa400 size:2048 thread:1
allocated block device:0x40069c1fae00 size:2560 thread:1
allocated block device:0x40069c1fb800 size:512 thread:1
allocated block device:0x40069c1fba00 size:4608 thread:1
allocated block device:0x40069c1fcc00 size:512 thread:1
allocated block device:0x40069c1fce00 size:4608 thread:1
allocated block device:0x40069c1fe000 size:512 thread:1
allocated block device:0x40069c1fe200 size:4608 thread:1
allocated block device:0x40069c1ff400 size:512 thread:1
allocated block device:0x40069c1ff600 size:512 thread:1
allocated block device:0x40069c1ff800 size:512 thread:1
allocated block device:0x40069c1ffa00 size:512 thread:1
allocated block device:0x40069c1ffc00 size:512 thread:1
allocated block device:0x40069c1ffe00 size:512 thread:1
allocated block device:0x4006bc3f4000 size:41984 thread:1
allocated block device:0x4006bc3fe400 size:5120 thread:1
allocated block device:0x4006bc3ff800 size:512 thread:1
allocated block device:0x4006bc3ffa00 size:512 thread:1
allocated block device:0x4006bc3ffc00 size:512 thread:1
allocated block device:0x4006bc3ffe00 size:512 thread:1
allocated block device:0x400700000000 size:298674176 thread:1
allocated block device:0x400711e00000 size:4030464 thread:1
allocated block device:0x400712200000 size:1821184 thread:1
allocated block device:0x4007123bca00 size:180224 thread:1
allocated block device:0x4007123e8a00 size:26112 thread:1
allocated block device:0x4007123ef000 size:4608 thread:1
allocated block device:0x4007123f0200 size:4608 thread:1
allocated block device:0x4007123f1400 size:24064 thread:1
allocated block device:0x4007123f7200 size:512 thread:1
allocated block device:0x4007123f7400 size:24064 thread:1
allocated block device:0x4007123fd200 size:512 thread:1
allocated block device:0x4007123fd400 size:512 thread:1
allocated block device:0x4007123fd600 size:3072 thread:1
allocated block device:0x4007123fe200 size:3072 thread:1
allocated block device:0x4007123fee00 size:512 thread:1
allocated block device:0x4007123ff000 size:1536 thread:1
allocated block device:0x4007123ff600 size:2560 thread:1
allocated block device:0x400712400000 size:1821184 thread:1
allocated block device:0x4007125bca00 size:180224 thread:1
allocated block device:0x4007125e8a00 size:5120 thread:1
allocated block device:0x4007125e9e00 size:1536 thread:1
allocated block device:0x4007125ea400 size:2048 thread:1
allocated block device:0x4007125eac00 size:7680 thread:1
allocated block device:0x4007125eca00 size:7680 thread:1
allocated block device:0x4007125ee800 size:3072 thread:1
allocated block device:0x4007125ef400 size:3072 thread:1
allocated block device:0x4007125f0000 size:5120 thread:1
allocated block device:0x4007125f1400 size:5120 thread:1
allocated block device:0x4007125f2800 size:1024 thread:1
allocated block device:0x4007125f2c00 size:1024 thread:1
allocated block device:0x4007125f3000 size:1024 thread:1
allocated block device:0x4007125f3400 size:1024 thread:1
allocated block device:0x4007125f3800 size:1024 thread:1
allocated block device:0x4007125f3c00 size:1024 thread:1
allocated block device:0x4007125f4000 size:1024 thread:1
allocated block device:0x4007125f4400 size:1024 thread:1
allocated block device:0x4007125f4800 size:5120 thread:1
allocated block device:0x4007125f5c00 size:1536 thread:1
allocated block device:0x4007125f6200 size:1024 thread:1
allocated block device:0x4007125f6600 size:1024 thread:1
allocated block device:0x4007125f6a00 size:1536 thread:1
allocated block device:0x4007125f7000 size:1024 thread:1
allocated block device:0x4007125f7400 size:1024 thread:1
allocated block device:0x4007125f7800 size:1024 thread:1
allocated block device:0x4007125f7c00 size:3072 thread:1
allocated block device:0x4007125f8800 size:3072 thread:1
allocated block device:0x4007125f9400 size:1536 thread:1
allocated block device:0x4007125f9a00 size:1536 thread:1
allocated block device:0x4007125fa000 size:1024 thread:1
allocated block device:0x4007125fa400 size:1024 thread:1
allocated block device:0x4007125fa800 size:1024 thread:1
allocated block device:0x4007125fac00 size:1024 thread:1
allocated block device:0x4007125fb000 size:1024 thread:1
allocated block device:0x4007125fb400 size:1024 thread:1
allocated block device:0x4007125fb800 size:1024 thread:1
allocated block device:0x4007125fbc00 size:1024 thread:1
allocated block device:0x4007125fc000 size:1536 thread:1
allocated block device:0x4007125fc600 size:1024 thread:1
allocated block device:0x4007125fca00 size:512 thread:1
allocated block device:0x4007125fcc00 size:2560 thread:1
allocated block device:0x4007125fd600 size:3072 thread:1
allocated block device:0x4007125ff600 size:2560 thread:1
allocated block device:0x400712600000 size:1821184 thread:1
allocated block device:0x4007127bca00 size:180224 thread:1
allocated block device:0x4007127e8a00 size:28672 thread:1
allocated block device:0x4007127efa00 size:40448 thread:1
allocated block device:0x4007127f9800 size:8192 thread:1
allocated block device:0x4007127fb800 size:8192 thread:1
allocated block device:0x4007127fd800 size:8192 thread:1
allocated block device:0x4007127ff800 size:512 thread:1
allocated block device:0x400712800000 size:1821184 thread:1
allocated block device:0x4007129bca00 size:180224 thread:1
allocated block device:0x4007129e8a00 size:40448 thread:1
allocated block device:0x4007129fe200 size:2048 thread:1
allocated block device:0x400712a00000 size:7284736 thread:1
allocated block device:0x400713200000 size:7284736 thread:1
allocated block device:0x400713a00000 size:45593600 thread:1
allocated block device:0x400720000000 size:807412224 thread:1
allocated block device:0x400750400000 size:230400000 thread:1
allocated block device:0x400760000000 size:230400000 thread:1
allocated block device:0x40076dc00000 size:230400000 thread:1
allocated block device:0x4007a0000000 size:230400000 thread:1
allocated block device:0x4007b4c00000 size:391680 thread:1
allocated block device:0x4007b4c5fa00 size:921600 thread:1
allocated block device:0x4007b4d40a00 size:393216 thread:1
allocated block device:0x4007b4e00000 size:2799616 thread:1
allocated block device:0x4007b5200000 size:4030464 thread:1
allocated block device:0x4007b5600000 size:7284736 thread:1
allocated block device:0x400b60000000 size:298674176 thread:1
allocated block device:0x400b838c0000 size:393216 thread:1
allocated block device:0x400b8fa00000 size:7284736 thread:1
allocated block device:0x400b92000000 size:1807360 thread:1
allocated block device:0x400b921b9400 size:181760 thread:1
allocated block device:0x400b921f5600 size:3072 thread:1
allocated block device:0x400b921f6200 size:3072 thread:1
allocated block device:0x400b92200000 size:1807360 thread:1
allocated block device:0x400b923b9400 size:181760 thread:1
allocated block device:0x400b923e5a00 size:98304 thread:1
allocated block device:0x400b92400000 size:1807360 thread:1
allocated block device:0x400b92600000 size:2799616 thread:1
allocated block device:0x400b92a00000 size:14458880 thread:1
allocated block device:0x400be0000000 size:298674176 thread:1
allocated block device:0x400bf1e00000 size:7284736 thread:1
allocated block device:0x400cb1e00000 size:230400000 thread:1
allocated block device:0x400cd1e00000 size:230400000 thread:1
allocated block device:0x400cf1e00000 size:230400000 thread:1
allocated block device:0x400d11e00000 size:29138944 thread:1
allocated block device:0x400d13a00000 size:29138944 thread:1
allocated block device:0x400d15600000 size:3145728 thread:1
allocated block device:0x400d15a00000 size:7284736 thread:1
allocated block device:0x400d16200000 size:7284736 thread:1
allocated block device:0x400d16a00000 size:14569472 thread:1
Accelerator Fatal Error: call to cuMemAlloc returned error 2 (CUDA_ERROR_OUT_OF_MEMORY): Out of memory
 File: /lus/lfs1aip2/projects/u6cb/software/VASP/vasp.6.5.1/build/gam/hamil.f90
 Function: hamiltmu:978
 Line: 1005

Out of memory allocating 921600000 bytes of device memory
Failing in Thread:1
total/free CUDA memory: 102005473280/318308352
Present table dump for device[1]: NVIDIA Tesla GPU 0, compute capability 9.0, threadid=1
Hint: specify 0x800 bit in NV_ACC_DEBUG for verbose info.
host:0x2557280 device:0x40053e3fc000 size:32 presentcount:0+3 line:643 name:var%comm
host:0x25572a0 device:0x40071c3ffa00 size:32 presentcount:0+4 line:652 name:var%comm_kinter
host:0x25572c0 device:0x40071c3ffc00 size:32 presentcount:0+6 line:655 name:var%comm_kin
host:0x25572e0 device:0x40071c3ff400 size:32 presentcount:0+3 line:646 name:var%comm_inter
host:0x2557300 device:0x40071c3ff600 size:32 presentcount:0+7 line:649 name:var%comm_inb
host:0x256be80 device:0x40053a0ecd00 size:8 presentcount:0+1 line:-1 name:_setexm_struct_def_21
host:0x2576f40 device:0x40053a0ece00 size:28 presentcount:0+1 line:-1 name:_ml_ff_constant_21
host:0x2577c80 device:0x40053a0ecf00 size:30437 presentcount:0+1 line:-1 name:_ml_ff_taglist_21
host:0x25afc80 device:0x40053a0f4600 size:8 presentcount:0+1 line:-1 name:_mopenacc_tutor_21
host:0x25c2740 device:0x40053a0f4a00 size:32 presentcount:0+1 line:-1 name:_mbj_21
host:0x25cd640 device:0x40053a0f4d00 size:8 presentcount:0+1 line:-1 name:_sym_prec_21
host:0x26030c0 device:0x40053a0f4e00 size:344 presentcount:0+1 line:-1 name:_tet_21
host:0x261c840 device:0x40053a0f5000 size:392 presentcount:0+1 line:-1 name:_mymath_21
host:0x2817368 device:0x40053e3eec00 size:4800 presentcount:0+2 line:614 name:var
host:0x2818628 device:0x40053e3fa400 size:1984 presentcount:0+2 line:403 name:var
host:0x281a910 device:0x4006dc5ff800 size:864 presentcount:0+4 line:2639 name:hamiltonian
host:0x286ac80 device:0x40053e3fd400 size:2712 presentcount:0+2 line:428 name:var
host:0x286b718 device:0x40071c3fae00 size:2248 presentcount:0+1 line:742 name:var
host:0x286eb50 device:0x4007927ff800 size:288 presentcount:0+1 line:195 name:latt_cur
host:0x2871658 device:0x40073c1fe400 size:5088 presentcount:0+28 line:517 name:var
host:0x2872a38 device:0x4007925f4800 size:5088 presentcount:0+6 line:517 name:var
host:0x2873e18 device:0x4007925e8a00 size:5088 presentcount:0+7 line:517 name:var
host:0x287a2a8 device:0x40071c3fe000 size:304 presentcount:0+1 line:567 name:var
host:0x287a3d8 device:0x4007925fca00 size:304 presentcount:0+1 line:567 name:var
host:0x2e48ec0 device:0x40053a002600 size:960024 presentcount:0+1 line:-1 name:_setexm_struct_def_16
host:0x2f8f080 device:0x40053a0f4700 size:580 presentcount:0+1 line:-1 name:_wpbe_16
host:0x2f8f900 device:0x40053a0f4b00 size:288 presentcount:0+1 line:-1 name:_mbj_16
host:0x9f446c0 device:0x40053a0f5200 size:624 presentcount:0+1 line:-1 name:_mlr_optic_16
host:0x459edcf0 device:0x40053e3fe600 size:24 presentcount:0+3 line:616 name:var%vkpt(:,:)
host:0x459edec0 device:0x40053e3eea00 size:16 presentcount:0+2 line:430 name:var%psrmax(:)
host:0x459edf00 device:0x40053e3fe000 size:8 presentcount:0+3 line:616 name:var%lmmax(:)
host:0x459edf30 device:0x40053e3fe400 size:8 presentcount:0+3 line:616 name:var%nt_global(:)
host:0x459edf60 device:0x40053e3ffe00 size:4 presentcount:0+2 line:616 name:var%nplwkp(:)
host:0x459edf90 device:0x4007923f7200 size:4 presentcount:0+2 line:616 name:var%nplwkp_tot(:)
host:0x459edfc0 device:0x4007923fd200 size:4 presentcount:0+2 line:616 name:var%ngvector_pos(:)
host:0x459edff0 device:0x40053e3ffc00 size:4 presentcount:0+2 line:616 name:var%ngvector(:)
host:0x459ee020 device:0x40053e3fac00 size:8 presentcount:0+2 line:616 name:var%nb_totk(:,:)
host:0x459ee050 device:0x4007923fd400 size:4 presentcount:0+2 line:616 name:var%luseinv(:)
host:0x459ee080 device:0x40053e3ee600 size:4 presentcount:0+2 line:616 name:var%at_gamma(:)
host:0x459ee0b0 device:0x4007923fee00 size:8 presentcount:0+2 line:405 name:var%lmmax(:)
host:0x459ee0e0 device:0x40071c3ffe00 size:8 presentcount:0+2 line:430 name:var%lmax(:)
host:0x459ee110 device:0x40053e3ee400 size:8 presentcount:0+2 line:430 name:var%lmmax(:)
host:0x459ee140 device:0x40053e3ee800 size:8 presentcount:0+2 line:430 name:var%channels(:)
host:0x459ee170 device:0x40073c1ff800 size:16 presentcount:0+2 line:430 name:var%rsmooth(:)
host:0x459ee1b0 device:0x40071c3fcc00 size:4 presentcount:0+1 line:499 name:var%tbli(:)
host:0x46129670 device:0x4007925f7800 size:528 presentcount:0+1 line:480 name:var
host:0x4a1e82b0 device:0x40073c1ffa00 size:400 presentcount:0+2 line:464 name:var
host:0x4a1e8440 device:0x40073c1ffe00 size:400 presentcount:0+2 line:464 name:var
host:0x4e87ff10 device:0x40071c3ff800 size:8 presentcount:0+4 line:405 name:var%nityp(:)
host:0x4ed7e720 device:0x40053e3f0a00 size:1000 presentcount:0+4 line:519 name:var%lpctz(:)
host:0x4f201920 device:0x4007927e8a00 size:28464 presentcount:0+1 line:853 name:var(:)
host:0x4f214080 device:0x4007929e8a00 size:40000 presentcount:0+1 line:857 name:var%psp(:,:)
host:0x4f21dcf0 device:0x4007927fd800 size:8000 presentcount:0+1 line:857 name:var%psprho(:)
host:0x4f220f80 device:0x4007923f7400 size:24000 presentcount:0+2 line:466 name:var%psprnl(:,:,:)
host:0x4f250960 device:0x4007923ef000 size:4320 presentcount:0+4 line:405 name:var%ityp(:)
host:0x4f251a70 device:0x4007923e8a00 size:25920 presentcount:0+4 line:405 name:var%posion(:,:)
host:0x4f292b50 device:0x40053e3fe200 size:8 presentcount:0+3 line:616 name:var%nityp(:)
host:0x4f294c40 device:0x4007927f9800 size:8000 presentcount:0+1 line:857 name:var%pspcor(:)
host:0x4f296bb0 device:0x4007927fb800 size:8000 presentcount:0+1 line:857 name:var%psprho(:)
host:0x4f29a720 device:0x4007927efa00 size:40000 presentcount:0+1 line:857 name:var%psp(:,:)
host:0x4f2a4390 device:0x4007923f1400 size:24000 presentcount:0+2 line:466 name:var%psprnl(:,:,:)
host:0x4f2b7390 device:0x40053e3fe800 size:8 presentcount:0+2 line:616 name:var%wtkpt(:)
host:0x4f2e4440 device:0x40073c1ffc00 size:24 presentcount:0+3 line:466 name:var%lps(:)
host:0x4f2e44f0 device:0x40071c3fb800 size:24 presentcount:0+3 line:466 name:var%lps(:)
host:0x4f353a80 device:0x40053e3fea00 size:4320 presentcount:0+3 line:616 name:var%ityp(:)
host:0x4f354b90 device:0x40053e3fc200 size:4320 presentcount:0+3 line:616 name:var%npro_pos(:)
host:0x4f355ca0 device:0x40053e3fae00 size:4324 presentcount:0+3 line:616 name:var%lmbase(:)
host:0x4f356db0 device:0x40053e3f0000 size:1280 presentcount:0+4 line:519 name:var%lpctx(:)
host:0x4f3572e0 device:0x40053e3f0600 size:720 presentcount:0+4 line:519 name:var%lpcty(:)
host:0x4f3575e0 device:0x40053e3f0e00 size:1280 presentcount:0+4 line:519 name:var%lpctx_(:)
host:0x4f357b10 device:0x40053e3f1400 size:720 presentcount:0+4 line:519 name:var%lpcty_(:)
host:0x4f357e10 device:0x40053e3f1800 size:1000 presentcount:0+4 line:519 name:var%lpctz_(:)
host:0x4f358220 device:0x4007925f5c00 size:1280 presentcount:0+1 line:519 name:var%lpctx(:)
host:0x4f358750 device:0x4007925f6200 size:720 presentcount:0+1 line:519 name:var%lpcty(:)
host:0x4f358a50 device:0x4007925f6600 size:1000 presentcount:0+1 line:519 name:var%lpctz(:)
host:0x4f358e60 device:0x4007925f6a00 size:1280 presentcount:0+1 line:519 name:var%lpctx_(:)
host:0x4f359390 device:0x4007925f7000 size:720 presentcount:0+1 line:519 name:var%lpcty_(:)
host:0x4f359690 device:0x4007925f7400 size:1000 presentcount:0+1 line:519 name:var%lpctz_(:)
host:0x4f359aa0 device:0x4007923fd600 size:2560 presentcount:0+1 line:519 name:var%lpctx(:)
host:0x4f35a4d0 device:0x4007923ff000 size:1440 presentcount:0+1 line:519 name:var%lpcty(:)
host:0x4f35aaa0 device:0x4007923fe200 size:2000 presentcount:0+1 line:519 name:var%lpctz(:)
host:0x4f35b2a0 device:0x4007923ff600 size:2560 presentcount:0+1 line:519 name:var%lpctx_(:)
host:0x4f35bcd0 device:0x4007925e9e00 size:1440 presentcount:0+1 line:519 name:var%lpcty_(:)
host:0x4f35c2a0 device:0x4007925ea400 size:2000 presentcount:0+1 line:519 name:var%lpctz_(:)
host:0x4f448380 device:0x4007925ee800 size:2824 presentcount:0+1 line:482 name:var%i2(:)
host:0x4f448eb0 device:0x4007925ef400 size:2824 presentcount:0+1 line:482 name:var%i3(:)
host:0x4f4499e0 device:0x4007925f0000 size:5020 presentcount:0+1 line:482 name:var%i2(:)
host:0x4f44adb0 device:0x4007925f1400 size:5020 presentcount:0+1 line:482 name:var%i3(:)
host:0x4f44c180 device:0x4007925eac00 size:7200 presentcount:0+2 line:482 name:var%i2(:)
host:0x4f44ddd0 device:0x4007925eca00 size:7200 presentcount:0+2 line:482 name:var%i3(:)
host:0x4f44fe40 device:0x400854c5fa00 size:921600 presentcount:0+2 line:482 name:var%index(:,:)
host:0x4f530e70 device:0x4007925fcc00 size:2560 presentcount:0+1 line:569 name:var%ind1(:)
host:0x4f5318a0 device:0x4007925fd600 size:2824 presentcount:0+1 line:569 name:var%indcol(:)
host:0x4f5323d0 device:0x4007925f7c00 size:2824 presentcount:0+1 line:482 name:var%i2(:)
host:0x4f532f00 device:0x4007925f8800 size:2824 presentcount:0+1 line:482 name:var%i3(:)
host:0x4f533a30 device:0x4007925f9400 size:1512 presentcount:0+1 line:482 name:var%i2(:)
host:0x4f534040 device:0x4007925f9a00 size:1512 presentcount:0+1 line:482 name:var%i3(:)
host:0x4f534650 device:0x40071c3fba00 size:4320 presentcount:0+2 line:430 name:var%nlimax(:)
host:0x4f535760 device:0x40071c3fce00 size:4324 presentcount:0+2 line:430 name:var%lmbase(:)
host:0x4f536870 device:0x40071c3fe200 size:4324 presentcount:0+2 line:430 name:var%nlibase(:)
host:0x4f537980 device:0x40053e3f1c00 size:17132 presentcount:0+4 line:519 name:var%nindpwconjg(:)
host:0x4f53bca0 device:0x40053e3f6000 size:17132 presentcount:0+4 line:519 name:var%ind_in_sphere(:)
host:0x4f540be0 device:0x4007925fa400 size:516 presentcount:0+1 line:499 name:var%ptr(:)
host:0x4f540e10 device:0x4007925fa000 size:516 presentcount:0+1 line:499 name:var%n(:)
host:0x4f541040 device:0x400c321b9400 size:181440 presentcount:0+1 line:499 name:var%tbli(:)
host:0x4f56d530 device:0x4007925fac00 size:516 presentcount:0+1 line:499 name:var%ptri(:)
host:0x4f56d760 device:0x4007925fa800 size:516 presentcount:0+1 line:499 name:var%ni(:)
host:0x4f56d990 device:0x4007925fb400 size:516 presentcount:0+1 line:499 name:var%ptr(:)
host:0x4f56dbc0 device:0x4007925fc000 size:1280 presentcount:0+1 line:569 name:var%ind1(:)
host:0x4f56e0f0 device:0x4007925fc600 size:720 presentcount:0+1 line:569 name:var%indcol(:)
host:0x4f56e3f0 device:0x40066a32e800 size:180000 presentcount:0+4 line:482 name:var%i2(:)
host:0x4f59a340 device:0x40066a35a800 size:180000 presentcount:0+4 line:482 name:var%i3(:)
host:0x4f5c6290 device:0x4007923bca00 size:180000 presentcount:0+8 line:482 name:var%index(:,:)
host:0x4f5f21e0 device:0x4007929bca00 size:180000 presentcount:0+8 line:482 name:var%i2(:)
host:0x4f61e130 device:0x40066a386800 size:180000 presentcount:0+8 line:482 name:var%i3(:)
host:0x4f64a6b0 device:0x400792400000 size:1821184 presentcount:0+3 line:616 name:var%nindpw(:,:)
host:0x4f8070e0 device:0x4007925bca00 size:180000 presentcount:0+3 line:616 name:var%pl_index(:,:)
host:0x4f833030 device:0x4007927bca00 size:180000 presentcount:0+3 line:616 name:var%pl_col(:,:)
host:0x4f85ef80 device:0x4007923f0200 size:4324 presentcount:0+2 line:405 name:var%lmbase(:)
host:0x4f8d08f0 device:0x400854c00000 size:230400 presentcount:0+1 line:499 name:var%tbl(:)
host:0x4f941150 device:0x400c323b9400 size:181440 presentcount:0+1 line:499 name:var%tbl(:)
host:0x4f96d640 device:0x4007925fb000 size:516 presentcount:0+1 line:499 name:var%n(:)
host:0x4f999d60 device:0x4007925fbc00 size:516 presentcount:0+1 line:499 name:var%ptri(:)
host:0x4f999f90 device:0x4007925fb800 size:516 presentcount:0+1 line:499 name:var%ni(:)
host:0x4f9a4810 device:0x4007925f2c00 size:516 presentcount:0+1 line:499 name:var%ptr(:)
host:0x4f9a4a40 device:0x4007925f2800 size:516 presentcount:0+1 line:499 name:var%n(:)
host:0x4f9a4c70 device:0x4007925f3400 size:516 presentcount:0+1 line:499 name:var%ptri(:)
host:0x4f9a4ea0 device:0x4007925f3000 size:516 presentcount:0+1 line:499 name:var%ni(:)
host:0x4f9a50d0 device:0x4007925f3c00 size:516 presentcount:0+1 line:499 name:var%ptr(:)
host:0x4f9a5300 device:0x4007925f3800 size:516 presentcount:0+1 line:499 name:var%n(:)
host:0x4f9a5530 device:0x4007925f4400 size:516 presentcount:0+1 line:499 name:var%ptri(:)
host:0x4f9a5760 device:0x4007925f4000 size:516 presentcount:0+1 line:499 name:var%ni(:)
host:0x4faec2c0 device:0x400855600000 size:7284736 presentcount:0+3 line:616 name:var%datake(:,:,:)
host:0x501df540 device:0x400792600000 size:1821184 presentcount:0+3 line:616 name:var%igx(:,:)
host:0x5039cbd0 device:0x400792200000 size:1821184 presentcount:0+3 line:616 name:var%igy(:,:)
host:0x5055a470 device:0x400792800000 size:1821184 presentcount:0+3 line:616 name:var%igz(:,:)
host:0x50718340 device:0x400793200000 size:7284272 presentcount:0+4 line:519 name:var%fftsca(:,:)
host:0x50eae070 device:0x400854e00000 size:1807360 presentcount:0+1 line:499 name:var%tbl(:)
host:0x51223c60 device:0x400c32000000 size:1807200 presentcount:0+1 line:499 name:var%tbli(:)
host:0x513decd0 device:0x400c32200000 size:1807200 presentcount:0+1 line:499 name:var%tbl(:)
host:0x517553e0 device:0x400c32400000 size:1807200 presentcount:0+1 line:499 name:var%tbli(:)
host:0x51bc2420 device:0x40073c1f4000 size:41984 presentcount:0+1 line:746 name:var%auxtot(:,:,:)
host:0x51c02420 device:0x40053e3e4000 size:41984 presentcount:0+2 line:746 name:var%fertot(:,:,:)
host:0x51c10030 device:0x40066a31a000 size:83968 presentcount:0+2 line:746 name:var%celtot(:,:,:)
host:0x533ffd20 device:0x400792a00000 size:7200000 presentcount:0+1 line:195 name:dencor(:)
host:0x541ca010 device:0x400791e00000 size:2799360 presentcount:0+2 line:194 name:cdij(:,:,:,:)
host:0x54479730 device:0x400c32600000 size:2799360 presentcount:0+2 line:194 name:cqij(:,:,:,:)
host:0x549d93e0 device:0x400855200000 size:4030464 presentcount:0+5 line:746 name:var%gproj(:,:,:,:)
host:0x550674e0 device:0x40066a3ca800 size:98304 presentcount:0+1 line:1101 name:w1%gproj(:)
host:0x5bf536d0 device:0x400db5600000 size:3145728 presentcount:0+2 line:1226 name:wa%gproj(:,:)
host:0x6023f3d0 device:0x4007929fe200 size:2048 presentcount:0+1 line:179 name:w1(:)
host:0x6023fbf0 device:0x400c321f5600 size:2048 presentcount:0+1 line:179 name:wtmp(:)
host:0x602461c0 device:0x400db6200000 size:7284736 presentcount:0+1 line:1101 name:w1%cptwfp(:)
host:0x60940460 device:0x400854d40a00 size:393216 presentcount:0+2 line:1226 name:wa%gproj(:,:)
host:0x609a0490 device:0x400c238c0000 size:393216 presentcount:0+2 line:1226 name:wa%gproj(:,:)
host:0x60a004c0 device:0x40066a3b2800 size:98304 presentcount:0+1 line:1101 name:w1%gproj(:)
host:0x60a184f0 device:0x400c323e5a00 size:98304 presentcount:0+1 line:1101 name:w1%gproj(:)
host:0x60a30520 device:0x40066a3e2800 size:98304 presentcount:0+1 line:1101 name:w1%gproj(:)
host:0x60ba8f80 device:0x400db6a00000 size:14569472 presentcount:0+1 line:202 name:precon(:,:)
host:0x61995330 device:0x400c91e00000 size:7284736 presentcount:0+1 line:1101 name:w1%cptwfp(:)
host:0x6208f510 device:0x400c2fa00000 size:7284736 presentcount:0+1 line:1101 name:w1%cptwfp(:)
host:0x62789d20 device:0x400db5a00000 size:7284736 presentcount:0+1 line:1101 name:w1%cptwfp(:)
host:0x4005d80010a0 device:0x400793a00000 size:45593280 presentcount:0+2 line:430 name:var%nli(:,:)
host:0x4005dce939e0 device:0x400c32a00000 size:14458880 presentcount:0+1 line:195 name:cstrf(:,:)
host:0x4006800012b0 device:0x4007a0000000 size:807411968 presentcount:0+2 line:430 name:var%rproj(:)
host:0x4006b02131a0 device:0x40080dc00000 size:230400000 presentcount:0+2 line:194 name:sv(:,:)
host:0x400760004a60 device:0x400780000000 size:298674176 presentcount:0+5 line:746 name:var%cptwfp(:,:,:,:)
host:0x400771ce6b60 device:0x400db1e00000 size:29138944 presentcount:0+2 line:1226 name:wa%cptwfp(:,:)
host:0x4007738c6d70 device:0x400db3a00000 size:29138944 presentcount:0+2 line:1226 name:wa%cptwfp(:,:)
host:0x400820006f80 device:0x400c80000000 size:233111552 presentcount:0+2 line:1226 name:wa%cptwfp(:,:)
host:0x40082de675b0 device:0x400580000000 size:230400000 presentcount:0+1 line:1101 name:w1%cr(:)
host:0x4008c00077c0 device:0x4007d0400000 size:230400000 presentcount:0+1 line:1236 name:w1%cr(:)
host:0x4008cdbd7be0 device:0x400840000000 size:230400000 presentcount:0+1 line:1101 name:w1%cr(:)
host:0x400ae0007df0 device:0x400800000000 size:230400000 presentcount:0+1 line:1236 name:w1%cr(:)
host:0x400aedbd8210 device:0x400c00000000 size:230400000 presentcount:0+1 line:1101 name:w1%cr(:)
host:0x400be0008420 device:0x400d91e00000 size:230400000 presentcount:0+1 line:1236 name:w1%cr(:)
host:0x400bedbd0230 device:0x400d71e00000 size:230400000 presentcount:0+1 line:1101 name:w1%cr(:)
host:0x400c60000440 device:0x400d51e00000 size:230400000 presentcount:0+1 line:1236 name:w1%cr(:)
host:0xffffc9e83750 device:0x400c321f6200 size:3024 presentcount:0+12 line:682 name:var
host:0xffffc9e84320 device:0x4006fc1ff600 size:1480 presentcount:0+1 line:174 name:w_ini
host:0xffffc9e848f0 device:0x4007925ff600 size:1480 presentcount:0+1 line:174 name:wopt
host:0xffffc9e84ec0 device:0x40071c3fa400 size:1480 presentcount:0+1 line:174 name:wtmpa
allocated block device:0x40053e3e4000 size:41984 thread:1
allocated block device:0x40053e3ee400 size:512 thread:1
allocated block device:0x40053e3ee600 size:512 thread:1
allocated block device:0x40053e3ee800 size:512 thread:1
allocated block device:0x40053e3eea00 size:512 thread:1
allocated block device:0x40053e3eec00 size:5120 thread:1
allocated block device:0x40053e3f0000 size:1536 thread:1
allocated block device:0x40053e3f0600 size:1024 thread:1
allocated block device:0x40053e3f0a00 size:1024 thread:1
allocated block device:0x40053e3f0e00 size:1536 thread:1
allocated block device:0x40053e3f1400 size:1024 thread:1
allocated block device:0x40053e3f1800 size:1024 thread:1
allocated block device:0x40053e3f1c00 size:17408 thread:1
allocated block device:0x40053e3f6000 size:17408 thread:1
allocated block device:0x40053e3fa400 size:2048 thread:1
allocated block device:0x40053e3fac00 size:512 thread:1
allocated block device:0x40053e3fae00 size:4608 thread:1
allocated block device:0x40053e3fc000 size:512 thread:1
allocated block device:0x40053e3fc200 size:4608 thread:1
allocated block device:0x40053e3fd400 size:3072 thread:1
allocated block device:0x40053e3fe000 size:512 thread:1
allocated block device:0x40053e3fe200 size:512 thread:1
allocated block device:0x40053e3fe400 size:512 thread:1
allocated block device:0x40053e3fe600 size:512 thread:1
allocated block device:0x40053e3fe800 size:512 thread:1
allocated block device:0x40053e3fea00 size:4608 thread:1
allocated block device:0x40053e3ffc00 size:512 thread:1
allocated block device:0x40053e3ffe00 size:512 thread:1
allocated block device:0x400580000000 size:230400000 thread:1
allocated block device:0x40066a31a000 size:83968 thread:1
allocated block device:0x40066a32e800 size:180224 thread:1
allocated block device:0x40066a35a800 size:180224 thread:1
allocated block device:0x40066a386800 size:180224 thread:1
allocated block device:0x40066a3b2800 size:98304 thread:1
allocated block device:0x40066a3ca800 size:98304 thread:1
allocated block device:0x40066a3e2800 size:98304 thread:1
allocated block device:0x4006dc5ff800 size:1024 thread:1
allocated block device:0x4006fc1ff600 size:1536 thread:1
allocated block device:0x40071c3fa400 size:2048 thread:1
allocated block device:0x40071c3fae00 size:2560 thread:1
allocated block device:0x40071c3fb800 size:512 thread:1
allocated block device:0x40071c3fba00 size:4608 thread:1
allocated block device:0x40071c3fcc00 size:512 thread:1
allocated block device:0x40071c3fce00 size:4608 thread:1
allocated block device:0x40071c3fe000 size:512 thread:1
allocated block device:0x40071c3fe200 size:4608 thread:1
allocated block device:0x40071c3ff400 size:512 thread:1
allocated block device:0x40071c3ff600 size:512 thread:1
allocated block device:0x40071c3ff800 size:512 thread:1
allocated block device:0x40071c3ffa00 size:512 thread:1
allocated block device:0x40071c3ffc00 size:512 thread:1
allocated block device:0x40071c3ffe00 size:512 thread:1
allocated block device:0x40073c1f4000 size:41984 thread:1
allocated block device:0x40073c1fe400 size:5120 thread:1
allocated block device:0x40073c1ff800 size:512 thread:1
allocated block device:0x40073c1ffa00 size:512 thread:1
allocated block device:0x40073c1ffc00 size:512 thread:1
allocated block device:0x40073c1ffe00 size:512 thread:1
allocated block device:0x400780000000 size:298674176 thread:1
allocated block device:0x400791e00000 size:4030464 thread:1
allocated block device:0x400792200000 size:1821184 thread:1
allocated block device:0x4007923bca00 size:180224 thread:1
allocated block device:0x4007923e8a00 size:26112 thread:1
allocated block device:0x4007923ef000 size:4608 thread:1
allocated block device:0x4007923f0200 size:4608 thread:1
allocated block device:0x4007923f1400 size:24064 thread:1
allocated block device:0x4007923f7200 size:512 thread:1
allocated block device:0x4007923f7400 size:24064 thread:1
allocated block device:0x4007923fd200 size:512 thread:1
allocated block device:0x4007923fd400 size:512 thread:1
allocated block device:0x4007923fd600 size:3072 thread:1
allocated block device:0x4007923fe200 size:3072 thread:1
allocated block device:0x4007923fee00 size:512 thread:1
allocated block device:0x4007923ff000 size:1536 thread:1
allocated block device:0x4007923ff600 size:2560 thread:1
allocated block device:0x400792400000 size:1821184 thread:1
allocated block device:0x4007925bca00 size:180224 thread:1
allocated block device:0x4007925e8a00 size:5120 thread:1
allocated block device:0x4007925e9e00 size:1536 thread:1
allocated block device:0x4007925ea400 size:2048 thread:1
allocated block device:0x4007925eac00 size:7680 thread:1
allocated block device:0x4007925eca00 size:7680 thread:1
allocated block device:0x4007925ee800 size:3072 thread:1
allocated block device:0x4007925ef400 size:3072 thread:1
allocated block device:0x4007925f0000 size:5120 thread:1
allocated block device:0x4007925f1400 size:5120 thread:1
allocated block device:0x4007925f2800 size:1024 thread:1
allocated block device:0x4007925f2c00 size:1024 thread:1
allocated block device:0x4007925f3000 size:1024 thread:1
allocated block device:0x4007925f3400 size:1024 thread:1
allocated block device:0x4007925f3800 size:1024 thread:1
allocated block device:0x4007925f3c00 size:1024 thread:1
allocated block device:0x4007925f4000 size:1024 thread:1
allocated block device:0x4007925f4400 size:1024 thread:1
allocated block device:0x4007925f4800 size:5120 thread:1
allocated block device:0x4007925f5c00 size:1536 thread:1
allocated block device:0x4007925f6200 size:1024 thread:1
allocated block device:0x4007925f6600 size:1024 thread:1
allocated block device:0x4007925f6a00 size:1536 thread:1
allocated block device:0x4007925f7000 size:1024 thread:1
allocated block device:0x4007925f7400 size:1024 thread:1
allocated block device:0x4007925f7800 size:1024 thread:1
allocated block device:0x4007925f7c00 size:3072 thread:1
allocated block device:0x4007925f8800 size:3072 thread:1
allocated block device:0x4007925f9400 size:1536 thread:1
allocated block device:0x4007925f9a00 size:1536 thread:1
allocated block device:0x4007925fa000 size:1024 thread:1
allocated block device:0x4007925fa400 size:1024 thread:1
allocated block device:0x4007925fa800 size:1024 thread:1
allocated block device:0x4007925fac00 size:1024 thread:1
allocated block device:0x4007925fb000 size:1024 thread:1
allocated block device:0x4007925fb400 size:1024 thread:1
allocated block device:0x4007925fb800 size:1024 thread:1
allocated block device:0x4007925fbc00 size:1024 thread:1
allocated block device:0x4007925fc000 size:1536 thread:1
allocated block device:0x4007925fc600 size:1024 thread:1
allocated block device:0x4007925fca00 size:512 thread:1
allocated block device:0x4007925fcc00 size:2560 thread:1
allocated block device:0x4007925fd600 size:3072 thread:1
allocated block device:0x4007925ff600 size:2560 thread:1
allocated block device:0x400792600000 size:1821184 thread:1
allocated block device:0x4007927bca00 size:180224 thread:1
allocated block device:0x4007927e8a00 size:28672 thread:1
allocated block device:0x4007927efa00 size:40448 thread:1
allocated block device:0x4007927f9800 size:8192 thread:1
allocated block device:0x4007927fb800 size:8192 thread:1
allocated block device:0x4007927fd800 size:8192 thread:1
allocated block device:0x4007927ff800 size:512 thread:1
allocated block device:0x400792800000 size:1821184 thread:1
allocated block device:0x4007929bca00 size:180224 thread:1
allocated block device:0x4007929e8a00 size:40448 thread:1
allocated block device:0x4007929fe200 size:2048 thread:1
allocated block device:0x400792a00000 size:7284736 thread:1
allocated block device:0x400793200000 size:7284736 thread:1
allocated block device:0x400793a00000 size:45593600 thread:1
allocated block device:0x4007a0000000 size:807412224 thread:1
allocated block device:0x4007d0400000 size:230400000 thread:1
allocated block device:0x400800000000 size:230400000 thread:1
allocated block device:0x40080dc00000 size:230400000 thread:1
allocated block device:0x400840000000 size:230400000 thread:1
allocated block device:0x400854c00000 size:391680 thread:1
allocated block device:0x400854c5fa00 size:921600 thread:1
allocated block device:0x400854d40a00 size:393216 thread:1
allocated block device:0x400854e00000 size:2799616 thread:1
allocated block device:0x400855200000 size:4030464 thread:1
allocated block device:0x400855600000 size:7284736 thread:1
allocated block device:0x400c00000000 size:298674176 thread:1
allocated block device:0x400c238c0000 size:393216 thread:1
allocated block device:0x400c2fa00000 size:7284736 thread:1
allocated block device:0x400c32000000 size:1807360 thread:1
allocated block device:0x400c321b9400 size:181760 thread:1
allocated block device:0x400c321f5600 size:3072 thread:1
allocated block device:0x400c321f6200 size:3072 thread:1
allocated block device:0x400c32200000 size:1807360 thread:1
allocated block device:0x400c323b9400 size:181760 thread:1
allocated block device:0x400c323e5a00 size:98304 thread:1
allocated block device:0x400c32400000 size:1807360 thread:1
allocated block device:0x400c32600000 size:2799616 thread:1
allocated block device:0x400c32a00000 size:14458880 thread:1
allocated block device:0x400c80000000 size:298674176 thread:1
allocated block device:0x400c91e00000 size:7284736 thread:1
allocated block device:0x400d51e00000 size:230400000 thread:1
allocated block device:0x400d71e00000 size:230400000 thread:1
allocated block device:0x400d91e00000 size:230400000 thread:1
allocated block device:0x400db1e00000 size:29138944 thread:1
allocated block device:0x400db3a00000 size:29138944 thread:1
allocated block device:0x400db5600000 size:3145728 thread:1
allocated block device:0x400db5a00000 size:7284736 thread:1
allocated block device:0x400db6200000 size:7284736 thread:1
allocated block device:0x400db6a00000 size:14569472 thread:1
Accelerator Fatal Error: call to cuMemAlloc returned error 2 (CUDA_ERROR_OUT_OF_MEMORY): Out of memory
 File: /lus/lfs1aip2/projects/u6cb/software/VASP/vasp.6.5.1/build/gam/hamil.f90
 Function: hamiltmu:978
 Line: 1005

Out of memory allocating 230400000 bytes of device memory
Failing in Thread:1
total/free CUDA memory: 102005473280/589824000
Present table dump for device[1]: NVIDIA Tesla GPU 0, compute capability 9.0, threadid=1
Hint: specify 0x800 bit in NV_ACC_DEBUG for verbose info.
host:0x2557280 device:0x4005d63fc000 size:32 presentcount:0+3 line:643 name:var%comm
host:0x25572a0 device:0x4006e71ffa00 size:32 presentcount:0+4 line:652 name:var%comm_kinter
host:0x25572c0 device:0x4006e71ffc00 size:32 presentcount:0+6 line:655 name:var%comm_kin
host:0x25572e0 device:0x4006e71ff400 size:32 presentcount:0+3 line:646 name:var%comm_inter
host:0x2557300 device:0x4006e71ff600 size:32 presentcount:0+7 line:649 name:var%comm_inb
host:0x256be80 device:0x4004fa0ecd00 size:8 presentcount:0+1 line:-1 name:_setexm_struct_def_21
host:0x2576f40 device:0x4004fa0ece00 size:28 presentcount:0+1 line:-1 name:_ml_ff_constant_21
host:0x2577c80 device:0x4004fa0ecf00 size:30437 presentcount:0+1 line:-1 name:_ml_ff_taglist_21
host:0x25afc80 device:0x4004fa0f4600 size:8 presentcount:0+1 line:-1 name:_mopenacc_tutor_21
host:0x25c2740 device:0x4004fa0f4a00 size:32 presentcount:0+1 line:-1 name:_mbj_21
host:0x25cd640 device:0x4004fa0f4d00 size:8 presentcount:0+1 line:-1 name:_sym_prec_21
host:0x26030c0 device:0x4004fa0f4e00 size:344 presentcount:0+1 line:-1 name:_tet_21
host:0x261c840 device:0x4004fa0f5000 size:392 presentcount:0+1 line:-1 name:_mymath_21
host:0x2817368 device:0x4005d63eec00 size:4800 presentcount:0+2 line:614 name:var
host:0x2818628 device:0x4005d63fa400 size:1984 presentcount:0+2 line:403 name:var
host:0x281a910 device:0x4006a71ff800 size:864 presentcount:0+4 line:2639 name:hamiltonian
host:0x286ac80 device:0x4005d63fd400 size:2712 presentcount:0+2 line:428 name:var
host:0x286b718 device:0x4006e71fae00 size:2248 presentcount:0+1 line:742 name:var
host:0x286eb50 device:0x4007527ff800 size:288 presentcount:0+1 line:195 name:latt_cur
host:0x2871658 device:0x4007071fe400 size:5088 presentcount:0+28 line:517 name:var
host:0x2872a38 device:0x4007525f4800 size:5088 presentcount:0+6 line:517 name:var
host:0x2873e18 device:0x4007525e8a00 size:5088 presentcount:0+7 line:517 name:var
host:0x287a2a8 device:0x4006e71fe000 size:304 presentcount:0+1 line:567 name:var
host:0x287a3d8 device:0x4007525fca00 size:304 presentcount:0+1 line:567 name:var
host:0x2e48ec0 device:0x4004fa002600 size:960024 presentcount:0+1 line:-1 name:_setexm_struct_def_16
host:0x2f8f080 device:0x4004fa0f4700 size:580 presentcount:0+1 line:-1 name:_wpbe_16
host:0x2f8f900 device:0x4004fa0f4b00 size:288 presentcount:0+1 line:-1 name:_mbj_16
host:0x9f446c0 device:0x4004fa0f5200 size:624 presentcount:0+1 line:-1 name:_mlr_optic_16
host:0x29aa94b0 device:0x4007525f7800 size:528 presentcount:0+1 line:480 name:var
host:0x2db68190 device:0x4007071ffa00 size:400 presentcount:0+2 line:464 name:var
host:0x2db68320 device:0x4007071ffe00 size:400 presentcount:0+2 line:464 name:var
host:0x321ffe00 device:0x4006e71ff800 size:8 presentcount:0+4 line:405 name:var%nityp(:)
host:0x326fe610 device:0x4005d63f0a00 size:1000 presentcount:0+4 line:519 name:var%lpctz(:)
host:0x32b81810 device:0x4007527e8a00 size:28464 presentcount:0+1 line:853 name:var(:)
host:0x32b93f70 device:0x4007529e8a00 size:40000 presentcount:0+1 line:857 name:var%psp(:,:)
host:0x32b9dbe0 device:0x4007527fd800 size:8000 presentcount:0+1 line:857 name:var%psprho(:)
host:0x32ba0e70 device:0x4007523f7400 size:24000 presentcount:0+2 line:466 name:var%psprnl(:,:,:)
host:0x32bd0850 device:0x4007523ef000 size:4320 presentcount:0+4 line:405 name:var%ityp(:)
host:0x32bd1960 device:0x4007523e8a00 size:25920 presentcount:0+4 line:405 name:var%posion(:,:)
host:0x32c14b30 device:0x4007527f9800 size:8000 presentcount:0+1 line:857 name:var%pspcor(:)
host:0x32c16aa0 device:0x4007527fb800 size:8000 presentcount:0+1 line:857 name:var%psprho(:)
host:0x32c1a610 device:0x4007527efa00 size:40000 presentcount:0+1 line:857 name:var%psp(:,:)
host:0x32c24280 device:0x4007523f1400 size:24000 presentcount:0+2 line:466 name:var%psprnl(:,:,:)
host:0x32c374b0 device:0x4007525fa400 size:516 presentcount:0+1 line:499 name:var%ptr(:)
host:0x32c64330 device:0x4007071ffc00 size:24 presentcount:0+3 line:466 name:var%lps(:)
host:0x32c643e0 device:0x4006e71fb800 size:24 presentcount:0+3 line:466 name:var%lps(:)
host:0x32dcf940 device:0x4005d63fe600 size:24 presentcount:0+3 line:616 name:var%vkpt(:,:)
host:0x32df4ac0 device:0x4005d63fe800 size:8 presentcount:0+2 line:616 name:var%wtkpt(:)
host:0x32df4af0 device:0x4005d63fe200 size:8 presentcount:0+3 line:616 name:var%nityp(:)
host:0x32df4cb0 device:0x4005d63eea00 size:16 presentcount:0+2 line:430 name:var%psrmax(:)
host:0x32df5270 device:0x4005d63fea00 size:4320 presentcount:0+3 line:616 name:var%ityp(:)
host:0x32df6380 device:0x4005d63fe000 size:8 presentcount:0+3 line:616 name:var%lmmax(:)
host:0x32df63b0 device:0x4005d63fe400 size:8 presentcount:0+3 line:616 name:var%nt_global(:)
host:0x32df63e0 device:0x4005d63fc200 size:4320 presentcount:0+3 line:616 name:var%npro_pos(:)
host:0x32df74f0 device:0x4005d63fae00 size:4324 presentcount:0+3 line:616 name:var%lmbase(:)
host:0x32df8600 device:0x4005d63ffe00 size:4 presentcount:0+2 line:616 name:var%nplwkp(:)
host:0x32df8630 device:0x4007523f7200 size:4 presentcount:0+2 line:616 name:var%nplwkp_tot(:)
host:0x32df8660 device:0x4007523fd200 size:4 presentcount:0+2 line:616 name:var%ngvector_pos(:)
host:0x32df8690 device:0x4005d63ffc00 size:4 presentcount:0+2 line:616 name:var%ngvector(:)
host:0x32df86c0 device:0x4005d63f0000 size:1280 presentcount:0+4 line:519 name:var%lpctx(:)
host:0x32df8bf0 device:0x4005d63f0600 size:720 presentcount:0+4 line:519 name:var%lpcty(:)
host:0x32df8ef0 device:0x4005d63f0e00 size:1280 presentcount:0+4 line:519 name:var%lpctx_(:)
host:0x32df9420 device:0x4005d63f1400 size:720 presentcount:0+4 line:519 name:var%lpcty_(:)
host:0x32df9720 device:0x4005d63f1800 size:1000 presentcount:0+4 line:519 name:var%lpctz_(:)
host:0x32df9b30 device:0x4007525f5c00 size:1280 presentcount:0+1 line:519 name:var%lpctx(:)
host:0x32dfa060 device:0x4007525f6200 size:720 presentcount:0+1 line:519 name:var%lpcty(:)
host:0x32dfa360 device:0x4007525f6600 size:1000 presentcount:0+1 line:519 name:var%lpctz(:)
host:0x32dfa770 device:0x4007525f6a00 size:1280 presentcount:0+1 line:519 name:var%lpctx_(:)
host:0x32dfaca0 device:0x4007525f7000 size:720 presentcount:0+1 line:519 name:var%lpcty_(:)
host:0x32dfafa0 device:0x4007525f7400 size:1000 presentcount:0+1 line:519 name:var%lpctz_(:)
host:0x32dfb3b0 device:0x4007523fd600 size:2560 presentcount:0+1 line:519 name:var%lpctx(:)
host:0x32dfbde0 device:0x4007523ff000 size:1440 presentcount:0+1 line:519 name:var%lpcty(:)
host:0x32dfc3b0 device:0x4007523fe200 size:2000 presentcount:0+1 line:519 name:var%lpctz(:)
host:0x32dfcbb0 device:0x4007523ff600 size:2560 presentcount:0+1 line:519 name:var%lpctx_(:)
host:0x32dfd5e0 device:0x4007525e9e00 size:1440 presentcount:0+1 line:519 name:var%lpcty_(:)
host:0x32dfdbb0 device:0x4007525ea400 size:2000 presentcount:0+1 line:519 name:var%lpctz_(:)
host:0x32ee9c90 device:0x4007525ee800 size:2824 presentcount:0+1 line:482 name:var%i2(:)
host:0x32eea7c0 device:0x4007525ef400 size:2824 presentcount:0+1 line:482 name:var%i3(:)
host:0x32eeb2f0 device:0x4007525f0000 size:5020 presentcount:0+1 line:482 name:var%i2(:)
host:0x32eec6c0 device:0x4007525f1400 size:5020 presentcount:0+1 line:482 name:var%i3(:)
host:0x32eeda90 device:0x4007525eac00 size:7200 presentcount:0+2 line:482 name:var%i2(:)
host:0x32eef6e0 device:0x4007525eca00 size:7200 presentcount:0+2 line:482 name:var%i3(:)
host:0x32ef1330 device:0x4007525fcc00 size:2560 presentcount:0+1 line:569 name:var%ind1(:)
host:0x32ef1d60 device:0x4007525fd600 size:2824 presentcount:0+1 line:569 name:var%indcol(:)
host:0x32ef2890 device:0x4007525f7c00 size:2824 presentcount:0+1 line:482 name:var%i2(:)
host:0x32ef33c0 device:0x4007525f8800 size:2824 presentcount:0+1 line:482 name:var%i3(:)
host:0x32ef3ef0 device:0x4007525f9400 size:1512 presentcount:0+1 line:482 name:var%i2(:)
host:0x32ef4500 device:0x4007525f9a00 size:1512 presentcount:0+1 line:482 name:var%i3(:)
host:0x32ef4b10 device:0x4006e71fba00 size:4320 presentcount:0+2 line:430 name:var%nlimax(:)
host:0x32ef5c20 device:0x4006e71fcc00 size:4 presentcount:0+1 line:499 name:var%tbli(:)
host:0x32ef5c50 device:0x4007525fc000 size:1280 presentcount:0+1 line:569 name:var%ind1(:)
host:0x32ef6180 device:0x4007525fc600 size:720 presentcount:0+1 line:569 name:var%indcol(:)
host:0x32ef6480 device:0x4005d63fac00 size:8 presentcount:0+2 line:616 name:var%nb_totk(:,:)
host:0x32ef64b0 device:0x4007523fd400 size:4 presentcount:0+2 line:616 name:var%luseinv(:)
host:0x32ef64e0 device:0x4005d63ee600 size:4 presentcount:0+2 line:616 name:var%at_gamma(:)
host:0x32f0bef0 device:0x4007525f2c00 size:516 presentcount:0+1 line:499 name:var%ptr(:)
host:0x32f0c120 device:0x4007525f2800 size:516 presentcount:0+1 line:499 name:var%n(:)
host:0x32f0c350 device:0x4007525f3400 size:516 presentcount:0+1 line:499 name:var%ptri(:)
host:0x32f0c580 device:0x4007525f3000 size:516 presentcount:0+1 line:499 name:var%ni(:)
host:0x32f0c7b0 device:0x4007525f3c00 size:516 presentcount:0+1 line:499 name:var%ptr(:)
host:0x32f0c9e0 device:0x4007525f3800 size:516 presentcount:0+1 line:499 name:var%n(:)
host:0x32f0cc10 device:0x4007525f4400 size:516 presentcount:0+1 line:499 name:var%ptri(:)
host:0x32f0ce40 device:0x4007525f4000 size:516 presentcount:0+1 line:499 name:var%ni(:)
host:0x32f0d590 device:0x400814c5fa00 size:921600 presentcount:0+2 line:482 name:var%index(:,:)
host:0x330269f0 device:0x40063432e800 size:180000 presentcount:0+4 line:482 name:var%i2(:)
host:0x33052940 device:0x40063435a800 size:180000 presentcount:0+4 line:482 name:var%i3(:)
host:0x3307e890 device:0x4007523bca00 size:180000 presentcount:0+8 line:482 name:var%index(:,:)
host:0x330aa7e0 device:0x4007529bca00 size:180000 presentcount:0+8 line:482 name:var%i2(:)
host:0x330d6730 device:0x400634386800 size:180000 presentcount:0+8 line:482 name:var%i3(:)
host:0x33102cb0 device:0x400752400000 size:1821184 presentcount:0+3 line:616 name:var%nindpw(:,:)
host:0x332bf6e0 device:0x4007525bca00 size:180000 presentcount:0+3 line:616 name:var%pl_index(:,:)
host:0x332eb630 device:0x4007527bca00 size:180000 presentcount:0+3 line:616 name:var%pl_col(:,:)
host:0x33317580 device:0x4007523fee00 size:8 presentcount:0+2 line:405 name:var%lmmax(:)
host:0x333175b0 device:0x4006e71ffe00 size:8 presentcount:0+2 line:430 name:var%lmax(:)
host:0x333175e0 device:0x4007523f0200 size:4324 presentcount:0+2 line:405 name:var%lmbase(:)
host:0x333186f0 device:0x4005d63ee400 size:8 presentcount:0+2 line:430 name:var%lmmax(:)
host:0x33318720 device:0x4005d63ee800 size:8 presentcount:0+2 line:430 name:var%channels(:)
host:0x33318750 device:0x4007071ff800 size:16 presentcount:0+2 line:430 name:var%rsmooth(:)
host:0x33318790 device:0x4006e71fce00 size:4324 presentcount:0+2 line:430 name:var%lmbase(:)
host:0x333198a0 device:0x4006e71fe200 size:4324 presentcount:0+2 line:430 name:var%nlibase(:)
host:0x3331a9b0 device:0x4005d63f1c00 size:17132 presentcount:0+4 line:519 name:var%nindpwconjg(:)
host:0x3331ecd0 device:0x4005d63f6000 size:17132 presentcount:0+4 line:519 name:var%ind_in_sphere(:)
host:0x33323c10 device:0x4007525fa000 size:516 presentcount:0+1 line:499 name:var%n(:)
host:0x33323e40 device:0x4007525fac00 size:516 presentcount:0+1 line:499 name:var%ptri(:)
host:0x33324070 device:0x4007525fa800 size:516 presentcount:0+1 line:499 name:var%ni(:)
host:0x333242a0 device:0x4007525fb400 size:516 presentcount:0+1 line:499 name:var%ptr(:)
host:0x333244d0 device:0x4007525fb000 size:516 presentcount:0+1 line:499 name:var%n(:)
host:0x33324700 device:0x4007525fbc00 size:516 presentcount:0+1 line:499 name:var%ptri(:)
host:0x33324930 device:0x4007525fb800 size:516 presentcount:0+1 line:499 name:var%ni(:)
host:0x3346c1b0 device:0x400815600000 size:7284736 presentcount:0+3 line:616 name:var%datake(:,:,:)
host:0x33b5f430 device:0x400752600000 size:1821184 presentcount:0+3 line:616 name:var%igx(:,:)
host:0x33d1cac0 device:0x400752200000 size:1821184 presentcount:0+3 line:616 name:var%igy(:,:)
host:0x33eda360 device:0x400752800000 size:1821184 presentcount:0+3 line:616 name:var%igz(:,:)
host:0x34098230 device:0x400753200000 size:7284272 presentcount:0+4 line:519 name:var%fftsca(:,:)
host:0x347c2cc0 device:0x400814c00000 size:230400 presentcount:0+1 line:499 name:var%tbl(:)
host:0x34833520 device:0x400bf21b9400 size:181440 presentcount:0+1 line:499 name:var%tbli(:)
host:0x3485fa10 device:0x400bf23b9400 size:181440 presentcount:0+1 line:499 name:var%tbl(:)
host:0x3494bab0 device:0x400814e00000 size:1807360 presentcount:0+1 line:499 name:var%tbl(:)
host:0x34c32420 device:0x4007071f4000 size:41984 presentcount:0+1 line:746 name:var%auxtot(:,:,:)
host:0x34c72420 device:0x4005d63e4000 size:41984 presentcount:0+2 line:746 name:var%fertot(:,:,:)
host:0x34c80030 device:0x40063431a000 size:83968 presentcount:0+2 line:746 name:var%celtot(:,:,:)
host:0x34cc16a0 device:0x400bf2000000 size:1807200 presentcount:0+1 line:499 name:var%tbli(:)
host:0x34e7c710 device:0x400bf2200000 size:1807200 presentcount:0+1 line:499 name:var%tbl(:)
host:0x351f2e20 device:0x400bf2400000 size:1807200 presentcount:0+1 line:499 name:var%tbli(:)
host:0x36e9df20 device:0x400752a00000 size:7200000 presentcount:0+1 line:195 name:dencor(:)
host:0x37c68210 device:0x400751e00000 size:2799360 presentcount:0+2 line:194 name:cdij(:,:,:,:)
host:0x37f17930 device:0x400bf2600000 size:2799360 presentcount:0+2 line:194 name:cqij(:,:,:,:)
host:0x384775e0 device:0x400815200000 size:4030464 presentcount:0+5 line:746 name:var%gproj(:,:,:,:)
host:0x38af7f90 device:0x4007529fe200 size:2048 presentcount:0+1 line:179 name:w1(:)
host:0x38af87b0 device:0x400bf21f5600 size:2048 presentcount:0+1 line:179 name:wtmp(:)
host:0x38b05050 device:0x4006343ca800 size:98304 presentcount:0+1 line:1101 name:w1%gproj(:)
host:0x3f9ed150 device:0x400814d40a00 size:393216 presentcount:0+2 line:1226 name:wa%gproj(:,:)
host:0x3fa4d180 device:0x400be38c0000 size:393216 presentcount:0+2 line:1226 name:wa%gproj(:,:)
host:0x3fab4530 device:0x400d75600000 size:3145728 presentcount:0+2 line:1226 name:wa%gproj(:,:)
host:0x43d02c50 device:0x400c51e00000 size:7284736 presentcount:0+1 line:1101 name:w1%cptwfp(:)
host:0x443f5480 device:0x4006343b2800 size:98304 presentcount:0+1 line:1101 name:w1%gproj(:)
host:0x4440d4b0 device:0x400bf23e5a00 size:98304 presentcount:0+1 line:1101 name:w1%gproj(:)
host:0x444254e0 device:0x4006343e2800 size:98304 presentcount:0+1 line:1101 name:w1%gproj(:)
host:0x44649d80 device:0x400d76a00000 size:14569472 presentcount:0+1 line:202 name:precon(:,:)
host:0x45436970 device:0x400befa00000 size:7284736 presentcount:0+1 line:1101 name:w1%cptwfp(:)
host:0x45b31390 device:0x400d75a00000 size:7284736 presentcount:0+1 line:1101 name:w1%cptwfp(:)
host:0x46223dd0 device:0x400d76200000 size:7284736 presentcount:0+1 line:1101 name:w1%cptwfp(:)
host:0x4006400010a0 device:0x400753a00000 size:45593280 presentcount:0+2 line:430 name:var%nli(:,:)
host:0x400642b812b0 device:0x400760000000 size:807411968 presentcount:0+2 line:430 name:var%rproj(:)
host:0x400672d939e0 device:0x400bf2a00000 size:14458880 presentcount:0+1 line:195 name:cstrf(:,:)
host:0x400677206d70 device:0x400d71e00000 size:29138944 presentcount:0+2 line:1226 name:wa%cptwfp(:,:)
host:0x40067be86f80 device:0x400d73a00000 size:29138944 presentcount:0+2 line:1226 name:wa%cptwfp(:,:)
host:0x4007200031a0 device:0x4007cdc00000 size:230400000 presentcount:0+2 line:194 name:sv(:,:)
host:0x40072dbc4a60 device:0x400740000000 size:298674176 presentcount:0+5 line:746 name:var%cptwfp(:,:,:,:)
host:0x4007e0000020 device:0x400d51e00000 size:230400000 presentcount:0+1 line:1236 name:w1%cr(:)
host:0x400880007190 device:0x400c40000000 size:233111552 presentcount:0+2 line:1226 name:wa%cptwfp(:,:)
host:0x40088de677c0 device:0x400540000000 size:230400000 presentcount:0+1 line:1101 name:w1%cr(:)
host:0x400aa00079d0 device:0x400790400000 size:230400000 presentcount:0+1 line:1236 name:w1%cr(:)
host:0x400aadbd7df0 device:0x400800000000 size:230400000 presentcount:0+1 line:1101 name:w1%cr(:)
host:0x400ba0008000 device:0x4007c0000000 size:230400000 presentcount:0+1 line:1236 name:w1%cr(:)
host:0x400badbd8420 device:0x400bc0000000 size:230400000 presentcount:0+1 line:1101 name:w1%cr(:)
host:0x400c20000440 device:0x400d31e00000 size:230400000 presentcount:0+1 line:1101 name:w1%cr(:)
host:0x400c2dbc0650 device:0x400d11e00000 size:230400000 presentcount:0+1 line:1236 name:w1%cr(:)
host:0x400d80005ae0 device:0x400dc0000000 size:921600000 presentcount:0+1 line:1005 name:cwork1(:,:)
host:0xffffe4bc0c10 device:0x400bf21f6200 size:3024 presentcount:0+12 line:682 name:var
host:0xffffe4bc17e0 device:0x4006c71ff600 size:1480 presentcount:0+1 line:174 name:w_ini
host:0xffffe4bc1db0 device:0x4007525ff600 size:1480 presentcount:0+1 line:174 name:wopt
host:0xffffe4bc2380 device:0x4006e71fa400 size:1480 presentcount:0+1 line:174 name:wtmpa
allocated block device:0x400540000000 size:230400000 thread:1
allocated block device:0x4005d63e4000 size:41984 thread:1
allocated block device:0x4005d63ee400 size:512 thread:1
allocated block device:0x4005d63ee600 size:512 thread:1
allocated block device:0x4005d63ee800 size:512 thread:1
allocated block device:0x4005d63eea00 size:512 thread:1
allocated block device:0x4005d63eec00 size:5120 thread:1
allocated block device:0x4005d63f0000 size:1536 thread:1
allocated block device:0x4005d63f0600 size:1024 thread:1
allocated block device:0x4005d63f0a00 size:1024 thread:1
allocated block device:0x4005d63f0e00 size:1536 thread:1
allocated block device:0x4005d63f1400 size:1024 thread:1
allocated block device:0x4005d63f1800 size:1024 thread:1
allocated block device:0x4005d63f1c00 size:17408 thread:1
allocated block device:0x4005d63f6000 size:17408 thread:1
allocated block device:0x4005d63fa400 size:2048 thread:1
allocated block device:0x4005d63fac00 size:512 thread:1
allocated block device:0x4005d63fae00 size:4608 thread:1
allocated block device:0x4005d63fc000 size:512 thread:1
allocated block device:0x4005d63fc200 size:4608 thread:1
allocated block device:0x4005d63fd400 size:3072 thread:1
allocated block device:0x4005d63fe000 size:512 thread:1
allocated block device:0x4005d63fe200 size:512 thread:1
allocated block device:0x4005d63fe400 size:512 thread:1
allocated block device:0x4005d63fe600 size:512 thread:1
allocated block device:0x4005d63fe800 size:512 thread:1
allocated block device:0x4005d63fea00 size:4608 thread:1
allocated block device:0x4005d63ffc00 size:512 thread:1
allocated block device:0x4005d63ffe00 size:512 thread:1
allocated block device:0x40063431a000 size:83968 thread:1
allocated block device:0x40063432e800 size:180224 thread:1
allocated block device:0x40063435a800 size:180224 thread:1
allocated block device:0x400634386800 size:180224 thread:1
allocated block device:0x4006343b2800 size:98304 thread:1
allocated block device:0x4006343ca800 size:98304 thread:1
allocated block device:0x4006343e2800 size:98304 thread:1
allocated block device:0x4006a71ff800 size:1024 thread:1
allocated block device:0x4006c71ff600 size:1536 thread:1
allocated block device:0x4006e71fa400 size:2048 thread:1
allocated block device:0x4006e71fae00 size:2560 thread:1
allocated block device:0x4006e71fb800 size:512 thread:1
allocated block device:0x4006e71fba00 size:4608 thread:1
allocated block device:0x4006e71fcc00 size:512 thread:1
allocated block device:0x4006e71fce00 size:4608 thread:1
allocated block device:0x4006e71fe000 size:512 thread:1
allocated block device:0x4006e71fe200 size:4608 thread:1
allocated block device:0x4006e71ff400 size:512 thread:1
allocated block device:0x4006e71ff600 size:512 thread:1
allocated block device:0x4006e71ff800 size:512 thread:1
allocated block device:0x4006e71ffa00 size:512 thread:1
allocated block device:0x4006e71ffc00 size:512 thread:1
allocated block device:0x4006e71ffe00 size:512 thread:1
allocated block device:0x4007071f4000 size:41984 thread:1
allocated block device:0x4007071fe400 size:5120 thread:1
allocated block device:0x4007071ff800 size:512 thread:1
allocated block device:0x4007071ffa00 size:512 thread:1
allocated block device:0x4007071ffc00 size:512 thread:1
allocated block device:0x4007071ffe00 size:512 thread:1
allocated block device:0x400740000000 size:298674176 thread:1
allocated block device:0x400751e00000 size:4030464 thread:1
allocated block device:0x400752200000 size:1821184 thread:1
allocated block device:0x4007523bca00 size:180224 thread:1
allocated block device:0x4007523e8a00 size:26112 thread:1
allocated block device:0x4007523ef000 size:4608 thread:1
allocated block device:0x4007523f0200 size:4608 thread:1
allocated block device:0x4007523f1400 size:24064 thread:1
allocated block device:0x4007523f7200 size:512 thread:1
allocated block device:0x4007523f7400 size:24064 thread:1
allocated block device:0x4007523fd200 size:512 thread:1
allocated block device:0x4007523fd400 size:512 thread:1
allocated block device:0x4007523fd600 size:3072 thread:1
allocated block device:0x4007523fe200 size:3072 thread:1
allocated block device:0x4007523fee00 size:512 thread:1
allocated block device:0x4007523ff000 size:1536 thread:1
allocated block device:0x4007523ff600 size:2560 thread:1
allocated block device:0x400752400000 size:1821184 thread:1
allocated block device:0x4007525bca00 size:180224 thread:1
allocated block device:0x4007525e8a00 size:5120 thread:1
allocated block device:0x4007525e9e00 size:1536 thread:1
allocated block device:0x4007525ea400 size:2048 thread:1
allocated block device:0x4007525eac00 size:7680 thread:1
allocated block device:0x4007525eca00 size:7680 thread:1
allocated block device:0x4007525ee800 size:3072 thread:1
allocated block device:0x4007525ef400 size:3072 thread:1
allocated block device:0x4007525f0000 size:5120 thread:1
allocated block device:0x4007525f1400 size:5120 thread:1
allocated block device:0x4007525f2800 size:1024 thread:1
allocated block device:0x4007525f2c00 size:1024 thread:1
allocated block device:0x4007525f3000 size:1024 thread:1
allocated block device:0x4007525f3400 size:1024 thread:1
allocated block device:0x4007525f3800 size:1024 thread:1
allocated block device:0x4007525f3c00 size:1024 thread:1
allocated block device:0x4007525f4000 size:1024 thread:1
allocated block device:0x4007525f4400 size:1024 thread:1
allocated block device:0x4007525f4800 size:5120 thread:1
allocated block device:0x4007525f5c00 size:1536 thread:1
allocated block device:0x4007525f6200 size:1024 thread:1
allocated block device:0x4007525f6600 size:1024 thread:1
allocated block device:0x4007525f6a00 size:1536 thread:1
allocated block device:0x4007525f7000 size:1024 thread:1
allocated block device:0x4007525f7400 size:1024 thread:1
allocated block device:0x4007525f7800 size:1024 thread:1
allocated block device:0x4007525f7c00 size:3072 thread:1
allocated block device:0x4007525f8800 size:3072 thread:1
allocated block device:0x4007525f9400 size:1536 thread:1
allocated block device:0x4007525f9a00 size:1536 thread:1
allocated block device:0x4007525fa000 size:1024 thread:1
allocated block device:0x4007525fa400 size:1024 thread:1
allocated block device:0x4007525fa800 size:1024 thread:1
allocated block device:0x4007525fac00 size:1024 thread:1
allocated block device:0x4007525fb000 size:1024 thread:1
allocated block device:0x4007525fb400 size:1024 thread:1
allocated block device:0x4007525fb800 size:1024 thread:1
allocated block device:0x4007525fbc00 size:1024 thread:1
allocated block device:0x4007525fc000 size:1536 thread:1
allocated block device:0x4007525fc600 size:1024 thread:1
allocated block device:0x4007525fca00 size:512 thread:1
allocated block device:0x4007525fcc00 size:2560 thread:1
allocated block device:0x4007525fd600 size:3072 thread:1
allocated block device:0x4007525ff600 size:2560 thread:1
allocated block device:0x400752600000 size:1821184 thread:1
allocated block device:0x4007527bca00 size:180224 thread:1
allocated block device:0x4007527e8a00 size:28672 thread:1
allocated block device:0x4007527efa00 size:40448 thread:1
allocated block device:0x4007527f9800 size:8192 thread:1
allocated block device:0x4007527fb800 size:8192 thread:1
allocated block device:0x4007527fd800 size:8192 thread:1
allocated block device:0x4007527ff800 size:512 thread:1
allocated block device:0x400752800000 size:1821184 thread:1
allocated block device:0x4007529bca00 size:180224 thread:1
allocated block device:0x4007529e8a00 size:40448 thread:1
allocated block device:0x4007529fe200 size:2048 thread:1
allocated block device:0x400752a00000 size:7284736 thread:1
allocated block device:0x400753200000 size:7284736 thread:1
allocated block device:0x400753a00000 size:45593600 thread:1
allocated block device:0x400760000000 size:807412224 thread:1
allocated block device:0x400790400000 size:230400000 thread:1
allocated block device:0x4007c0000000 size:230400000 thread:1
allocated block device:0x4007cdc00000 size:230400000 thread:1
allocated block device:0x400800000000 size:230400000 thread:1
allocated block device:0x400814c00000 size:391680 thread:1
allocated block device:0x400814c5fa00 size:921600 thread:1
allocated block device:0x400814d40a00 size:393216 thread:1
allocated block device:0x400814e00000 size:2799616 thread:1
allocated block device:0x400815200000 size:4030464 thread:1
allocated block device:0x400815600000 size:7284736 thread:1
allocated block device:0x400bc0000000 size:298674176 thread:1
allocated block device:0x400be38c0000 size:393216 thread:1
allocated block device:0x400befa00000 size:7284736 thread:1
allocated block device:0x400bf2000000 size:1807360 thread:1
allocated block device:0x400bf21b9400 size:181760 thread:1
allocated block device:0x400bf21f5600 size:3072 thread:1
allocated block device:0x400bf21f6200 size:3072 thread:1
allocated block device:0x400bf2200000 size:1807360 thread:1
allocated block device:0x400bf23b9400 size:181760 thread:1
allocated block device:0x400bf23e5a00 size:98304 thread:1
allocated block device:0x400bf2400000 size:1807360 thread:1
allocated block device:0x400bf2600000 size:2799616 thread:1
allocated block device:0x400bf2a00000 size:14458880 thread:1
allocated block device:0x400c40000000 size:298674176 thread:1
allocated block device:0x400c51e00000 size:7284736 thread:1
allocated block device:0x400d11e00000 size:230400000 thread:1
allocated block device:0x400d31e00000 size:230400000 thread:1
allocated block device:0x400d51e00000 size:230400000 thread:1
allocated block device:0x400d71e00000 size:29138944 thread:1
allocated block device:0x400d73a00000 size:29138944 thread:1
allocated block device:0x400d75600000 size:3145728 thread:1
allocated block device:0x400d75a00000 size:7284736 thread:1
allocated block device:0x400d76200000 size:7284736 thread:1
allocated block device:0x400d76a00000 size:14569472 thread:1
allocated block device:0x400dc0000000 size:921600000 thread:1
Accelerator Fatal Error: call to cuMemAlloc returned error 2 (CUDA_ERROR_OUT_OF_MEMORY): Out of memory
 File: /lus/lfs1aip2/projects/u6cb/software/VASP/vasp.6.5.1/build/gam/fft_base.f90
 Function: restride_r2q_cmplx:945
 Line: 964

Out of memory allocating 230400000 bytes of device memory
Failing in Thread:1
total/free CUDA memory: 102005473280/88670208
Present table dump for device[1]: NVIDIA Tesla GPU 0, compute capability 9.0, threadid=1
Hint: specify 0x800 bit in NV_ACC_DEBUG for verbose info.
host:0x2557280 device:0x40031e5fd800 size:32 presentcount:0+3 line:643 name:var%comm
host:0x25572a0 device:0x40031e5ef600 size:32 presentcount:0+4 line:652 name:var%comm_kinter
host:0x25572c0 device:0x40031e5ef800 size:32 presentcount:0+6 line:655 name:var%comm_kin
host:0x25572e0 device:0x4004f51ffa00 size:32 presentcount:0+3 line:646 name:var%comm_inter
host:0x2557300 device:0x4004f51ffc00 size:32 presentcount:0+7 line:649 name:var%comm_inb
host:0x256be80 device:0x40031a0ecd00 size:8 presentcount:0+1 line:-1 name:_setexm_struct_def_21
host:0x2576f40 device:0x40031a0ece00 size:28 presentcount:0+1 line:-1 name:_ml_ff_constant_21
host:0x2577c80 device:0x40031a0ecf00 size:30437 presentcount:0+1 line:-1 name:_ml_ff_taglist_21
host:0x25afc80 device:0x40031a0f4600 size:8 presentcount:0+1 line:-1 name:_mopenacc_tutor_21
host:0x25c2740 device:0x40031a0f4a00 size:32 presentcount:0+1 line:-1 name:_mbj_21
host:0x25cd640 device:0x40031a0f4d00 size:8 presentcount:0+1 line:-1 name:_sym_prec_21
host:0x26030c0 device:0x40031a0f4e00 size:344 presentcount:0+1 line:-1 name:_tet_21
host:0x261c840 device:0x40031a0f5000 size:392 presentcount:0+1 line:-1 name:_mymath_21
host:0x2817368 device:0x40031e5f0400 size:4800 presentcount:0+2 line:614 name:var
host:0x2818628 device:0x40031e5fbc00 size:1984 presentcount:0+2 line:403 name:var
host:0x281a910 device:0x4004d53ffa00 size:864 presentcount:0+4 line:2639 name:hamiltonian
host:0x286ac80 device:0x40031e5fec00 size:2712 presentcount:0+2 line:428 name:var
host:0x286b718 device:0x4004f51fc600 size:2248 presentcount:0+1 line:742 name:var
host:0x286eb50 device:0x4009d21ffc00 size:288 presentcount:0+1 line:195 name:latt_cur
host:0x2871658 device:0x4005153fe400 size:5088 presentcount:0+28 line:517 name:var
host:0x2872a38 device:0x4005725f6000 size:5088 presentcount:0+6 line:517 name:var
host:0x2873e18 device:0x4005725e9600 size:5088 presentcount:0+7 line:517 name:var
host:0x287a2a8 device:0x4004f51ff800 size:304 presentcount:0+1 line:567 name:var
host:0x287a3d8 device:0x4005725fe200 size:304 presentcount:0+1 line:567 name:var
host:0x2e48ec0 device:0x40031a002600 size:960024 presentcount:0+1 line:-1 name:_setexm_struct_def_16
host:0x2f8f080 device:0x40031a0f4700 size:580 presentcount:0+1 line:-1 name:_wpbe_16
host:0x2f8f900 device:0x40031a0f4b00 size:288 presentcount:0+1 line:-1 name:_mbj_16
host:0x9f446c0 device:0x40031a0f5200 size:624 presentcount:0+1 line:-1 name:_mlr_optic_16
host:0x484bcc00 device:0x4005725f9000 size:528 presentcount:0+1 line:480 name:var
host:0x4c70d790 device:0x4004f51ffe00 size:8 presentcount:0+4 line:405 name:var%nityp(:)
host:0x4cc0bfa0 device:0x40031e5f2200 size:1000 presentcount:0+4 line:519 name:var%lpctz(:)
host:0x4d08f0a0 device:0x4005727e8a00 size:28464 presentcount:0+1 line:853 name:var(:)
host:0x4d0a1820 device:0x4005729e8a00 size:40000 presentcount:0+1 line:857 name:var%psp(:,:)
host:0x4d0ab490 device:0x4009d23fbc00 size:8000 presentcount:0+1 line:857 name:var%psprho(:)
host:0x4d0ae720 device:0x4005723f8c00 size:24000 presentcount:0+2 line:466 name:var%psprnl(:,:,:)
host:0x4d0de100 device:0x4005723f0400 size:4320 presentcount:0+4 line:405 name:var%ityp(:)
host:0x4d0df210 device:0x4005723e8a00 size:25920 presentcount:0+4 line:405 name:var%posion(:,:)
host:0x4d122570 device:0x4005727efa00 size:40000 presentcount:0+1 line:857 name:var%psp(:,:)
host:0x4d12c1e0 device:0x4009d21fbc00 size:8000 presentcount:0+1 line:857 name:var%pspcor(:)
host:0x4d12e150 device:0x4009d21fdc00 size:8000 presentcount:0+1 line:857 name:var%psprho(:)
host:0x4d1313e0 device:0x4005723f2a00 size:24000 presentcount:0+2 line:466 name:var%psprnl(:,:,:)
host:0x4d17e3a0 device:0x4005153ffc00 size:24 presentcount:0+3 line:466 name:var%lps(:)
host:0x4d17e450 device:0x4004f51fd000 size:24 presentcount:0+3 line:466 name:var%lps(:)
host:0x4d803080 device:0x4005725fbc00 size:516 presentcount:0+1 line:499 name:var%ptr(:)
host:0x4d81d860 device:0x4005723ef000 size:8 presentcount:0+2 line:616 name:var%wtkpt(:)
host:0x4d81d890 device:0x40031e5ffa00 size:8 presentcount:0+3 line:616 name:var%nityp(:)
host:0x4d9c09c0 device:0x40031e5ffe00 size:24 presentcount:0+3 line:616 name:var%vkpt(:,:)
host:0x4d9e5c70 device:0x40031e5f0200 size:16 presentcount:0+2 line:430 name:var%psrmax(:)
host:0x4d9e6230 device:0x4005723ef200 size:4320 presentcount:0+3 line:616 name:var%ityp(:)
host:0x4d9e7340 device:0x40031e5ff800 size:8 presentcount:0+3 line:616 name:var%lmmax(:)
host:0x4d9e7370 device:0x40031e5ffc00 size:8 presentcount:0+3 line:616 name:var%nt_global(:)
host:0x4d9e73a0 device:0x40031e5fda00 size:4320 presentcount:0+3 line:616 name:var%npro_pos(:)
host:0x4d9e84b0 device:0x40031e5fc600 size:4324 presentcount:0+3 line:616 name:var%lmbase(:)
host:0x4d9e95c0 device:0x4005723f8800 size:4 presentcount:0+2 line:616 name:var%nplwkp(:)
host:0x4d9e95f0 device:0x4005723f8a00 size:4 presentcount:0+2 line:616 name:var%nplwkp_tot(:)
host:0x4d9e9620 device:0x4005723fea00 size:4 presentcount:0+2 line:616 name:var%ngvector_pos(:)
host:0x4d9e9650 device:0x4005723f2800 size:4 presentcount:0+2 line:616 name:var%ngvector(:)
host:0x4d9e9680 device:0x40031e5f1800 size:1280 presentcount:0+4 line:519 name:var%lpctx(:)
host:0x4d9e9bb0 device:0x40031e5f1e00 size:720 presentcount:0+4 line:519 name:var%lpcty(:)
host:0x4d9e9eb0 device:0x40031e5f2600 size:1280 presentcount:0+4 line:519 name:var%lpctx_(:)
host:0x4d9ea3e0 device:0x40031e5f2c00 size:720 presentcount:0+4 line:519 name:var%lpcty_(:)
host:0x4d9ea6e0 device:0x40031e5f3000 size:1000 presentcount:0+4 line:519 name:var%lpctz_(:)
host:0x4d9eaaf0 device:0x4005725f7400 size:1280 presentcount:0+1 line:519 name:var%lpctx(:)
host:0x4d9eb020 device:0x4005725f7a00 size:720 presentcount:0+1 line:519 name:var%lpcty(:)
host:0x4d9eb320 device:0x4005725f7e00 size:1000 presentcount:0+1 line:519 name:var%lpctz(:)
host:0x4d9eb730 device:0x4005725f8200 size:1280 presentcount:0+1 line:519 name:var%lpctx_(:)
host:0x4d9ebc60 device:0x4005725f8800 size:720 presentcount:0+1 line:519 name:var%lpcty_(:)
host:0x4d9ebf60 device:0x4005725f8c00 size:1000 presentcount:0+1 line:519 name:var%lpctz_(:)
host:0x4d9ec370 device:0x4005723fee00 size:2560 presentcount:0+1 line:519 name:var%lpctx(:)
host:0x4d9ecda0 device:0x4005725eaa00 size:1440 presentcount:0+1 line:519 name:var%lpcty(:)
host:0x4d9ed370 device:0x4005725e8a00 size:2000 presentcount:0+1 line:519 name:var%lpctz(:)
host:0x4d9edb70 device:0x4005725eb000 size:2560 presentcount:0+1 line:519 name:var%lpctx_(:)
host:0x4d9ee5a0 device:0x4005725eba00 size:1440 presentcount:0+1 line:519 name:var%lpcty_(:)
host:0x4d9eeb70 device:0x4005725ec000 size:2000 presentcount:0+1 line:519 name:var%lpctz_(:)
host:0x4dadac50 device:0x4005725f0400 size:2824 presentcount:0+1 line:482 name:var%i2(:)
host:0x4dadb780 device:0x4005725f1000 size:2824 presentcount:0+1 line:482 name:var%i3(:)
host:0x4dadc2b0 device:0x4005725f1c00 size:5020 presentcount:0+1 line:482 name:var%i2(:)
host:0x4dadd680 device:0x4005725f3000 size:5020 presentcount:0+1 line:482 name:var%i3(:)
host:0x4dadea50 device:0x4005725ec800 size:7200 presentcount:0+2 line:482 name:var%i2(:)
host:0x4dae06a0 device:0x4005725ee600 size:7200 presentcount:0+2 line:482 name:var%i3(:)
host:0x4dae2710 device:0x4005fb85fa00 size:921600 presentcount:0+2 line:482 name:var%index(:,:)
host:0x4dbc3740 device:0x4005725fe400 size:2560 presentcount:0+1 line:569 name:var%ind1(:)
host:0x4dbc4170 device:0x4005725fee00 size:2824 presentcount:0+1 line:569 name:var%indcol(:)
host:0x4dbc4ca0 device:0x4005725f9400 size:2824 presentcount:0+1 line:482 name:var%i2(:)
host:0x4dbc57d0 device:0x4005725fa000 size:2824 presentcount:0+1 line:482 name:var%i3(:)
host:0x4dbc6300 device:0x4005725fac00 size:1512 presentcount:0+1 line:482 name:var%i2(:)
host:0x4dbc6910 device:0x4005725fb200 size:1512 presentcount:0+1 line:482 name:var%i3(:)
host:0x4dbc6f20 device:0x4004f51fd200 size:4320 presentcount:0+2 line:430 name:var%nlimax(:)
host:0x4dbc8030 device:0x4004f51fe600 size:4324 presentcount:0+2 line:430 name:var%lmbase(:)
host:0x4dbc9140 device:0x40031e5ee400 size:4324 presentcount:0+2 line:430 name:var%nlibase(:)
host:0x4dbca250 device:0x40031e5f3400 size:17132 presentcount:0+4 line:519 name:var%nindpwconjg(:)
host:0x4dbce570 device:0x40031e5f7800 size:17132 presentcount:0+4 line:519 name:var%ind_in_sphere(:)
host:0x4dbd37c0 device:0x4005725fb800 size:516 presentcount:0+1 line:499 name:var%n(:)
host:0x4dbd39f0 device:0x4005725fc400 size:516 presentcount:0+1 line:499 name:var%ptri(:)
host:0x4dbd3c20 device:0x4005725fc000 size:516 presentcount:0+1 line:499 name:var%ni(:)
host:0x4dbd3e50 device:0x4005725fcc00 size:516 presentcount:0+1 line:499 name:var%ptr(:)
host:0x4dbd4080 device:0x4005725fc800 size:516 presentcount:0+1 line:499 name:var%n(:)
host:0x4dbd42b0 device:0x4004f51fe400 size:4 presentcount:0+1 line:499 name:var%tbli(:)
host:0x4dbd42e0 device:0x4005725fd400 size:516 presentcount:0+1 line:499 name:var%ptri(:)
host:0x4dbd4510 device:0x4005725fd000 size:516 presentcount:0+1 line:499 name:var%ni(:)
host:0x4dbf10a0 device:0x4005725f4400 size:516 presentcount:0+1 line:499 name:var%ptr(:)
host:0x4dbf12d0 device:0x4005723ffc00 size:516 presentcount:0+1 line:499 name:var%n(:)
host:0x4dbf1500 device:0x4005725f4c00 size:516 presentcount:0+1 line:499 name:var%ptri(:)
host:0x4dbf1730 device:0x4005725f4800 size:516 presentcount:0+1 line:499 name:var%ni(:)
host:0x4dbf1960 device:0x4005725f5400 size:516 presentcount:0+1 line:499 name:var%ptr(:)
host:0x4dbf1b90 device:0x4005725f5000 size:516 presentcount:0+1 line:499 name:var%n(:)
host:0x4dbf1dc0 device:0x4005725f5c00 size:516 presentcount:0+1 line:499 name:var%ptri(:)
host:0x4dbf1ff0 device:0x4005725f5800 size:516 presentcount:0+1 line:499 name:var%ni(:)
host:0x4dc00490 device:0x4005725fd800 size:1280 presentcount:0+1 line:569 name:var%ind1(:)
host:0x4dc009c0 device:0x4005725fde00 size:692 presentcount:0+1 line:569 name:var%indcol(:)
host:0x4dc00ca0 device:0x40044a12e800 size:180000 presentcount:0+4 line:482 name:var%i2(:)
host:0x4dc2cbf0 device:0x40044a15a800 size:180000 presentcount:0+4 line:482 name:var%i3(:)
host:0x4dc58b40 device:0x4005723bca00 size:180000 presentcount:0+8 line:482 name:var%index(:,:)
host:0x4dc84a90 device:0x4005729bca00 size:180000 presentcount:0+8 line:482 name:var%i2(:)
host:0x4dcb09e0 device:0x40044a186800 size:180000 presentcount:0+8 line:482 name:var%i3(:)
host:0x4dcdcf60 device:0x400572400000 size:1821184 presentcount:0+3 line:616 name:var%nindpw(:,:)
host:0x4de99990 device:0x40031e5fc400 size:8 presentcount:0+2 line:616 name:var%nb_totk(:,:)
host:0x4de999c0 device:0x4005723fec00 size:4 presentcount:0+2 line:616 name:var%luseinv(:)
host:0x4de999f0 device:0x40031e5efe00 size:4 presentcount:0+2 line:616 name:var%at_gamma(:)
host:0x4de99a20 device:0x4005725bca00 size:180000 presentcount:0+3 line:616 name:var%pl_index(:,:)
host:0x4dec5970 device:0x4005727bca00 size:180000 presentcount:0+3 line:616 name:var%pl_col(:,:)
host:0x4def2100 device:0x4005fc200000 size:7284736 presentcount:0+3 line:616 name:var%datake(:,:,:)
host:0x4e5e5380 device:0x400572600000 size:1821184 presentcount:0+3 line:616 name:var%igx(:,:)
host:0x4e7a2a10 device:0x400572200000 size:1821184 presentcount:0+3 line:616 name:var%igy(:,:)
host:0x4e9602b0 device:0x400572800000 size:1821184 presentcount:0+3 line:616 name:var%igz(:,:)
host:0x4eb1cce0 device:0x4005723ffa00 size:8 presentcount:0+2 line:405 name:var%lmmax(:)
host:0x4eb1cd10 device:0x40031e5efa00 size:8 presentcount:0+2 line:430 name:var%lmax(:)
host:0x4eb1cd40 device:0x4005723f1600 size:4324 presentcount:0+2 line:405 name:var%lmbase(:)
host:0x4eb1de50 device:0x40031e5efc00 size:8 presentcount:0+2 line:430 name:var%lmmax(:)
host:0x4eb1de80 device:0x40031e5f0000 size:8 presentcount:0+2 line:430 name:var%channels(:)
host:0x4eb1deb0 device:0x4005153ff800 size:16 presentcount:0+2 line:430 name:var%rsmooth(:)
host:0x4eb1def0 device:0x4005153ffa00 size:400 presentcount:0+2 line:464 name:var
host:0x4eb1e080 device:0x4005153ffe00 size:400 presentcount:0+2 line:464 name:var
host:0x4eb1f6e0 device:0x400573200000 size:7284272 presentcount:0+4 line:519 name:var%fftsca(:,:)
host:0x4f2825a0 device:0x4005fb800000 size:221440 presentcount:0+1 line:499 name:var%tbl(:)
host:0x4f2ee800 device:0x4009d21b9400 size:272160 presentcount:0+1 line:499 name:var%tbli(:)
host:0x4f330f50 device:0x4009d23b9400 size:272160 presentcount:0+1 line:499 name:var%tbl(:)
host:0x4f4494b0 device:0x4005fba00000 size:1807360 presentcount:0+1 line:499 name:var%tbl(:)
host:0x4f7bf0a0 device:0x4009d2000000 size:1807200 presentcount:0+1 line:499 name:var%tbli(:)
host:0x4f97a110 device:0x4009d2200000 size:1807200 presentcount:0+1 line:499 name:var%tbl(:)
host:0x4fc42d30 device:0x4005153f4000 size:41984 presentcount:0+1 line:746 name:var%auxtot(:,:,:)
host:0x4fc60030 device:0x40044a11a000 size:83968 presentcount:0+2 line:746 name:var%celtot(:,:,:)
host:0x4fcf0820 device:0x4009d2400000 size:1807200 presentcount:0+1 line:499 name:var%tbli(:)
host:0x50133240 device:0x40031e5e4000 size:41984 presentcount:0+2 line:746 name:var%fertot(:,:,:)
host:0x519c82c0 device:0x400572a00000 size:7200000 presentcount:0+1 line:195 name:dencor(:)
host:0x527925b0 device:0x400571e00000 size:2799360 presentcount:0+2 line:194 name:cdij(:,:,:,:)
host:0x52a41cd0 device:0x4009d2600000 size:2799360 presentcount:0+2 line:194 name:cqij(:,:,:,:)
host:0x52fa1980 device:0x4005fbe00000 size:4030464 presentcount:0+5 line:746 name:var%gproj(:,:,:,:)
host:0x536421a0 device:0x40044a1ca800 size:98304 presentcount:0+1 line:1101 name:w1%gproj(:)
host:0x5a4d0880 device:0x4005fb940a00 size:393216 presentcount:0+2 line:1226 name:wa%gproj(:,:)
host:0x5a5308b0 device:0x4009c38c0000 size:393216 presentcount:0+2 line:1226 name:wa%gproj(:,:)
host:0x5a597630 device:0x400b75600000 size:3145728 presentcount:0+2 line:1226 name:wa%gproj(:,:)
host:0x5e792450 device:0x4005729fcc00 size:2048 presentcount:0+1 line:179 name:w1(:)
host:0x5e792c70 device:0x4005727fa600 size:2048 presentcount:0+1 line:179 name:wtmp(:)
host:0x5e7c5b30 device:0x400a51e00000 size:7284736 presentcount:0+1 line:1101 name:w1%cptwfp(:)
host:0x5eeb8360 device:0x40044a1b2800 size:98304 presentcount:0+1 line:1101 name:w1%gproj(:)
host:0x5eed0390 device:0x4009d25b9400 size:98304 presentcount:0+1 line:1101 name:w1%gproj(:)
host:0x5eee83c0 device:0x4009d25d1400 size:98304 presentcount:0+1 line:1101 name:w1%gproj(:)
host:0x5f15cd80 device:0x400b76a00000 size:14569472 presentcount:0+1 line:202 name:precon(:,:)
host:0x5ff49340 device:0x4009cfa00000 size:7284736 presentcount:0+1 line:1101 name:w1%cptwfp(:)
host:0x60643730 device:0x400b75a00000 size:7284736 presentcount:0+1 line:1101 name:w1%cptwfp(:)
host:0x60d3e150 device:0x400b76200000 size:7284736 presentcount:0+1 line:1101 name:w1%cptwfp(:)
host:0x40035b2d10a0 device:0x400573a00000 size:45593280 presentcount:0+2 line:430 name:var%nli(:,:)
host:0x40035de539e0 device:0x4009d2a00000 size:14458880 presentcount:0+1 line:195 name:cstrf(:,:)
host:0x4003bdfd6740 device:0x400b71e00000 size:29138944 presentcount:0+2 line:1226 name:wa%cptwfp(:,:)
host:0x4004600012b0 device:0x400580000000 size:807411968 presentcount:0+2 line:430 name:var%rproj(:)
host:0x4004902131a0 device:0x4005e0000000 size:230400000 presentcount:0+2 line:194 name:sv(:,:)
host:0x40049ddd6950 device:0x400b73a00000 size:29138944 presentcount:0+2 line:1226 name:wa%cptwfp(:,:)
host:0x400540004a60 device:0x400560000000 size:298674176 presentcount:0+5 line:746 name:var%cptwfp(:,:,:,:)
host:0x400551ce6b60 device:0x400a40000000 size:233111552 presentcount:0+2 line:1226 name:wa%cptwfp(:,:)
host:0x400640007190 device:0x400360000000 size:230400000 presentcount:0+1 line:1101 name:w1%cr(:)
host:0x40064dbd73a0 device:0x4005b0400000 size:230400000 presentcount:0+1 line:1236 name:w1%cr(:)
host:0x4006800077c0 device:0x4005edc00000 size:230400000 presentcount:0+1 line:1101 name:w1%cr(:)
host:0x40068dbd79d0 device:0x400531000000 size:230400000 presentcount:0+1 line:1236 name:w1%cr(:)
host:0x4008a0007df0 device:0x4009a0000000 size:230400000 presentcount:0+1 line:1101 name:w1%cr(:)
host:0x4008adbd8000 device:0x400b51e00000 size:230400000 presentcount:0+1 line:1236 name:w1%cr(:)
host:0x400980008420 device:0x400b31e00000 size:230400000 presentcount:0+1 line:1101 name:w1%cr(:)
host:0x40098dbd0020 device:0x400b11e00000 size:230400000 presentcount:0+1 line:1236 name:w1%cr(:)
host:0x400b80005ae0 device:0x400bc0000000 size:921600000 presentcount:0+1 line:1005 name:cwork1(:,:)
host:0xffffde3fc310 device:0x4005727fb200 size:3024 presentcount:0+12 line:682 name:var
host:0xffffde3fcee0 device:0x4004b53ff800 size:1480 presentcount:0+1 line:174 name:w_ini
host:0xffffde3fd4b0 device:0x4005727f9c00 size:1480 presentcount:0+1 line:174 name:wopt
host:0xffffde3fda80 device:0x4004f51fbc00 size:1480 presentcount:0+1 line:174 name:wtmpa
allocated block device:0x40031e5e4000 size:41984 thread:1
allocated block device:0x40031e5ee400 size:4608 thread:1
allocated block device:0x40031e5ef600 size:512 thread:1
allocated block device:0x40031e5ef800 size:512 thread:1
allocated block device:0x40031e5efa00 size:512 thread:1
allocated block device:0x40031e5efc00 size:512 thread:1
allocated block device:0x40031e5efe00 size:512 thread:1
allocated block device:0x40031e5f0000 size:512 thread:1
allocated block device:0x40031e5f0200 size:512 thread:1
allocated block device:0x40031e5f0400 size:5120 thread:1
allocated block device:0x40031e5f1800 size:1536 thread:1
allocated block device:0x40031e5f1e00 size:1024 thread:1
allocated block device:0x40031e5f2200 size:1024 thread:1
allocated block device:0x40031e5f2600 size:1536 thread:1
allocated block device:0x40031e5f2c00 size:1024 thread:1
allocated block device:0x40031e5f3000 size:1024 thread:1
allocated block device:0x40031e5f3400 size:17408 thread:1
allocated block device:0x40031e5f7800 size:17408 thread:1
allocated block device:0x40031e5fbc00 size:2048 thread:1
allocated block device:0x40031e5fc400 size:512 thread:1
allocated block device:0x40031e5fc600 size:4608 thread:1
allocated block device:0x40031e5fd800 size:512 thread:1
allocated block device:0x40031e5fda00 size:4608 thread:1
allocated block device:0x40031e5fec00 size:3072 thread:1
allocated block device:0x40031e5ff800 size:512 thread:1
allocated block device:0x40031e5ffa00 size:512 thread:1
allocated block device:0x40031e5ffc00 size:512 thread:1
allocated block device:0x40031e5ffe00 size:512 thread:1
allocated block device:0x400360000000 size:230400000 thread:1
allocated block device:0x40044a11a000 size:83968 thread:1
allocated block device:0x40044a12e800 size:180224 thread:1
allocated block device:0x40044a15a800 size:180224 thread:1
allocated block device:0x40044a186800 size:180224 thread:1
allocated block device:0x40044a1b2800 size:98304 thread:1
allocated block device:0x40044a1ca800 size:98304 thread:1
allocated block device:0x4004b53ff800 size:1536 thread:1
allocated block device:0x4004d53ffa00 size:1024 thread:1
allocated block device:0x4004f51fbc00 size:2048 thread:1
allocated block device:0x4004f51fc600 size:2560 thread:1
allocated block device:0x4004f51fd000 size:512 thread:1
allocated block device:0x4004f51fd200 size:4608 thread:1
allocated block device:0x4004f51fe400 size:512 thread:1
allocated block device:0x4004f51fe600 size:4608 thread:1
allocated block device:0x4004f51ff800 size:512 thread:1
allocated block device:0x4004f51ffa00 size:512 thread:1
allocated block device:0x4004f51ffc00 size:512 thread:1
allocated block device:0x4004f51ffe00 size:512 thread:1
allocated block device:0x4005153f4000 size:41984 thread:1
allocated block device:0x4005153fe400 size:5120 thread:1
allocated block device:0x4005153ff800 size:512 thread:1
allocated block device:0x4005153ffa00 size:512 thread:1
allocated block device:0x4005153ffc00 size:512 thread:1
allocated block device:0x4005153ffe00 size:512 thread:1
allocated block device:0x400531000000 size:230400000 thread:1
allocated block device:0x400560000000 size:298674176 thread:1
allocated block device:0x400571e00000 size:4030464 thread:1
allocated block device:0x400572200000 size:1821184 thread:1
allocated block device:0x4005723bca00 size:180224 thread:1
allocated block device:0x4005723e8a00 size:26112 thread:1
allocated block device:0x4005723ef000 size:512 thread:1
allocated block device:0x4005723ef200 size:4608 thread:1
allocated block device:0x4005723f0400 size:4608 thread:1
allocated block device:0x4005723f1600 size:4608 thread:1
allocated block device:0x4005723f2800 size:512 thread:1
allocated block device:0x4005723f2a00 size:24064 thread:1
allocated block device:0x4005723f8800 size:512 thread:1
allocated block device:0x4005723f8a00 size:512 thread:1
allocated block device:0x4005723f8c00 size:24064 thread:1
allocated block device:0x4005723fea00 size:512 thread:1
allocated block device:0x4005723fec00 size:512 thread:1
allocated block device:0x4005723fee00 size:3072 thread:1
allocated block device:0x4005723ffa00 size:512 thread:1
allocated block device:0x4005723ffc00 size:1024 thread:1
allocated block device:0x400572400000 size:1821184 thread:1
allocated block device:0x4005725bca00 size:180224 thread:1
allocated block device:0x4005725e8a00 size:3072 thread:1
allocated block device:0x4005725e9600 size:5120 thread:1
allocated block device:0x4005725eaa00 size:1536 thread:1
allocated block device:0x4005725eb000 size:2560 thread:1
allocated block device:0x4005725eba00 size:1536 thread:1
allocated block device:0x4005725ec000 size:2048 thread:1
allocated block device:0x4005725ec800 size:7680 thread:1
allocated block device:0x4005725ee600 size:7680 thread:1
allocated block device:0x4005725f0400 size:3072 thread:1
allocated block device:0x4005725f1000 size:3072 thread:1
allocated block device:0x4005725f1c00 size:5120 thread:1
allocated block device:0x4005725f3000 size:5120 thread:1
allocated block device:0x4005725f4400 size:1024 thread:1
allocated block device:0x4005725f4800 size:1024 thread:1
allocated block device:0x4005725f4c00 size:1024 thread:1
allocated block device:0x4005725f5000 size:1024 thread:1
allocated block device:0x4005725f5400 size:1024 thread:1
allocated block device:0x4005725f5800 size:1024 thread:1
allocated block device:0x4005725f5c00 size:1024 thread:1
allocated block device:0x4005725f6000 size:5120 thread:1
allocated block device:0x4005725f7400 size:1536 thread:1
allocated block device:0x4005725f7a00 size:1024 thread:1
allocated block device:0x4005725f7e00 size:1024 thread:1
allocated block device:0x4005725f8200 size:1536 thread:1
allocated block device:0x4005725f8800 size:1024 thread:1
allocated block device:0x4005725f8c00 size:1024 thread:1
allocated block device:0x4005725f9000 size:1024 thread:1
allocated block device:0x4005725f9400 size:3072 thread:1
allocated block device:0x4005725fa000 size:3072 thread:1
allocated block device:0x4005725fac00 size:1536 thread:1
allocated block device:0x4005725fb200 size:1536 thread:1
allocated block device:0x4005725fb800 size:1024 thread:1
allocated block device:0x4005725fbc00 size:1024 thread:1
allocated block device:0x4005725fc000 size:1024 thread:1
allocated block device:0x4005725fc400 size:1024 thread:1
allocated block device:0x4005725fc800 size:1024 thread:1
allocated block device:0x4005725fcc00 size:1024 thread:1
allocated block device:0x4005725fd000 size:1024 thread:1
allocated block device:0x4005725fd400 size:1024 thread:1
allocated block device:0x4005725fd800 size:1536 thread:1
allocated block device:0x4005725fde00 size:1024 thread:1
allocated block device:0x4005725fe200 size:512 thread:1
allocated block device:0x4005725fe400 size:2560 thread:1
allocated block device:0x4005725fee00 size:3072 thread:1
allocated block device:0x400572600000 size:1821184 thread:1
allocated block device:0x4005727bca00 size:180224 thread:1
allocated block device:0x4005727e8a00 size:28672 thread:1
allocated block device:0x4005727efa00 size:40448 thread:1
allocated block device:0x4005727f9c00 size:2560 thread:1
allocated block device:0x4005727fa600 size:3072 thread:1
allocated block device:0x4005727fb200 size:3072 thread:1
allocated block device:0x400572800000 size:1821184 thread:1
allocated block device:0x4005729bca00 size:180224 thread:1
allocated block device:0x4005729e8a00 size:40448 thread:1
allocated block device:0x4005729fcc00 size:2048 thread:1
allocated block device:0x400572a00000 size:7284736 thread:1
allocated block device:0x400573200000 size:7284736 thread:1
allocated block device:0x400573a00000 size:45593600 thread:1
allocated block device:0x400580000000 size:807412224 thread:1
allocated block device:0x4005b0400000 size:230400000 thread:1
allocated block device:0x4005e0000000 size:230400000 thread:1
allocated block device:0x4005edc00000 size:230400000 thread:1
allocated block device:0x4005fb800000 size:391680 thread:1
allocated block device:0x4005fb85fa00 size:921600 thread:1
allocated block device:0x4005fb940a00 size:393216 thread:1
allocated block device:0x4005fba00000 size:2799616 thread:1
allocated block device:0x4005fbe00000 size:4030464 thread:1
allocated block device:0x4005fc200000 size:7284736 thread:1
allocated block device:0x4009a0000000 size:298674176 thread:1
allocated block device:0x4009c38c0000 size:393216 thread:1
allocated block device:0x4009cfa00000 size:7284736 thread:1
allocated block device:0x4009d2000000 size:1807360 thread:1
allocated block device:0x4009d21b9400 size:272384 thread:1
allocated block device:0x4009d21fbc00 size:8192 thread:1
allocated block device:0x4009d21fdc00 size:8192 thread:1
allocated block device:0x4009d21ffc00 size:512 thread:1
allocated block device:0x4009d2200000 size:1807360 thread:1
allocated block device:0x4009d23b9400 size:272384 thread:1
allocated block device:0x4009d23fbc00 size:8192 thread:1
allocated block device:0x4009d2400000 size:1807360 thread:1
allocated block device:0x4009d25b9400 size:98304 thread:1
allocated block device:0x4009d25d1400 size:98304 thread:1
allocated block device:0x4009d2600000 size:2799616 thread:1
allocated block device:0x4009d2a00000 size:14458880 thread:1
allocated block device:0x400a40000000 size:298674176 thread:1
allocated block device:0x400a51e00000 size:7284736 thread:1
allocated block device:0x400b11e00000 size:230400000 thread:1
allocated block device:0x400b31e00000 size:230400000 thread:1
allocated block device:0x400b51e00000 size:230400000 thread:1
allocated block device:0x400b71e00000 size:29138944 thread:1
allocated block device:0x400b73a00000 size:29138944 thread:1
allocated block device:0x400b75600000 size:3145728 thread:1
allocated block device:0x400b75a00000 size:7284736 thread:1
allocated block device:0x400b76200000 size:7284736 thread:1
allocated block device:0x400b76a00000 size:14569472 thread:1
allocated block device:0x400bc0000000 size:921600000 thread:1
Accelerator Fatal Error: call to cuMemAlloc returned error 2 (CUDA_ERROR_OUT_OF_MEMORY): Out of memory
 File: /lus/lfs1aip2/projects/u6cb/software/VASP/vasp.6.5.1/build/gam/fft_base.f90
 Function: restride_r2q_cmplx:945
 Line: 964

Out of memory allocating 921600000 bytes of device memory
Failing in Thread:1
total/free CUDA memory: 102005473280/316997632
Present table dump for device[1]: NVIDIA Tesla GPU 0, compute capability 9.0, threadid=1
Hint: specify 0x800 bit in NV_ACC_DEBUG for verbose info.
host:0x2557280 device:0x4006543fc000 size:32 presentcount:0+3 line:643 name:var%comm
host:0x25572a0 device:0x4007551ffa00 size:32 presentcount:0+4 line:652 name:var%comm_kinter
host:0x25572c0 device:0x4007551ffc00 size:32 presentcount:0+6 line:655 name:var%comm_kin
host:0x25572e0 device:0x4007551ff400 size:32 presentcount:0+3 line:646 name:var%comm_inter
host:0x2557300 device:0x4007551ff600 size:32 presentcount:0+7 line:649 name:var%comm_inb
host:0x256be80 device:0x40057a0ecd00 size:8 presentcount:0+1 line:-1 name:_setexm_struct_def_21
host:0x2576f40 device:0x40057a0ece00 size:28 presentcount:0+1 line:-1 name:_ml_ff_constant_21
host:0x2577c80 device:0x40057a0ecf00 size:30437 presentcount:0+1 line:-1 name:_ml_ff_taglist_21
host:0x25afc80 device:0x40057a0f4600 size:8 presentcount:0+1 line:-1 name:_mopenacc_tutor_21
host:0x25c2740 device:0x40057a0f4a00 size:32 presentcount:0+1 line:-1 name:_mbj_21
host:0x25cd640 device:0x40057a0f4d00 size:8 presentcount:0+1 line:-1 name:_sym_prec_21
host:0x26030c0 device:0x40057a0f4e00 size:344 presentcount:0+1 line:-1 name:_tet_21
host:0x261c840 device:0x40057a0f5000 size:392 presentcount:0+1 line:-1 name:_mymath_21
host:0x2817368 device:0x4006543eec00 size:4800 presentcount:0+2 line:614 name:var
host:0x2818628 device:0x4006543fa400 size:1984 presentcount:0+2 line:403 name:var
host:0x281a910 device:0x4007153ff800 size:864 presentcount:0+4 line:2639 name:hamiltonian
host:0x286ac80 device:0x4006543fd400 size:2712 presentcount:0+2 line:428 name:var
host:0x286b718 device:0x4007551fae00 size:2248 presentcount:0+1 line:742 name:var
host:0x286eb50 device:0x4007d27ff800 size:288 presentcount:0+1 line:195 name:latt_cur
host:0x2871658 device:0x4007753fe400 size:5088 presentcount:0+28 line:517 name:var
host:0x2872a38 device:0x4007d25f4800 size:5088 presentcount:0+6 line:517 name:var
host:0x2873e18 device:0x4007d25e8a00 size:5088 presentcount:0+7 line:517 name:var
host:0x287a2a8 device:0x4007551fe000 size:304 presentcount:0+1 line:567 name:var
host:0x287a3d8 device:0x4007d25fca00 size:304 presentcount:0+1 line:567 name:var
host:0x2e48ec0 device:0x40057a002600 size:960024 presentcount:0+1 line:-1 name:_setexm_struct_def_16
host:0x2f8f080 device:0x40057a0f4700 size:580 presentcount:0+1 line:-1 name:_wpbe_16
host:0x2f8f900 device:0x40057a0f4b00 size:288 presentcount:0+1 line:-1 name:_mbj_16
host:0x9f446c0 device:0x40057a0f5200 size:624 presentcount:0+1 line:-1 name:_mlr_optic_16
host:0x3685cc30 device:0x4007d25f7800 size:528 presentcount:0+1 line:480 name:var
host:0x3aaad840 device:0x4007551ff800 size:8 presentcount:0+4 line:405 name:var%nityp(:)
host:0x3afac050 device:0x4006543f0a00 size:1000 presentcount:0+4 line:519 name:var%lpctz(:)
host:0x3b4222c0 device:0x4006543fe400 size:8 presentcount:0+3 line:616 name:var%nt_global(:)
host:0x3b4223b0 device:0x4006543fe000 size:8 presentcount:0+3 line:616 name:var%lmmax(:)
host:0x3b4223e0 device:0x4006543fe800 size:8 presentcount:0+2 line:616 name:var%wtkpt(:)
host:0x3b422410 device:0x4006543fe200 size:8 presentcount:0+3 line:616 name:var%nityp(:)
host:0x3b42f150 device:0x4007d27e8a00 size:28464 presentcount:0+1 line:853 name:var(:)
host:0x3b4418d0 device:0x4007d29e8a00 size:40000 presentcount:0+1 line:857 name:var%psp(:,:)
host:0x3b44b540 device:0x4007d27fd800 size:8000 presentcount:0+1 line:857 name:var%psprho(:)
host:0x3b44e7d0 device:0x4007d23f7400 size:24000 presentcount:0+2 line:466 name:var%psprnl(:,:,:)
host:0x3b47e1b0 device:0x4007d23ef000 size:4320 presentcount:0+4 line:405 name:var%ityp(:)
host:0x3b47f2c0 device:0x4007d23e8a00 size:25920 presentcount:0+4 line:405 name:var%posion(:,:)
host:0x3b4c2620 device:0x4007d27efa00 size:40000 presentcount:0+1 line:857 name:var%psp(:,:)
host:0x3b4cc290 device:0x4007d27f9800 size:8000 presentcount:0+1 line:857 name:var%pspcor(:)
host:0x3b4ce200 device:0x4007d27fb800 size:8000 presentcount:0+1 line:857 name:var%psprho(:)
host:0x3b4d1490 device:0x4007d23f1400 size:24000 presentcount:0+2 line:466 name:var%psprnl(:,:,:)
host:0x3b51e450 device:0x4007753ffc00 size:24 presentcount:0+3 line:466 name:var%lps(:)
host:0x3b51e500 device:0x4007551fb800 size:24 presentcount:0+3 line:466 name:var%lps(:)
host:0x3b579df0 device:0x4006543fe600 size:24 presentcount:0+3 line:616 name:var%vkpt(:,:)
host:0x3b59f0a0 device:0x4006543eea00 size:16 presentcount:0+2 line:430 name:var%psrmax(:)
host:0x3b59f660 device:0x4006543fea00 size:4320 presentcount:0+3 line:616 name:var%ityp(:)
host:0x3b5a0770 device:0x4006543fc200 size:4320 presentcount:0+3 line:616 name:var%npro_pos(:)
host:0x3b5a1880 device:0x4006543fae00 size:4324 presentcount:0+3 line:616 name:var%lmbase(:)
host:0x3b5a2990 device:0x4006543ffe00 size:4 presentcount:0+2 line:616 name:var%nplwkp(:)
host:0x3b5a29c0 device:0x4007d23f7200 size:4 presentcount:0+2 line:616 name:var%nplwkp_tot(:)
host:0x3b5a29f0 device:0x4007d23fd200 size:4 presentcount:0+2 line:616 name:var%ngvector_pos(:)
host:0x3b5a2a20 device:0x4006543ffc00 size:4 presentcount:0+2 line:616 name:var%ngvector(:)
host:0x3b5a2a50 device:0x4006543f0000 size:1280 presentcount:0+4 line:519 name:var%lpctx(:)
host:0x3b5a2f80 device:0x4006543f0600 size:720 presentcount:0+4 line:519 name:var%lpcty(:)
host:0x3b5a3280 device:0x4006543f0e00 size:1280 presentcount:0+4 line:519 name:var%lpctx_(:)
host:0x3b5a37b0 device:0x4006543f1400 size:720 presentcount:0+4 line:519 name:var%lpcty_(:)
host:0x3b5a3ab0 device:0x4006543f1800 size:1000 presentcount:0+4 line:519 name:var%lpctz_(:)
host:0x3b5a3ec0 device:0x4007d25f5c00 size:1280 presentcount:0+1 line:519 name:var%lpctx(:)
host:0x3b5a43f0 device:0x4007d25f6200 size:720 presentcount:0+1 line:519 name:var%lpcty(:)
host:0x3b5a46f0 device:0x4007d25f6600 size:1000 presentcount:0+1 line:519 name:var%lpctz(:)
host:0x3b5a4b00 device:0x4007d25f6a00 size:1280 presentcount:0+1 line:519 name:var%lpctx_(:)
host:0x3b5a5030 device:0x4007d25f7000 size:720 presentcount:0+1 line:519 name:var%lpcty_(:)
host:0x3b5a5330 device:0x4007d25f7400 size:1000 presentcount:0+1 line:519 name:var%lpctz_(:)
host:0x3b5a5740 device:0x4007d23fd600 size:2560 presentcount:0+1 line:519 name:var%lpctx(:)
host:0x3b5a6170 device:0x4007d23ff000 size:1440 presentcount:0+1 line:519 name:var%lpcty(:)
host:0x3b5a6740 device:0x4007d23fe200 size:2000 presentcount:0+1 line:519 name:var%lpctz(:)
host:0x3b5a6f40 device:0x4007d23ff600 size:2560 presentcount:0+1 line:519 name:var%lpctx_(:)
host:0x3b5a7970 device:0x4007d25e9e00 size:1440 presentcount:0+1 line:519 name:var%lpcty_(:)
host:0x3b5a7f40 device:0x4007d25ea400 size:2000 presentcount:0+1 line:519 name:var%lpctz_(:)
host:0x3b694020 device:0x4007d25ee800 size:2824 presentcount:0+1 line:482 name:var%i2(:)
host:0x3b694b50 device:0x4007d25ef400 size:2824 presentcount:0+1 line:482 name:var%i3(:)
host:0x3b695680 device:0x4007d25f0000 size:5020 presentcount:0+1 line:482 name:var%i2(:)
host:0x3b696a50 device:0x4007d25f1400 size:5020 presentcount:0+1 line:482 name:var%i3(:)
host:0x3b697e20 device:0x4007d25eac00 size:7200 presentcount:0+2 line:482 name:var%i2(:)
host:0x3b699a70 device:0x4007d25eca00 size:7200 presentcount:0+2 line:482 name:var%i3(:)
host:0x3b69bae0 device:0x40085b85fa00 size:921600 presentcount:0+2 line:482 name:var%index(:,:)
host:0x3b77cb10 device:0x4007d25fcc00 size:2560 presentcount:0+1 line:569 name:var%ind1(:)
host:0x3b77d540 device:0x4007d25fd600 size:2824 presentcount:0+1 line:569 name:var%indcol(:)
host:0x3b77e070 device:0x4007d25f7c00 size:2824 presentcount:0+1 line:482 name:var%i2(:)
host:0x3b77eba0 device:0x4007d25f8800 size:2824 presentcount:0+1 line:482 name:var%i3(:)
host:0x3b77f6d0 device:0x4007d25f9400 size:1512 presentcount:0+1 line:482 name:var%i2(:)
host:0x3b77fce0 device:0x4007d25f9a00 size:1512 presentcount:0+1 line:482 name:var%i3(:)
host:0x3b7802f0 device:0x4007551fba00 size:4320 presentcount:0+2 line:430 name:var%nlimax(:)
host:0x3b781400 device:0x4007551fce00 size:4324 presentcount:0+2 line:430 name:var%lmbase(:)
host:0x3b782510 device:0x4007551fe200 size:4324 presentcount:0+2 line:430 name:var%nlibase(:)
host:0x3b783620 device:0x4006543f1c00 size:17132 presentcount:0+4 line:519 name:var%nindpwconjg(:)
host:0x3b787940 device:0x4006543f6000 size:17132 presentcount:0+4 line:519 name:var%ind_in_sphere(:)
host:0x3b78cb90 device:0x4007d25fa400 size:516 presentcount:0+1 line:499 name:var%ptr(:)
host:0x3b78cdc0 device:0x4007d25fa000 size:516 presentcount:0+1 line:499 name:var%n(:)
host:0x3b78cff0 device:0x400c321b9400 size:181440 presentcount:0+1 line:499 name:var%tbli(:)
host:0x3b7b94e0 device:0x4007d25fac00 size:516 presentcount:0+1 line:499 name:var%ptri(:)
host:0x3b7b9710 device:0x4007551fcc00 size:4 presentcount:0+1 line:499 name:var%tbli(:)
host:0x3b7b9860 device:0x4007d25fc000 size:1280 presentcount:0+1 line:569 name:var%ind1(:)
host:0x3b7b9d90 device:0x4007d25fc600 size:688 presentcount:0+1 line:569 name:var%indcol(:)
host:0x3b7ba070 device:0x4006aa12e800 size:180000 presentcount:0+4 line:482 name:var%i2(:)
host:0x3b7e5fc0 device:0x4006aa15a800 size:180000 presentcount:0+4 line:482 name:var%i3(:)
host:0x3b811f10 device:0x4007d23bca00 size:180000 presentcount:0+8 line:482 name:var%index(:,:)
host:0x3b83de60 device:0x4007d29bca00 size:180000 presentcount:0+8 line:482 name:var%i2(:)
host:0x3b869db0 device:0x4006aa186800 size:180000 presentcount:0+8 line:482 name:var%i3(:)
host:0x3b896330 device:0x4007d2400000 size:1821184 presentcount:0+3 line:616 name:var%nindpw(:,:)
host:0x3ba52d60 device:0x4006543fac00 size:8 presentcount:0+2 line:616 name:var%nb_totk(:,:)
host:0x3ba52d90 device:0x4007d23fd400 size:4 presentcount:0+2 line:616 name:var%luseinv(:)
host:0x3ba52dc0 device:0x4006543ee600 size:4 presentcount:0+2 line:616 name:var%at_gamma(:)
host:0x3ba52df0 device:0x4007d25bca00 size:180000 presentcount:0+3 line:616 name:var%pl_index(:,:)
host:0x3ba7ed40 device:0x4007d27bca00 size:180000 presentcount:0+3 line:616 name:var%pl_col(:,:)
host:0x3baaac90 device:0x4007d23fee00 size:8 presentcount:0+2 line:405 name:var%lmmax(:)
host:0x3baaacc0 device:0x4007551ffe00 size:8 presentcount:0+2 line:430 name:var%lmax(:)
host:0x3baaacf0 device:0x4007d23f0200 size:4324 presentcount:0+2 line:405 name:var%lmbase(:)
host:0x3baabe00 device:0x4006543ee400 size:8 presentcount:0+2 line:430 name:var%lmmax(:)
host:0x3baabe30 device:0x4006543ee800 size:8 presentcount:0+2 line:430 name:var%channels(:)
host:0x3baabe60 device:0x4007753ff800 size:16 presentcount:0+2 line:430 name:var%rsmooth(:)
host:0x3baabea0 device:0x4007753ffa00 size:400 presentcount:0+2 line:464 name:var
host:0x3baac030 device:0x4007753ffe00 size:400 presentcount:0+2 line:464 name:var
host:0x3bb1ca50 device:0x40085b800000 size:220160 presentcount:0+1 line:499 name:var%tbl(:)
host:0x3bb882b0 device:0x4007d25fa800 size:516 presentcount:0+1 line:499 name:var%ni(:)
host:0x3bb884e0 device:0x400c323b9400 size:181440 presentcount:0+1 line:499 name:var%tbl(:)
host:0x3bbb49d0 device:0x4007d25fb400 size:516 presentcount:0+1 line:499 name:var%ptr(:)
host:0x3bbb4c00 device:0x4007d25fb000 size:516 presentcount:0+1 line:499 name:var%n(:)
host:0x3bbb4e30 device:0x4007d25fbc00 size:516 presentcount:0+1 line:499 name:var%ptri(:)
host:0x3bbb5060 device:0x4007d25fb800 size:516 presentcount:0+1 line:499 name:var%ni(:)
host:0x3bbb6830 device:0x4007d25f2c00 size:516 presentcount:0+1 line:499 name:var%ptr(:)
host:0x3bbd1a00 device:0x4007d25f2800 size:516 presentcount:0+1 line:499 name:var%n(:)
host:0x3bbd1c30 device:0x4007d25f3400 size:516 presentcount:0+1 line:499 name:var%ptri(:)
host:0x3bbd1e60 device:0x4007d25f3000 size:516 presentcount:0+1 line:499 name:var%ni(:)
host:0x3bbd2090 device:0x4007d25f3c00 size:516 presentcount:0+1 line:499 name:var%ptr(:)
host:0x3bbd22c0 device:0x4007d25f3800 size:516 presentcount:0+1 line:499 name:var%n(:)
host:0x3bbd24f0 device:0x4007d25f4400 size:516 presentcount:0+1 line:499 name:var%ptri(:)
host:0x3bbd2720 device:0x4007d25f4000 size:516 presentcount:0+1 line:499 name:var%ni(:)
host:0x3bd19af0 device:0x40085c200000 size:7284736 presentcount:0+3 line:616 name:var%datake(:,:,:)
host:0x3c40cd70 device:0x4007d2600000 size:1821184 presentcount:0+3 line:616 name:var%igx(:,:)
host:0x3c5ca400 device:0x4007d2200000 size:1821184 presentcount:0+3 line:616 name:var%igy(:,:)
host:0x3c787ca0 device:0x4007d2800000 size:1821184 presentcount:0+3 line:616 name:var%igz(:,:)
host:0x3c945b70 device:0x4007d3200000 size:7284272 presentcount:0+4 line:519 name:var%fftsca(:,:)
host:0x3d0f7d80 device:0x40085ba00000 size:1807360 presentcount:0+1 line:499 name:var%tbl(:)
host:0x3d46d970 device:0x400c32000000 size:1807200 presentcount:0+1 line:499 name:var%tbli(:)
host:0x3d6289e0 device:0x400c32200000 size:1807200 presentcount:0+1 line:499 name:var%tbl(:)
host:0x3d832420 device:0x4006aa11a000 size:83968 presentcount:0+2 line:746 name:var%celtot(:,:,:)
host:0x3d8b2420 device:0x4006543e4000 size:41984 presentcount:0+2 line:746 name:var%fertot(:,:,:)
host:0x3d8c0030 device:0x4007753f4000 size:41984 presentcount:0+1 line:746 name:var%auxtot(:,:,:)
host:0x3d99f0f0 device:0x400c32400000 size:1807200 presentcount:0+1 line:499 name:var%tbli(:)
host:0x3fa5ab70 device:0x4007d2a00000 size:7200000 presentcount:0+1 line:195 name:dencor(:)
host:0x40824e60 device:0x4007d1e00000 size:2799360 presentcount:0+2 line:194 name:cdij(:,:,:,:)
host:0x40ad4580 device:0x400c32600000 size:2799360 presentcount:0+2 line:194 name:cqij(:,:,:,:)
host:0x41034230 device:0x40085be00000 size:4030464 presentcount:0+5 line:746 name:var%gproj(:,:,:,:)
host:0x416c29b0 device:0x4006aa1ca800 size:98304 presentcount:0+1 line:1101 name:w1%gproj(:)
host:0x48334130 device:0x40085b940a00 size:393216 presentcount:0+2 line:1226 name:wa%gproj(:,:)
host:0x48394160 device:0x400c238c0000 size:393216 presentcount:0+2 line:1226 name:wa%gproj(:,:)
host:0x483faee0 device:0x400dd5600000 size:3145728 presentcount:0+2 line:1226 name:wa%gproj(:,:)
host:0x4c616970 device:0x4007d29fe200 size:2048 presentcount:0+1 line:179 name:w1(:)
host:0x4c617190 device:0x400c321f5600 size:2048 presentcount:0+1 line:179 name:wtmp(:)
host:0x4c6492f0 device:0x400cb1e00000 size:7284736 presentcount:0+1 line:1101 name:w1%cptwfp(:)
host:0x4cd3bb20 device:0x4006aa1b2800 size:98304 presentcount:0+1 line:1101 name:w1%gproj(:)
host:0x4cd53b50 device:0x400c323e5a00 size:98304 presentcount:0+1 line:1101 name:w1%gproj(:)
host:0x4cd6bb80 device:0x4006aa1e2800 size:98304 presentcount:0+1 line:1101 name:w1%gproj(:)
host:0x4cf90730 device:0x400dd6a00000 size:14569472 presentcount:0+1 line:202 name:precon(:,:)
host:0x4dd7ccf0 device:0x400c2fa00000 size:7284736 presentcount:0+1 line:1101 name:w1%cptwfp(:)
host:0x4e4770e0 device:0x400dd5a00000 size:7284736 presentcount:0+1 line:1101 name:w1%cptwfp(:)
host:0x4eb71b00 device:0x400dd6200000 size:7284736 presentcount:0+1 line:1101 name:w1%cptwfp(:)
host:0x4005bb8810a0 device:0x4007d3a00000 size:45593280 presentcount:0+2 line:430 name:var%nli(:,:)
host:0x4005be4039e0 device:0x400c32a00000 size:14458880 presentcount:0+1 line:195 name:cstrf(:,:)
host:0x4006c00012b0 device:0x4007e0000000 size:807411968 presentcount:0+2 line:430 name:var%rproj(:)
host:0x4006f02131a0 device:0x400840000000 size:230400000 presentcount:0+2 line:194 name:sv(:,:)
host:0x4006fddd6740 device:0x400dd1e00000 size:29138944 presentcount:0+2 line:1226 name:wa%cptwfp(:,:)
host:0x4007a0004a60 device:0x4007c0000000 size:298674176 presentcount:0+5 line:746 name:var%cptwfp(:,:,:,:)
host:0x4007b1ce6950 device:0x400dd3a00000 size:29138944 presentcount:0+2 line:1226 name:wa%cptwfp(:,:)
host:0x4008a0006b60 device:0x400ca0000000 size:233111552 presentcount:0+2 line:1226 name:wa%cptwfp(:,:)
host:0x4008ade67190 device:0x4005c0000000 size:230400000 presentcount:0+1 line:1101 name:w1%cr(:)
host:0x4008e00073a0 device:0x400810400000 size:230400000 presentcount:0+1 line:1236 name:w1%cr(:)
host:0x4008edbd77c0 device:0x40084dc00000 size:230400000 presentcount:0+1 line:1101 name:w1%cr(:)
host:0x400b000079d0 device:0x400791000000 size:230400000 presentcount:0+1 line:1236 name:w1%cr(:)
host:0x400b0dbd7df0 device:0x400c00000000 size:230400000 presentcount:0+1 line:1101 name:w1%cr(:)
host:0x400be0008000 device:0x400db1e00000 size:230400000 presentcount:0+1 line:1236 name:w1%cr(:)
host:0x400bedbd8420 device:0x400d91e00000 size:230400000 presentcount:0+1 line:1101 name:w1%cr(:)
host:0x400c80000020 device:0x400d71e00000 size:230400000 presentcount:0+1 line:1236 name:w1%cr(:)
host:0xffffee3943b0 device:0x400c321f6200 size:3024 presentcount:0+12 line:682 name:var
host:0xffffee394f80 device:0x4007353ff600 size:1480 presentcount:0+1 line:174 name:w_ini
host:0xffffee395550 device:0x4007d25ff600 size:1480 presentcount:0+1 line:174 name:wopt
host:0xffffee395b20 device:0x4007551fa400 size:1480 presentcount:0+1 line:174 name:wtmpa
allocated block device:0x4005c0000000 size:230400000 thread:1
allocated block device:0x4006543e4000 size:41984 thread:1
allocated block device:0x4006543ee400 size:512 thread:1
allocated block device:0x4006543ee600 size:512 thread:1
allocated block device:0x4006543ee800 size:512 thread:1
allocated block device:0x4006543eea00 size:512 thread:1
allocated block device:0x4006543eec00 size:5120 thread:1
allocated block device:0x4006543f0000 size:1536 thread:1
allocated block device:0x4006543f0600 size:1024 thread:1
allocated block device:0x4006543f0a00 size:1024 thread:1
allocated block device:0x4006543f0e00 size:1536 thread:1
allocated block device:0x4006543f1400 size:1024 thread:1
allocated block device:0x4006543f1800 size:1024 thread:1
allocated block device:0x4006543f1c00 size:17408 thread:1
allocated block device:0x4006543f6000 size:17408 thread:1
allocated block device:0x4006543fa400 size:2048 thread:1
allocated block device:0x4006543fac00 size:512 thread:1
allocated block device:0x4006543fae00 size:4608 thread:1
allocated block device:0x4006543fc000 size:512 thread:1
allocated block device:0x4006543fc200 size:4608 thread:1
allocated block device:0x4006543fd400 size:3072 thread:1
allocated block device:0x4006543fe000 size:512 thread:1
allocated block device:0x4006543fe200 size:512 thread:1
allocated block device:0x4006543fe400 size:512 thread:1
allocated block device:0x4006543fe600 size:512 thread:1
allocated block device:0x4006543fe800 size:512 thread:1
allocated block device:0x4006543fea00 size:4608 thread:1
allocated block device:0x4006543ffc00 size:512 thread:1
allocated block device:0x4006543ffe00 size:512 thread:1
allocated block device:0x4006aa11a000 size:83968 thread:1
allocated block device:0x4006aa12e800 size:180224 thread:1
allocated block device:0x4006aa15a800 size:180224 thread:1
allocated block device:0x4006aa186800 size:180224 thread:1
allocated block device:0x4006aa1b2800 size:98304 thread:1
allocated block device:0x4006aa1ca800 size:98304 thread:1
allocated block device:0x4006aa1e2800 size:98304 thread:1
allocated block device:0x4007153ff800 size:1024 thread:1
allocated block device:0x4007353ff600 size:1536 thread:1
allocated block device:0x4007551fa400 size:2048 thread:1
allocated block device:0x4007551fae00 size:2560 thread:1
allocated block device:0x4007551fb800 size:512 thread:1
allocated block device:0x4007551fba00 size:4608 thread:1
allocated block device:0x4007551fcc00 size:512 thread:1
allocated block device:0x4007551fce00 size:4608 thread:1
allocated block device:0x4007551fe000 size:512 thread:1
allocated block device:0x4007551fe200 size:4608 thread:1
allocated block device:0x4007551ff400 size:512 thread:1
allocated block device:0x4007551ff600 size:512 thread:1
allocated block device:0x4007551ff800 size:512 thread:1
allocated block device:0x4007551ffa00 size:512 thread:1
allocated block device:0x4007551ffc00 size:512 thread:1
allocated block device:0x4007551ffe00 size:512 thread:1
allocated block device:0x4007753f4000 size:41984 thread:1
allocated block device:0x4007753fe400 size:5120 thread:1
allocated block device:0x4007753ff800 size:512 thread:1
allocated block device:0x4007753ffa00 size:512 thread:1
allocated block device:0x4007753ffc00 size:512 thread:1
allocated block device:0x4007753ffe00 size:512 thread:1
allocated block device:0x400791000000 size:230400000 thread:1
allocated block device:0x4007c0000000 size:298674176 thread:1
allocated block device:0x4007d1e00000 size:4030464 thread:1
allocated block device:0x4007d2200000 size:1821184 thread:1
allocated block device:0x4007d23bca00 size:180224 thread:1
allocated block device:0x4007d23e8a00 size:26112 thread:1
allocated block device:0x4007d23ef000 size:4608 thread:1
allocated block device:0x4007d23f0200 size:4608 thread:1
allocated block device:0x4007d23f1400 size:24064 thread:1
allocated block device:0x4007d23f7200 size:512 thread:1
allocated block device:0x4007d23f7400 size:24064 thread:1
allocated block device:0x4007d23fd200 size:512 thread:1
allocated block device:0x4007d23fd400 size:512 thread:1
allocated block device:0x4007d23fd600 size:3072 thread:1
allocated block device:0x4007d23fe200 size:3072 thread:1
allocated block device:0x4007d23fee00 size:512 thread:1
allocated block device:0x4007d23ff000 size:1536 thread:1
allocated block device:0x4007d23ff600 size:2560 thread:1
allocated block device:0x4007d2400000 size:1821184 thread:1
allocated block device:0x4007d25bca00 size:180224 thread:1
allocated block device:0x4007d25e8a00 size:5120 thread:1
allocated block device:0x4007d25e9e00 size:1536 thread:1
allocated block device:0x4007d25ea400 size:2048 thread:1
allocated block device:0x4007d25eac00 size:7680 thread:1
allocated block device:0x4007d25eca00 size:7680 thread:1
allocated block device:0x4007d25ee800 size:3072 thread:1
allocated block device:0x4007d25ef400 size:3072 thread:1
allocated block device:0x4007d25f0000 size:5120 thread:1
allocated block device:0x4007d25f1400 size:5120 thread:1
allocated block device:0x4007d25f2800 size:1024 thread:1
allocated block device:0x4007d25f2c00 size:1024 thread:1
allocated block device:0x4007d25f3000 size:1024 thread:1
allocated block device:0x4007d25f3400 size:1024 thread:1
allocated block device:0x4007d25f3800 size:1024 thread:1
allocated block device:0x4007d25f3c00 size:1024 thread:1
allocated block device:0x4007d25f4000 size:1024 thread:1
allocated block device:0x4007d25f4400 size:1024 thread:1
allocated block device:0x4007d25f4800 size:5120 thread:1
allocated block device:0x4007d25f5c00 size:1536 thread:1
allocated block device:0x4007d25f6200 size:1024 thread:1
allocated block device:0x4007d25f6600 size:1024 thread:1
allocated block device:0x4007d25f6a00 size:1536 thread:1
allocated block device:0x4007d25f7000 size:1024 thread:1
allocated block device:0x4007d25f7400 size:1024 thread:1
allocated block device:0x4007d25f7800 size:1024 thread:1
allocated block device:0x4007d25f7c00 size:3072 thread:1
allocated block device:0x4007d25f8800 size:3072 thread:1
allocated block device:0x4007d25f9400 size:1536 thread:1
allocated block device:0x4007d25f9a00 size:1536 thread:1
allocated block device:0x4007d25fa000 size:1024 thread:1
allocated block device:0x4007d25fa400 size:1024 thread:1
allocated block device:0x4007d25fa800 size:1024 thread:1
allocated block device:0x4007d25fac00 size:1024 thread:1
allocated block device:0x4007d25fb000 size:1024 thread:1
allocated block device:0x4007d25fb400 size:1024 thread:1
allocated block device:0x4007d25fb800 size:1024 thread:1
allocated block device:0x4007d25fbc00 size:1024 thread:1
allocated block device:0x4007d25fc000 size:1536 thread:1
allocated block device:0x4007d25fc600 size:1024 thread:1
allocated block device:0x4007d25fca00 size:512 thread:1
allocated block device:0x4007d25fcc00 size:2560 thread:1
allocated block device:0x4007d25fd600 size:3072 thread:1
allocated block device:0x4007d25ff600 size:2560 thread:1
allocated block device:0x4007d2600000 size:1821184 thread:1
allocated block device:0x4007d27bca00 size:180224 thread:1
allocated block device:0x4007d27e8a00 size:28672 thread:1
allocated block device:0x4007d27efa00 size:40448 thread:1
allocated block device:0x4007d27f9800 size:8192 thread:1
allocated block device:0x4007d27fb800 size:8192 thread:1
allocated block device:0x4007d27fd800 size:8192 thread:1
allocated block device:0x4007d27ff800 size:512 thread:1
allocated block device:0x4007d2800000 size:1821184 thread:1
allocated block device:0x4007d29bca00 size:180224 thread:1
allocated block device:0x4007d29e8a00 size:40448 thread:1
allocated block device:0x4007d29fe200 size:2048 thread:1
allocated block device:0x4007d2a00000 size:7284736 thread:1
allocated block device:0x4007d3200000 size:7284736 thread:1
allocated block device:0x4007d3a00000 size:45593600 thread:1
allocated block device:0x4007e0000000 size:807412224 thread:1
allocated block device:0x400810400000 size:230400000 thread:1
allocated block device:0x400840000000 size:230400000 thread:1
allocated block device:0x40084dc00000 size:230400000 thread:1
allocated block device:0x40085b800000 size:391680 thread:1
allocated block device:0x40085b85fa00 size:921600 thread:1
allocated block device:0x40085b940a00 size:393216 thread:1
allocated block device:0x40085ba00000 size:2799616 thread:1
allocated block device:0x40085be00000 size:4030464 thread:1
allocated block device:0x40085c200000 size:7284736 thread:1
allocated block device:0x400c00000000 size:298674176 thread:1
allocated block device:0x400c238c0000 size:393216 thread:1
allocated block device:0x400c2fa00000 size:7284736 thread:1
allocated block device:0x400c32000000 size:1807360 thread:1
allocated block device:0x400c321b9400 size:181760 thread:1
allocated block device:0x400c321f5600 size:3072 thread:1
allocated block device:0x400c321f6200 size:3072 thread:1
allocated block device:0x400c32200000 size:1807360 thread:1
allocated block device:0x400c323b9400 size:181760 thread:1
allocated block device:0x400c323e5a00 size:98304 thread:1
allocated block device:0x400c32400000 size:1807360 thread:1
allocated block device:0x400c32600000 size:2799616 thread:1
allocated block device:0x400c32a00000 size:14458880 thread:1
allocated block device:0x400ca0000000 size:298674176 thread:1
allocated block device:0x400cb1e00000 size:7284736 thread:1
allocated block device:0x400d71e00000 size:230400000 thread:1
allocated block device:0x400d91e00000 size:230400000 thread:1
allocated block device:0x400db1e00000 size:230400000 thread:1
allocated block device:0x400dd1e00000 size:29138944 thread:1
allocated block device:0x400dd3a00000 size:29138944 thread:1
allocated block device:0x400dd5600000 size:3145728 thread:1
allocated block device:0x400dd5a00000 size:7284736 thread:1
allocated block device:0x400dd6200000 size:7284736 thread:1
allocated block device:0x400dd6a00000 size:14569472 thread:1
Accelerator Fatal Error: call to cuMemAlloc returned error 2 (CUDA_ERROR_OUT_OF_MEMORY): Out of memory
 File: /lus/lfs1aip2/projects/u6cb/software/VASP/vasp.6.5.1/build/gam/hamil.f90
 Function: hamiltmu:978
 Line: 1005

Out of memory allocating 921600000 bytes of device memory
Failing in Thread:1
total/free CUDA memory: 102005473280/316866560
Present table dump for device[1]: NVIDIA Tesla GPU 0, compute capability 9.0, threadid=1
Hint: specify 0x800 bit in NV_ACC_DEBUG for verbose info.
host:0x2557280 device:0x40047e3fc000 size:32 presentcount:0+3 line:643 name:var%comm
host:0x25572a0 device:0x4006671ffa00 size:32 presentcount:0+4 line:652 name:var%comm_kinter
host:0x25572c0 device:0x4006671ffc00 size:32 presentcount:0+6 line:655 name:var%comm_kin
host:0x25572e0 device:0x4006671ff400 size:32 presentcount:0+3 line:646 name:var%comm_inter
host:0x2557300 device:0x4006671ff600 size:32 presentcount:0+7 line:649 name:var%comm_inb
host:0x256be80 device:0x40047a0ecd00 size:8 presentcount:0+1 line:-1 name:_setexm_struct_def_21
host:0x2576f40 device:0x40047a0ece00 size:28 presentcount:0+1 line:-1 name:_ml_ff_constant_21
host:0x2577c80 device:0x40047a0ecf00 size:30437 presentcount:0+1 line:-1 name:_ml_ff_taglist_21
host:0x25afc80 device:0x40047a0f4600 size:8 presentcount:0+1 line:-1 name:_mopenacc_tutor_21
host:0x25c2740 device:0x40047a0f4a00 size:32 presentcount:0+1 line:-1 name:_mbj_21
host:0x25cd640 device:0x40047a0f4d00 size:8 presentcount:0+1 line:-1 name:_sym_prec_21
host:0x26030c0 device:0x40047a0f4e00 size:344 presentcount:0+1 line:-1 name:_tet_21
host:0x261c840 device:0x40047a0f5000 size:392 presentcount:0+1 line:-1 name:_mymath_21
host:0x2817368 device:0x40047e3eec00 size:4800 presentcount:0+2 line:614 name:var
host:0x2818628 device:0x40047e3fa400 size:1984 presentcount:0+2 line:403 name:var
host:0x281a910 device:0x4006271ff800 size:864 presentcount:0+4 line:2639 name:hamiltonian
host:0x286ac80 device:0x40047e3fd400 size:2712 presentcount:0+2 line:428 name:var
host:0x286b718 device:0x4006671fae00 size:2248 presentcount:0+1 line:742 name:var
host:0x286eb50 device:0x4006d27ff800 size:288 presentcount:0+1 line:195 name:latt_cur
host:0x2871658 device:0x4006871fe400 size:5088 presentcount:0+28 line:517 name:var
host:0x2872a38 device:0x4006d25f4800 size:5088 presentcount:0+6 line:517 name:var
host:0x2873e18 device:0x4006d25e8a00 size:5088 presentcount:0+7 line:517 name:var
host:0x287a2a8 device:0x4006671fe000 size:304 presentcount:0+1 line:567 name:var
host:0x287a3d8 device:0x4006d25fca00 size:304 presentcount:0+1 line:567 name:var
host:0x2e48ec0 device:0x40047a002600 size:960024 presentcount:0+1 line:-1 name:_setexm_struct_def_16
host:0x2f8f080 device:0x40047a0f4700 size:580 presentcount:0+1 line:-1 name:_wpbe_16
host:0x2f8f900 device:0x40047a0f4b00 size:288 presentcount:0+1 line:-1 name:_mbj_16
host:0x9f446c0 device:0x40047a0f5200 size:624 presentcount:0+1 line:-1 name:_mlr_optic_16
host:0x2f1095e0 device:0x40047e3fe800 size:8 presentcount:0+2 line:616 name:var%wtkpt(:)
host:0x2f109610 device:0x40047e3fe200 size:8 presentcount:0+3 line:616 name:var%nityp(:)
host:0x2fa29470 device:0x4006d25f7800 size:528 presentcount:0+1 line:480 name:var
host:0x33ae84a0 device:0x4006871ffa00 size:400 presentcount:0+2 line:464 name:var
host:0x33ae8630 device:0x4006871ffe00 size:400 presentcount:0+2 line:464 name:var
host:0x38180120 device:0x4006671ff800 size:8 presentcount:0+4 line:405 name:var%nityp(:)
host:0x3867e930 device:0x40047e3f0a00 size:1000 presentcount:0+4 line:519 name:var%lpctz(:)
host:0x38b01b30 device:0x4006d27e8a00 size:28464 presentcount:0+1 line:853 name:var(:)
host:0x38b14290 device:0x4006d29e8a00 size:40000 presentcount:0+1 line:857 name:var%psp(:,:)
host:0x38b1df00 device:0x4006d27fd800 size:8000 presentcount:0+1 line:857 name:var%psprho(:)
host:0x38b21190 device:0x4006d23f7400 size:24000 presentcount:0+2 line:466 name:var%psprnl(:,:,:)
host:0x38b50b70 device:0x4006d23ef000 size:4320 presentcount:0+4 line:405 name:var%ityp(:)
host:0x38b51c80 device:0x4006d23e8a00 size:25920 presentcount:0+4 line:405 name:var%posion(:,:)
host:0x38b94e50 device:0x4006d27f9800 size:8000 presentcount:0+1 line:857 name:var%pspcor(:)
host:0x38b96dc0 device:0x4006d27fb800 size:8000 presentcount:0+1 line:857 name:var%psprho(:)
host:0x38b9a930 device:0x4006d27efa00 size:40000 presentcount:0+1 line:857 name:var%psp(:,:)
host:0x38ba45a0 device:0x4006d23f1400 size:24000 presentcount:0+2 line:466 name:var%psprnl(:,:,:)
host:0x38bb77d0 device:0x4006d25fa400 size:516 presentcount:0+1 line:499 name:var%ptr(:)
host:0x38be4650 device:0x4006871ffc00 size:24 presentcount:0+3 line:466 name:var%lps(:)
host:0x38be4700 device:0x4006671fb800 size:24 presentcount:0+3 line:466 name:var%lps(:)
host:0x38d52c30 device:0x40047e3fe600 size:24 presentcount:0+3 line:616 name:var%vkpt(:,:)
host:0x38d77f50 device:0x40047e3eea00 size:16 presentcount:0+2 line:430 name:var%psrmax(:)
host:0x38d78510 device:0x40047e3fea00 size:4320 presentcount:0+3 line:616 name:var%ityp(:)
host:0x38d79620 device:0x40047e3fe000 size:8 presentcount:0+3 line:616 name:var%lmmax(:)
host:0x38d79650 device:0x40047e3fe400 size:8 presentcount:0+3 line:616 name:var%nt_global(:)
host:0x38d79680 device:0x40047e3fc200 size:4320 presentcount:0+3 line:616 name:var%npro_pos(:)
host:0x38d7a790 device:0x40047e3fae00 size:4324 presentcount:0+3 line:616 name:var%lmbase(:)
host:0x38d7b8a0 device:0x40047e3ffe00 size:4 presentcount:0+2 line:616 name:var%nplwkp(:)
host:0x38d7b8d0 device:0x4006d23f7200 size:4 presentcount:0+2 line:616 name:var%nplwkp_tot(:)
host:0x38d7b900 device:0x4006d23fd200 size:4 presentcount:0+2 line:616 name:var%ngvector_pos(:)
host:0x38d7b930 device:0x40047e3ffc00 size:4 presentcount:0+2 line:616 name:var%ngvector(:)
host:0x38d7b960 device:0x40047e3f0000 size:1280 presentcount:0+4 line:519 name:var%lpctx(:)
host:0x38d7be90 device:0x40047e3f0600 size:720 presentcount:0+4 line:519 name:var%lpcty(:)
host:0x38d7c190 device:0x40047e3f0e00 size:1280 presentcount:0+4 line:519 name:var%lpctx_(:)
host:0x38d7c6c0 device:0x40047e3f1400 size:720 presentcount:0+4 line:519 name:var%lpcty_(:)
host:0x38d7c9c0 device:0x40047e3f1800 size:1000 presentcount:0+4 line:519 name:var%lpctz_(:)
host:0x38d7cdd0 device:0x4006d25f5c00 size:1280 presentcount:0+1 line:519 name:var%lpctx(:)
host:0x38d7d300 device:0x4006d25f6200 size:720 presentcount:0+1 line:519 name:var%lpcty(:)
host:0x38d7d600 device:0x4006d25f6600 size:1000 presentcount:0+1 line:519 name:var%lpctz(:)
host:0x38d7da10 device:0x4006d25f6a00 size:1280 presentcount:0+1 line:519 name:var%lpctx_(:)
host:0x38d7df40 device:0x4006d25f7000 size:720 presentcount:0+1 line:519 name:var%lpcty_(:)
host:0x38d7e240 device:0x4006d25f7400 size:1000 presentcount:0+1 line:519 name:var%lpctz_(:)
host:0x38d7e650 device:0x4006d23fd600 size:2560 presentcount:0+1 line:519 name:var%lpctx(:)
host:0x38d7f080 device:0x4006d23ff000 size:1440 presentcount:0+1 line:519 name:var%lpcty(:)
host:0x38d7f650 device:0x4006d23fe200 size:2000 presentcount:0+1 line:519 name:var%lpctz(:)
host:0x38d7fe50 device:0x4006d23ff600 size:2560 presentcount:0+1 line:519 name:var%lpctx_(:)
host:0x38d80880 device:0x4006d25e9e00 size:1440 presentcount:0+1 line:519 name:var%lpcty_(:)
host:0x38d80e50 device:0x4006d25ea400 size:2000 presentcount:0+1 line:519 name:var%lpctz_(:)
host:0x38e6cf30 device:0x4006d25ee800 size:2824 presentcount:0+1 line:482 name:var%i2(:)
host:0x38e6da60 device:0x4006d25ef400 size:2824 presentcount:0+1 line:482 name:var%i3(:)
host:0x38e6e590 device:0x4006d25f0000 size:5020 presentcount:0+1 line:482 name:var%i2(:)
host:0x38e6f960 device:0x4006d25f1400 size:5020 presentcount:0+1 line:482 name:var%i3(:)
host:0x38e70d30 device:0x4006d25eac00 size:7200 presentcount:0+2 line:482 name:var%i2(:)
host:0x38e72980 device:0x4006d25eca00 size:7200 presentcount:0+2 line:482 name:var%i3(:)
host:0x38e749f0 device:0x400794c5fa00 size:921600 presentcount:0+2 line:482 name:var%index(:,:)
host:0x38f55a20 device:0x4006d25fcc00 size:2560 presentcount:0+1 line:569 name:var%ind1(:)
host:0x38f56450 device:0x4006d25fd600 size:2824 presentcount:0+1 line:569 name:var%indcol(:)
host:0x38f56f80 device:0x4006d25f7c00 size:2824 presentcount:0+1 line:482 name:var%i2(:)
host:0x38f57ab0 device:0x4006d25f8800 size:2824 presentcount:0+1 line:482 name:var%i3(:)
host:0x38f585e0 device:0x4006d25f9400 size:1512 presentcount:0+1 line:482 name:var%i2(:)
host:0x38f58bf0 device:0x4006d25f9a00 size:1512 presentcount:0+1 line:482 name:var%i3(:)
host:0x38f91630 device:0x4006d25fa000 size:516 presentcount:0+1 line:499 name:var%n(:)
host:0x38f91860 device:0x4006d25fac00 size:516 presentcount:0+1 line:499 name:var%ptri(:)
host:0x38f91a90 device:0x4006d25fa800 size:516 presentcount:0+1 line:499 name:var%ni(:)
host:0x38f91cc0 device:0x4006d25fb400 size:516 presentcount:0+1 line:499 name:var%ptr(:)
host:0x38f91ef0 device:0x4006d25fb000 size:516 presentcount:0+1 line:499 name:var%n(:)
host:0x38f92120 device:0x4006671fcc00 size:4 presentcount:0+1 line:499 name:var%tbli(:)
host:0x38f92150 device:0x4006d25fbc00 size:516 presentcount:0+1 line:499 name:var%ptri(:)
host:0x38f92380 device:0x4006d25fb800 size:516 presentcount:0+1 line:499 name:var%ni(:)
host:0x38f92770 device:0x4006d25fc000 size:1280 presentcount:0+1 line:569 name:var%ind1(:)
host:0x38f92ca0 device:0x4006d25fc600 size:720 presentcount:0+1 line:569 name:var%indcol(:)
host:0x38f92fa0 device:0x4005b432e800 size:180000 presentcount:0+4 line:482 name:var%i2(:)
host:0x38fbeef0 device:0x4005b435a800 size:180000 presentcount:0+4 line:482 name:var%i3(:)
host:0x38feae40 device:0x4006d23bca00 size:180000 presentcount:0+8 line:482 name:var%index(:,:)
host:0x39016d90 device:0x4006d29bca00 size:180000 presentcount:0+8 line:482 name:var%i2(:)
host:0x39042ce0 device:0x4005b4386800 size:180000 presentcount:0+8 line:482 name:var%i3(:)
host:0x3906f260 device:0x4006d2400000 size:1821184 presentcount:0+3 line:616 name:var%nindpw(:,:)
host:0x3922bc90 device:0x40047e3fac00 size:8 presentcount:0+2 line:616 name:var%nb_totk(:,:)
host:0x3922bcc0 device:0x4006d23fd400 size:4 presentcount:0+2 line:616 name:var%luseinv(:)
host:0x3922bcf0 device:0x40047e3ee600 size:4 presentcount:0+2 line:616 name:var%at_gamma(:)
host:0x3922bd20 device:0x4006d25bca00 size:180000 presentcount:0+3 line:616 name:var%pl_index(:,:)
host:0x39257c70 device:0x4006d27bca00 size:180000 presentcount:0+3 line:616 name:var%pl_col(:,:)
host:0x39283bc0 device:0x4006d23fee00 size:8 presentcount:0+2 line:405 name:var%lmmax(:)
host:0x39283bf0 device:0x4006671ffe00 size:8 presentcount:0+2 line:430 name:var%lmax(:)
host:0x39283c20 device:0x4006d23f0200 size:4324 presentcount:0+2 line:405 name:var%lmbase(:)
host:0x39284d30 device:0x40047e3ee400 size:8 presentcount:0+2 line:430 name:var%lmmax(:)
host:0x39284d60 device:0x40047e3ee800 size:8 presentcount:0+2 line:430 name:var%channels(:)
host:0x39284d90 device:0x4006871ff800 size:16 presentcount:0+2 line:430 name:var%rsmooth(:)
host:0x39284dd0 device:0x4006671fba00 size:4320 presentcount:0+2 line:430 name:var%nlimax(:)
host:0x39285ee0 device:0x4006671fce00 size:4324 presentcount:0+2 line:430 name:var%lmbase(:)
host:0x39286ff0 device:0x4006671fe200 size:4324 presentcount:0+2 line:430 name:var%nlibase(:)
host:0x39288100 device:0x40047e3f1c00 size:17132 presentcount:0+4 line:519 name:var%nindpwconjg(:)
host:0x3928c420 device:0x40047e3f6000 size:17132 presentcount:0+4 line:519 name:var%ind_in_sphere(:)
host:0x392a5110 device:0x4006d25f2c00 size:516 presentcount:0+1 line:499 name:var%ptr(:)
host:0x392a5340 device:0x4006d25f2800 size:516 presentcount:0+1 line:499 name:var%n(:)
host:0x392a5570 device:0x4006d25f3400 size:516 presentcount:0+1 line:499 name:var%ptri(:)
host:0x392a57a0 device:0x4006d25f3000 size:516 presentcount:0+1 line:499 name:var%ni(:)
host:0x392a59d0 device:0x4006d25f3c00 size:516 presentcount:0+1 line:499 name:var%ptr(:)
host:0x392a5c00 device:0x4006d25f3800 size:516 presentcount:0+1 line:499 name:var%n(:)
host:0x392a5e30 device:0x4006d25f4400 size:516 presentcount:0+1 line:499 name:var%ptri(:)
host:0x392a6060 device:0x4006d25f4000 size:516 presentcount:0+1 line:499 name:var%ni(:)
host:0x393ec4d0 device:0x400795600000 size:7284736 presentcount:0+3 line:616 name:var%datake(:,:,:)
host:0x39adf750 device:0x4006d2600000 size:1821184 presentcount:0+3 line:616 name:var%igx(:,:)
host:0x39c9cde0 device:0x4006d2200000 size:1821184 presentcount:0+3 line:616 name:var%igy(:,:)
host:0x39e5a680 device:0x4006d2800000 size:1821184 presentcount:0+3 line:616 name:var%igz(:,:)
host:0x3a018550 device:0x4006d3200000 size:7284272 presentcount:0+4 line:519 name:var%fftsca(:,:)
host:0x3a742fe0 device:0x400794c00000 size:230400 presentcount:0+1 line:499 name:var%tbl(:)
host:0x3a7b3840 device:0x400b721b9400 size:181440 presentcount:0+1 line:499 name:var%tbli(:)
host:0x3a7dfd30 device:0x400b723b9400 size:181440 presentcount:0+1 line:499 name:var%tbl(:)
host:0x3a8cfde0 device:0x400794e00000 size:1807360 presentcount:0+1 line:499 name:var%tbl(:)
host:0x3ac459d0 device:0x400b72000000 size:1807200 presentcount:0+1 line:499 name:var%tbli(:)
host:0x3ae00a40 device:0x400b72200000 size:1807200 presentcount:0+1 line:499 name:var%tbl(:)
host:0x3b177150 device:0x400b72400000 size:1807200 presentcount:0+1 line:499 name:var%tbli(:)
host:0x3bf02420 device:0x4006871f4000 size:41984 presentcount:0+1 line:746 name:var%auxtot(:,:,:)
host:0x3bf22420 device:0x40047e3e4000 size:41984 presentcount:0+2 line:746 name:var%fertot(:,:,:)
host:0x3bf30030 device:0x4005b431a000 size:83968 presentcount:0+2 line:746 name:var%celtot(:,:,:)
host:0x3cf8dfd0 device:0x4006d2a00000 size:7200000 presentcount:0+1 line:195 name:dencor(:)
host:0x3dd582c0 device:0x4006d1e00000 size:2799360 presentcount:0+2 line:194 name:cdij(:,:,:,:)
host:0x3e0079e0 device:0x400b72600000 size:2799360 presentcount:0+2 line:194 name:cqij(:,:,:,:)
host:0x3e567690 device:0x400795200000 size:4030464 presentcount:0+5 line:746 name:var%gproj(:,:,:,:)
host:0x3ebf5aa0 device:0x4005b43ca800 size:98304 presentcount:0+1 line:1101 name:w1%gproj(:)
host:0x45976e40 device:0x400cf5600000 size:3145728 presentcount:0+2 line:1226 name:wa%gproj(:,:)
host:0x49c66cc0 device:0x4006d29fe200 size:2048 presentcount:0+1 line:179 name:w1(:)
host:0x49c674e0 device:0x400b721f5600 size:2048 presentcount:0+1 line:179 name:wtmp(:)
host:0x49c69880 device:0x400cf6200000 size:7284736 presentcount:0+1 line:1101 name:w1%cptwfp(:)
host:0x4a3633c0 device:0x400794d40a00 size:393216 presentcount:0+2 line:1226 name:wa%gproj(:,:)
host:0x4a3c33f0 device:0x400b638c0000 size:393216 presentcount:0+2 line:1226 name:wa%gproj(:,:)
host:0x4a423420 device:0x4005b43b2800 size:98304 presentcount:0+1 line:1101 name:w1%gproj(:)
host:0x4a43b450 device:0x400b723e5a00 size:98304 presentcount:0+1 line:1101 name:w1%gproj(:)
host:0x4a453480 device:0x4005b43e2800 size:98304 presentcount:0+1 line:1101 name:w1%gproj(:)
host:0x4a5cdda0 device:0x400cf6a00000 size:14569472 presentcount:0+1 line:202 name:precon(:,:)
host:0x4b3ba570 device:0x400bd1e00000 size:7284736 presentcount:0+1 line:1101 name:w1%cptwfp(:)
host:0x4bab4b70 device:0x400b6fa00000 size:7284736 presentcount:0+1 line:1101 name:w1%cptwfp(:)
host:0x4c1af7a0 device:0x400cf5a00000 size:7284736 presentcount:0+1 line:1101 name:w1%cptwfp(:)
host:0x4005180010a0 device:0x4006d3a00000 size:45593280 presentcount:0+2 line:430 name:var%nli(:,:)
host:0x40051ce939e0 device:0x400b72a00000 size:14458880 presentcount:0+1 line:195 name:cstrf(:,:)
host:0x4005c00012b0 device:0x4006e0000000 size:807411968 presentcount:0+2 line:430 name:var%rproj(:)
host:0x4005f02131a0 device:0x40074dc00000 size:230400000 presentcount:0+2 line:194 name:sv(:,:)
host:0x4006a0004a60 device:0x4006c0000000 size:298674176 presentcount:0+5 line:746 name:var%cptwfp(:,:,:,:)
host:0x4006b1ce6f80 device:0x400cf1e00000 size:29138944 presentcount:0+2 line:1226 name:wa%cptwfp(:,:)
host:0x4006b38c7190 device:0x400cf3a00000 size:29138944 presentcount:0+2 line:1226 name:wa%cptwfp(:,:)
host:0x4007600073a0 device:0x400bc0000000 size:233111552 presentcount:0+2 line:1226 name:wa%cptwfp(:,:)
host:0x40076de679d0 device:0x4004c0000000 size:230400000 presentcount:0+1 line:1101 name:w1%cr(:)
host:0x400800007be0 device:0x400710400000 size:230400000 presentcount:0+1 line:1236 name:w1%cr(:)
host:0x40080dbd8000 device:0x400780000000 size:230400000 presentcount:0+1 line:1101 name:w1%cr(:)
host:0x400a20008210 device:0x400740000000 size:230400000 presentcount:0+1 line:1236 name:w1%cr(:)
host:0x400a2dbd0020 device:0x400b40000000 size:230400000 presentcount:0+1 line:1101 name:w1%cr(:)
host:0x400b20000230 device:0x400cd1e00000 size:230400000 presentcount:0+1 line:1236 name:w1%cr(:)
host:0x400b2dbc0650 device:0x400cb1e00000 size:230400000 presentcount:0+1 line:1101 name:w1%cr(:)
host:0x400ba0000860 device:0x400c91e00000 size:230400000 presentcount:0+1 line:1236 name:w1%cr(:)
host:0xffffd9917f70 device:0x400b721f6200 size:3024 presentcount:0+12 line:682 name:var
host:0xffffd9918b40 device:0x4006471ff600 size:1480 presentcount:0+1 line:174 name:w_ini
host:0xffffd9919110 device:0x4006d25ff600 size:1480 presentcount:0+1 line:174 name:wopt
host:0xffffd99196e0 device:0x4006671fa400 size:1480 presentcount:0+1 line:174 name:wtmpa
allocated block device:0x40047e3e4000 size:41984 thread:1
allocated block device:0x40047e3ee400 size:512 thread:1
allocated block device:0x40047e3ee600 size:512 thread:1
allocated block device:0x40047e3ee800 size:512 thread:1
allocated block device:0x40047e3eea00 size:512 thread:1
allocated block device:0x40047e3eec00 size:5120 thread:1
allocated block device:0x40047e3f0000 size:1536 thread:1
allocated block device:0x40047e3f0600 size:1024 thread:1
allocated block device:0x40047e3f0a00 size:1024 thread:1
allocated block device:0x40047e3f0e00 size:1536 thread:1
allocated block device:0x40047e3f1400 size:1024 thread:1
allocated block device:0x40047e3f1800 size:1024 thread:1
allocated block device:0x40047e3f1c00 size:17408 thread:1
allocated block device:0x40047e3f6000 size:17408 thread:1
allocated block device:0x40047e3fa400 size:2048 thread:1
allocated block device:0x40047e3fac00 size:512 thread:1
allocated block device:0x40047e3fae00 size:4608 thread:1
allocated block device:0x40047e3fc000 size:512 thread:1
allocated block device:0x40047e3fc200 size:4608 thread:1
allocated block device:0x40047e3fd400 size:3072 thread:1
allocated block device:0x40047e3fe000 size:512 thread:1
allocated block device:0x40047e3fe200 size:512 thread:1
allocated block device:0x40047e3fe400 size:512 thread:1
allocated block device:0x40047e3fe600 size:512 thread:1
allocated block device:0x40047e3fe800 size:512 thread:1
allocated block device:0x40047e3fea00 size:4608 thread:1
allocated block device:0x40047e3ffc00 size:512 thread:1
allocated block device:0x40047e3ffe00 size:512 thread:1
allocated block device:0x4004c0000000 size:230400000 thread:1
allocated block device:0x4005b431a000 size:83968 thread:1
allocated block device:0x4005b432e800 size:180224 thread:1
allocated block device:0x4005b435a800 size:180224 thread:1
allocated block device:0x4005b4386800 size:180224 thread:1
allocated block device:0x4005b43b2800 size:98304 thread:1
allocated block device:0x4005b43ca800 size:98304 thread:1
allocated block device:0x4005b43e2800 size:98304 thread:1
allocated block device:0x4006271ff800 size:1024 thread:1
allocated block device:0x4006471ff600 size:1536 thread:1
allocated block device:0x4006671fa400 size:2048 thread:1
allocated block device:0x4006671fae00 size:2560 thread:1
allocated block device:0x4006671fb800 size:512 thread:1
allocated block device:0x4006671fba00 size:4608 thread:1
allocated block device:0x4006671fcc00 size:512 thread:1
allocated block device:0x4006671fce00 size:4608 thread:1
allocated block device:0x4006671fe000 size:512 thread:1
allocated block device:0x4006671fe200 size:4608 thread:1
allocated block device:0x4006671ff400 size:512 thread:1
allocated block device:0x4006671ff600 size:512 thread:1
allocated block device:0x4006671ff800 size:512 thread:1
allocated block device:0x4006671ffa00 size:512 thread:1
allocated block device:0x4006671ffc00 size:512 thread:1
allocated block device:0x4006671ffe00 size:512 thread:1
allocated block device:0x4006871f4000 size:41984 thread:1
allocated block device:0x4006871fe400 size:5120 thread:1
allocated block device:0x4006871ff800 size:512 thread:1
allocated block device:0x4006871ffa00 size:512 thread:1
allocated block device:0x4006871ffc00 size:512 thread:1
allocated block device:0x4006871ffe00 size:512 thread:1
allocated block device:0x4006c0000000 size:298674176 thread:1
allocated block device:0x4006d1e00000 size:4030464 thread:1
allocated block device:0x4006d2200000 size:1821184 thread:1
allocated block device:0x4006d23bca00 size:180224 thread:1
allocated block device:0x4006d23e8a00 size:26112 thread:1
allocated block device:0x4006d23ef000 size:4608 thread:1
allocated block device:0x4006d23f0200 size:4608 thread:1
allocated block device:0x4006d23f1400 size:24064 thread:1
allocated block device:0x4006d23f7200 size:512 thread:1
allocated block device:0x4006d23f7400 size:24064 thread:1
allocated block device:0x4006d23fd200 size:512 thread:1
allocated block device:0x4006d23fd400 size:512 thread:1
allocated block device:0x4006d23fd600 size:3072 thread:1
allocated block device:0x4006d23fe200 size:3072 thread:1
allocated block device:0x4006d23fee00 size:512 thread:1
allocated block device:0x4006d23ff000 size:1536 thread:1
allocated block device:0x4006d23ff600 size:2560 thread:1
allocated block device:0x4006d2400000 size:1821184 thread:1
allocated block device:0x4006d25bca00 size:180224 thread:1
allocated block device:0x4006d25e8a00 size:5120 thread:1
allocated block device:0x4006d25e9e00 size:1536 thread:1
allocated block device:0x4006d25ea400 size:2048 thread:1
allocated block device:0x4006d25eac00 size:7680 thread:1
allocated block device:0x4006d25eca00 size:7680 thread:1
allocated block device:0x4006d25ee800 size:3072 thread:1
allocated block device:0x4006d25ef400 size:3072 thread:1
allocated block device:0x4006d25f0000 size:5120 thread:1
allocated block device:0x4006d25f1400 size:5120 thread:1
allocated block device:0x4006d25f2800 size:1024 thread:1
allocated block device:0x4006d25f2c00 size:1024 thread:1
allocated block device:0x4006d25f3000 size:1024 thread:1
allocated block device:0x4006d25f3400 size:1024 thread:1
allocated block device:0x4006d25f3800 size:1024 thread:1
allocated block device:0x4006d25f3c00 size:1024 thread:1
allocated block device:0x4006d25f4000 size:1024 thread:1
allocated block device:0x4006d25f4400 size:1024 thread:1
allocated block device:0x4006d25f4800 size:5120 thread:1
allocated block device:0x4006d25f5c00 size:1536 thread:1
allocated block device:0x4006d25f6200 size:1024 thread:1
allocated block device:0x4006d25f6600 size:1024 thread:1
allocated block device:0x4006d25f6a00 size:1536 thread:1
allocated block device:0x4006d25f7000 size:1024 thread:1
allocated block device:0x4006d25f7400 size:1024 thread:1
allocated block device:0x4006d25f7800 size:1024 thread:1
allocated block device:0x4006d25f7c00 size:3072 thread:1
allocated block device:0x4006d25f8800 size:3072 thread:1
allocated block device:0x4006d25f9400 size:1536 thread:1
allocated block device:0x4006d25f9a00 size:1536 thread:1
allocated block device:0x4006d25fa000 size:1024 thread:1
allocated block device:0x4006d25fa400 size:1024 thread:1
allocated block device:0x4006d25fa800 size:1024 thread:1
allocated block device:0x4006d25fac00 size:1024 thread:1
allocated block device:0x4006d25fb000 size:1024 thread:1
allocated block device:0x4006d25fb400 size:1024 thread:1
allocated block device:0x4006d25fb800 size:1024 thread:1
allocated block device:0x4006d25fbc00 size:1024 thread:1
allocated block device:0x4006d25fc000 size:1536 thread:1
allocated block device:0x4006d25fc600 size:1024 thread:1
allocated block device:0x4006d25fca00 size:512 thread:1
allocated block device:0x4006d25fcc00 size:2560 thread:1
allocated block device:0x4006d25fd600 size:3072 thread:1
allocated block device:0x4006d25ff600 size:2560 thread:1
allocated block device:0x4006d2600000 size:1821184 thread:1
allocated block device:0x4006d27bca00 size:180224 thread:1
allocated block device:0x4006d27e8a00 size:28672 thread:1
allocated block device:0x4006d27efa00 size:40448 thread:1
allocated block device:0x4006d27f9800 size:8192 thread:1
allocated block device:0x4006d27fb800 size:8192 thread:1
allocated block device:0x4006d27fd800 size:8192 thread:1
allocated block device:0x4006d27ff800 size:512 thread:1
allocated block device:0x4006d2800000 size:1821184 thread:1
allocated block device:0x4006d29bca00 size:180224 thread:1
allocated block device:0x4006d29e8a00 size:40448 thread:1
allocated block device:0x4006d29fe200 size:2048 thread:1
allocated block device:0x4006d2a00000 size:7284736 thread:1
allocated block device:0x4006d3200000 size:7284736 thread:1
allocated block device:0x4006d3a00000 size:45593600 thread:1
allocated block device:0x4006e0000000 size:807412224 thread:1
allocated block device:0x400710400000 size:230400000 thread:1
allocated block device:0x400740000000 size:230400000 thread:1
allocated block device:0x40074dc00000 size:230400000 thread:1
allocated block device:0x400780000000 size:230400000 thread:1
allocated block device:0x400794c00000 size:391680 thread:1
allocated block device:0x400794c5fa00 size:921600 thread:1
allocated block device:0x400794d40a00 size:393216 thread:1
allocated block device:0x400794e00000 size:2799616 thread:1
allocated block device:0x400795200000 size:4030464 thread:1
allocated block device:0x400795600000 size:7284736 thread:1
allocated block device:0x400b40000000 size:298674176 thread:1
allocated block device:0x400b638c0000 size:393216 thread:1
allocated block device:0x400b6fa00000 size:7284736 thread:1
allocated block device:0x400b72000000 size:1807360 thread:1
allocated block device:0x400b721b9400 size:181760 thread:1
allocated block device:0x400b721f5600 size:3072 thread:1
allocated block device:0x400b721f6200 size:3072 thread:1
allocated block device:0x400b72200000 size:1807360 thread:1
allocated block device:0x400b723b9400 size:181760 thread:1
allocated block device:0x400b723e5a00 size:98304 thread:1
allocated block device:0x400b72400000 size:1807360 thread:1
allocated block device:0x400b72600000 size:2799616 thread:1
allocated block device:0x400b72a00000 size:14458880 thread:1
allocated block device:0x400bc0000000 size:298674176 thread:1
allocated block device:0x400bd1e00000 size:7284736 thread:1
allocated block device:0x400c91e00000 size:230400000 thread:1
allocated block device:0x400cb1e00000 size:230400000 thread:1
allocated block device:0x400cd1e00000 size:230400000 thread:1
allocated block device:0x400cf1e00000 size:29138944 thread:1
allocated block device:0x400cf3a00000 size:29138944 thread:1
allocated block device:0x400cf5600000 size:3145728 thread:1
allocated block device:0x400cf5a00000 size:7284736 thread:1
allocated block device:0x400cf6200000 size:7284736 thread:1
allocated block device:0x400cf6a00000 size:14569472 thread:1
Accelerator Fatal Error: call to cuMemAlloc returned error 2 (CUDA_ERROR_OUT_OF_MEMORY): Out of memory
 File: /lus/lfs1aip2/projects/u6cb/software/VASP/vasp.6.5.1/build/gam/hamil.f90
 Function: hamiltmu:978
 Line: 1005

Out of memory allocating 230400000 bytes of device memory
Failing in Thread:1
total/free CUDA memory: 102005473280/594083840
Present table dump for device[1]: NVIDIA Tesla GPU 0, compute capability 9.0, threadid=1
Hint: specify 0x800 bit in NV_ACC_DEBUG for verbose info.
host:0x2557280 device:0x40055e5fd800 size:32 presentcount:0+3 line:643 name:var%comm
host:0x25572a0 device:0x40055e5ef600 size:32 presentcount:0+4 line:652 name:var%comm_kinter
host:0x25572c0 device:0x40055e5ef800 size:32 presentcount:0+6 line:655 name:var%comm_kin
host:0x25572e0 device:0x40073c1ffa00 size:32 presentcount:0+3 line:646 name:var%comm_inter
host:0x2557300 device:0x40073c1ffc00 size:32 presentcount:0+7 line:649 name:var%comm_inb
host:0x256be80 device:0x40055a0ecd00 size:8 presentcount:0+1 line:-1 name:_setexm_struct_def_21
host:0x2576f40 device:0x40055a0ece00 size:28 presentcount:0+1 line:-1 name:_ml_ff_constant_21
host:0x2577c80 device:0x40055a0ecf00 size:30437 presentcount:0+1 line:-1 name:_ml_ff_taglist_21
host:0x25afc80 device:0x40055a0f4600 size:8 presentcount:0+1 line:-1 name:_mopenacc_tutor_21
host:0x25c2740 device:0x40055a0f4a00 size:32 presentcount:0+1 line:-1 name:_mbj_21
host:0x25cd640 device:0x40055a0f4d00 size:8 presentcount:0+1 line:-1 name:_sym_prec_21
host:0x26030c0 device:0x40055a0f4e00 size:344 presentcount:0+1 line:-1 name:_tet_21
host:0x261c840 device:0x40055a0f5000 size:392 presentcount:0+1 line:-1 name:_mymath_21
host:0x2817368 device:0x40055e5f0400 size:4800 presentcount:0+2 line:614 name:var
host:0x2818628 device:0x40055e5fbc00 size:1984 presentcount:0+2 line:403 name:var
host:0x281a910 device:0x40071c3ffa00 size:864 presentcount:0+4 line:2639 name:hamiltonian
host:0x286ac80 device:0x40055e5fec00 size:2712 presentcount:0+2 line:428 name:var
host:0x286b718 device:0x40073c1fc600 size:2248 presentcount:0+1 line:742 name:var
host:0x286eb50 device:0x400c521ffc00 size:288 presentcount:0+1 line:195 name:latt_cur
host:0x2871658 device:0x40075c3fe400 size:5088 presentcount:0+28 line:517 name:var
host:0x2872a38 device:0x4007b25f6000 size:5088 presentcount:0+6 line:517 name:var
host:0x2873e18 device:0x4007b25e9600 size:5088 presentcount:0+7 line:517 name:var
host:0x287a2a8 device:0x40073c1ff800 size:304 presentcount:0+1 line:567 name:var
host:0x287a3d8 device:0x4007b25fe200 size:304 presentcount:0+1 line:567 name:var
host:0x2e48ec0 device:0x40055a002600 size:960024 presentcount:0+1 line:-1 name:_setexm_struct_def_16
host:0x2f8f080 device:0x40055a0f4700 size:580 presentcount:0+1 line:-1 name:_wpbe_16
host:0x2f8f900 device:0x40055a0f4b00 size:288 presentcount:0+1 line:-1 name:_mbj_16
host:0x9f446c0 device:0x40055a0f5200 size:624 presentcount:0+1 line:-1 name:_mlr_optic_16
host:0x2d4edd40 device:0x40055e5ffe00 size:24 presentcount:0+3 line:616 name:var%vkpt(:,:)
host:0x2d4edf10 device:0x40055e5f0200 size:16 presentcount:0+2 line:430 name:var%psrmax(:)
host:0x2d4edf50 device:0x40055e5ff800 size:8 presentcount:0+3 line:616 name:var%lmmax(:)
host:0x2d4edf80 device:0x40055e5ffc00 size:8 presentcount:0+3 line:616 name:var%nt_global(:)
host:0x2d4edfb0 device:0x4007b23f8800 size:4 presentcount:0+2 line:616 name:var%nplwkp(:)
host:0x2d4edfe0 device:0x4007b23f8a00 size:4 presentcount:0+2 line:616 name:var%nplwkp_tot(:)
host:0x2d4ee010 device:0x4007b23fea00 size:4 presentcount:0+2 line:616 name:var%ngvector_pos(:)
host:0x2d4ee040 device:0x4007b23f2800 size:4 presentcount:0+2 line:616 name:var%ngvector(:)
host:0x2d4ee070 device:0x40055e5fc400 size:8 presentcount:0+2 line:616 name:var%nb_totk(:,:)
host:0x2d4ee0a0 device:0x4007b23fec00 size:4 presentcount:0+2 line:616 name:var%luseinv(:)
host:0x2d4ee0d0 device:0x40055e5efe00 size:4 presentcount:0+2 line:616 name:var%at_gamma(:)
host:0x2d4ee100 device:0x4007b23ffa00 size:8 presentcount:0+2 line:405 name:var%lmmax(:)
host:0x2d4ee130 device:0x40055e5efa00 size:8 presentcount:0+2 line:430 name:var%lmax(:)
host:0x2d4ee160 device:0x40055e5efc00 size:8 presentcount:0+2 line:430 name:var%lmmax(:)
host:0x2d4ee190 device:0x40055e5f0000 size:8 presentcount:0+2 line:430 name:var%channels(:)
host:0x2d4ee1c0 device:0x40075c3ff800 size:16 presentcount:0+2 line:430 name:var%rsmooth(:)
host:0x2e6acc50 device:0x4007b25f9000 size:528 presentcount:0+1 line:480 name:var
host:0x328fd7e0 device:0x40073c1ffe00 size:8 presentcount:0+4 line:405 name:var%nityp(:)
host:0x32dfbff0 device:0x40055e5f2200 size:1000 presentcount:0+4 line:519 name:var%lpctz(:)
host:0x33272260 device:0x4007b23ef000 size:8 presentcount:0+2 line:616 name:var%wtkpt(:)
host:0x3327f0f0 device:0x4007b27e8a00 size:28464 presentcount:0+1 line:853 name:var(:)
host:0x33291870 device:0x4007b29e8a00 size:40000 presentcount:0+1 line:857 name:var%psp(:,:)
host:0x3329b4e0 device:0x400c523fbc00 size:8000 presentcount:0+1 line:857 name:var%psprho(:)
host:0x3329e770 device:0x4007b23f8c00 size:24000 presentcount:0+2 line:466 name:var%psprnl(:,:,:)
host:0x332ce150 device:0x4007b23f0400 size:4320 presentcount:0+4 line:405 name:var%ityp(:)
host:0x332cf260 device:0x4007b23e8a00 size:25920 presentcount:0+4 line:405 name:var%posion(:,:)
host:0x33310320 device:0x40055e5ffa00 size:8 presentcount:0+3 line:616 name:var%nityp(:)
host:0x333125c0 device:0x4007b27efa00 size:40000 presentcount:0+1 line:857 name:var%psp(:,:)
host:0x3331c230 device:0x400c521fbc00 size:8000 presentcount:0+1 line:857 name:var%pspcor(:)
host:0x3331e1a0 device:0x400c521fdc00 size:8000 presentcount:0+1 line:857 name:var%psprho(:)
host:0x33321430 device:0x4007b23f2a00 size:24000 presentcount:0+2 line:466 name:var%psprnl(:,:,:)
host:0x3336e3f0 device:0x40075c3ffc00 size:24 presentcount:0+3 line:466 name:var%lps(:)
host:0x3336e4a0 device:0x40073c1fd000 size:24 presentcount:0+3 line:466 name:var%lps(:)
host:0x333dd8e0 device:0x4007b23ef200 size:4320 presentcount:0+3 line:616 name:var%ityp(:)
host:0x333de9f0 device:0x40055e5fda00 size:4320 presentcount:0+3 line:616 name:var%npro_pos(:)
host:0x333dfb00 device:0x40055e5fc600 size:4324 presentcount:0+3 line:616 name:var%lmbase(:)
host:0x333e0c10 device:0x40055e5f1800 size:1280 presentcount:0+4 line:519 name:var%lpctx(:)
host:0x333e1140 device:0x40055e5f1e00 size:720 presentcount:0+4 line:519 name:var%lpcty(:)
host:0x333e1440 device:0x40055e5f2600 size:1280 presentcount:0+4 line:519 name:var%lpctx_(:)
host:0x333e1970 device:0x40055e5f2c00 size:720 presentcount:0+4 line:519 name:var%lpcty_(:)
host:0x333e1c70 device:0x40055e5f3000 size:1000 presentcount:0+4 line:519 name:var%lpctz_(:)
host:0x333e2080 device:0x4007b25f7400 size:1280 presentcount:0+1 line:519 name:var%lpctx(:)
host:0x333e25b0 device:0x4007b25f7a00 size:720 presentcount:0+1 line:519 name:var%lpcty(:)
host:0x333e28b0 device:0x4007b25f7e00 size:1000 presentcount:0+1 line:519 name:var%lpctz(:)
host:0x333e2cc0 device:0x4007b25f8200 size:1280 presentcount:0+1 line:519 name:var%lpctx_(:)
host:0x333e31f0 device:0x4007b25f8800 size:720 presentcount:0+1 line:519 name:var%lpcty_(:)
host:0x333e34f0 device:0x4007b25f8c00 size:1000 presentcount:0+1 line:519 name:var%lpctz_(:)
host:0x333e3900 device:0x4007b23fee00 size:2560 presentcount:0+1 line:519 name:var%lpctx(:)
host:0x333e4330 device:0x4007b25eaa00 size:1440 presentcount:0+1 line:519 name:var%lpcty(:)
host:0x333e4900 device:0x4007b25e8a00 size:2000 presentcount:0+1 line:519 name:var%lpctz(:)
host:0x333e5100 device:0x4007b25eb000 size:2560 presentcount:0+1 line:519 name:var%lpctx_(:)
host:0x333e5b30 device:0x4007b25eba00 size:1440 presentcount:0+1 line:519 name:var%lpcty_(:)
host:0x333e6100 device:0x4007b25ec000 size:2000 presentcount:0+1 line:519 name:var%lpctz_(:)
host:0x334d21e0 device:0x4007b25f0400 size:2824 presentcount:0+1 line:482 name:var%i2(:)
host:0x334d2d10 device:0x4007b25f1000 size:2824 presentcount:0+1 line:482 name:var%i3(:)
host:0x334d3840 device:0x4007b25f1c00 size:5020 presentcount:0+1 line:482 name:var%i2(:)
host:0x334d4c10 device:0x4007b25f3000 size:5020 presentcount:0+1 line:482 name:var%i3(:)
host:0x334d5fe0 device:0x4007b25ec800 size:7200 presentcount:0+2 line:482 name:var%i2(:)
host:0x334d7c30 device:0x4007b25ee600 size:7200 presentcount:0+2 line:482 name:var%i3(:)
host:0x334d9ca0 device:0x400874c5fa00 size:921600 presentcount:0+2 line:482 name:var%index(:,:)
host:0x335bacd0 device:0x4007b25fe400 size:2560 presentcount:0+1 line:569 name:var%ind1(:)
host:0x335bb700 device:0x4007b25fee00 size:2824 presentcount:0+1 line:569 name:var%indcol(:)
host:0x335bc230 device:0x4007b25f9400 size:2824 presentcount:0+1 line:482 name:var%i2(:)
host:0x335bcd60 device:0x4007b25fa000 size:2824 presentcount:0+1 line:482 name:var%i3(:)
host:0x335bd890 device:0x4007b25fac00 size:1512 presentcount:0+1 line:482 name:var%i2(:)
host:0x335bdea0 device:0x4007b25fb200 size:1512 presentcount:0+1 line:482 name:var%i3(:)
host:0x335be4b0 device:0x40073c1fd200 size:4320 presentcount:0+2 line:430 name:var%nlimax(:)
host:0x335bf5c0 device:0x40073c1fe600 size:4324 presentcount:0+2 line:430 name:var%lmbase(:)
host:0x335c06d0 device:0x40055e5ee400 size:4324 presentcount:0+2 line:430 name:var%nlibase(:)
host:0x335c17e0 device:0x40055e5f3400 size:17132 presentcount:0+4 line:519 name:var%nindpwconjg(:)
host:0x335c5b00 device:0x40055e5f7800 size:17132 presentcount:0+4 line:519 name:var%ind_in_sphere(:)
host:0x335cad50 device:0x4007b25fbc00 size:516 presentcount:0+1 line:499 name:var%ptr(:)
host:0x335caf80 device:0x4007b25fb800 size:516 presentcount:0+1 line:499 name:var%n(:)
host:0x335d3e30 device:0x4007b25f5800 size:516 presentcount:0+1 line:499 name:var%ni(:)
host:0x335f7a20 device:0x4007b25fd800 size:1280 presentcount:0+1 line:569 name:var%ind1(:)
host:0x335f7f50 device:0x4007b25fde00 size:724 presentcount:0+1 line:569 name:var%indcol(:)
host:0x335f8250 device:0x40068612e800 size:180000 presentcount:0+4 line:482 name:var%i2(:)
host:0x336241a0 device:0x40068615a800 size:180000 presentcount:0+4 line:482 name:var%i3(:)
host:0x336500f0 device:0x4007b23bca00 size:180000 presentcount:0+8 line:482 name:var%index(:,:)
host:0x3367c040 device:0x4007b29bca00 size:180000 presentcount:0+8 line:482 name:var%i2(:)
host:0x336a7f90 device:0x400686186800 size:180000 presentcount:0+8 line:482 name:var%i3(:)
host:0x336d4510 device:0x4007b2400000 size:1821184 presentcount:0+3 line:616 name:var%nindpw(:,:)
host:0x33890f40 device:0x4007b25bca00 size:180000 presentcount:0+3 line:616 name:var%pl_index(:,:)
host:0x338bce90 device:0x4007b27bca00 size:180000 presentcount:0+3 line:616 name:var%pl_col(:,:)
host:0x338e8de0 device:0x4007b23f1600 size:4324 presentcount:0+2 line:405 name:var%lmbase(:)
host:0x338e9ef0 device:0x40075c3ffa00 size:400 presentcount:0+2 line:464 name:var
host:0x338ea080 device:0x40075c3ffe00 size:400 presentcount:0+2 line:464 name:var
host:0x3395aaa0 device:0x400874c00000 size:231680 presentcount:0+1 line:499 name:var%tbl(:)
host:0x339cbd00 device:0x400c521b9400 size:272160 presentcount:0+1 line:499 name:var%tbli(:)
host:0x33a0e450 device:0x4007b25fc400 size:516 presentcount:0+1 line:499 name:var%ptri(:)
host:0x33a0e680 device:0x4007b25fc000 size:516 presentcount:0+1 line:499 name:var%ni(:)
host:0x33a0e8b0 device:0x4007b25fcc00 size:516 presentcount:0+1 line:499 name:var%ptr(:)
host:0x33a0eae0 device:0x4007b25fc800 size:516 presentcount:0+1 line:499 name:var%n(:)
host:0x33a0ed10 device:0x40073c1fe400 size:4 presentcount:0+1 line:499 name:var%tbli(:)
host:0x33a0ed40 device:0x4007b25fd400 size:516 presentcount:0+1 line:499 name:var%ptri(:)
host:0x33a0ef70 device:0x4007b25fd000 size:516 presentcount:0+1 line:499 name:var%ni(:)
host:0x33a22aa0 device:0x4007b25f4400 size:516 presentcount:0+1 line:499 name:var%ptr(:)
host:0x33a22cd0 device:0x4007b23ffc00 size:516 presentcount:0+1 line:499 name:var%n(:)
host:0x33a22f00 device:0x4007b25f4c00 size:516 presentcount:0+1 line:499 name:var%ptri(:)
host:0x33a23130 device:0x4007b25f4800 size:516 presentcount:0+1 line:499 name:var%ni(:)
host:0x33a23360 device:0x4007b25f5400 size:516 presentcount:0+1 line:499 name:var%ptr(:)
host:0x33a23590 device:0x4007b25f5000 size:516 presentcount:0+1 line:499 name:var%n(:)
host:0x33a237c0 device:0x4007b25f5c00 size:516 presentcount:0+1 line:499 name:var%ptri(:)
host:0x33b69a90 device:0x400875600000 size:7284736 presentcount:0+3 line:616 name:var%datake(:,:,:)
host:0x3425cd10 device:0x4007b2600000 size:1821184 presentcount:0+3 line:616 name:var%igx(:,:)
host:0x3441a3a0 device:0x4007b2200000 size:1821184 presentcount:0+3 line:616 name:var%igy(:,:)
host:0x345d7c40 device:0x4007b2800000 size:1821184 presentcount:0+3 line:616 name:var%igz(:,:)
host:0x34795b10 device:0x4007b3200000 size:7284272 presentcount:0+4 line:519 name:var%fftsca(:,:)
host:0x34e88170 device:0x400c523b9400 size:272160 presentcount:0+1 line:499 name:var%tbl(:)
host:0x34fa06d0 device:0x400874e00000 size:1807360 presentcount:0+1 line:499 name:var%tbl(:)
host:0x353162c0 device:0x400c52000000 size:1807200 presentcount:0+1 line:499 name:var%tbli(:)
host:0x354d1330 device:0x400c52200000 size:1807200 presentcount:0+1 line:499 name:var%tbl(:)
host:0x35847a40 device:0x400c52400000 size:1807200 presentcount:0+1 line:499 name:var%tbli(:)
host:0x36652420 device:0x40075c3f4000 size:41984 presentcount:0+1 line:746 name:var%auxtot(:,:,:)
host:0x36662420 device:0x40055e5e4000 size:41984 presentcount:0+2 line:746 name:var%fertot(:,:,:)
host:0x36670030 device:0x40068611a000 size:83968 presentcount:0+2 line:746 name:var%celtot(:,:,:)
host:0x378a38d0 device:0x4007b2a00000 size:7200000 presentcount:0+1 line:195 name:dencor(:)
host:0x3866dbc0 device:0x4007b1e00000 size:2799360 presentcount:0+2 line:194 name:cdij(:,:,:,:)
host:0x3891d2e0 device:0x400c52600000 size:2799360 presentcount:0+2 line:194 name:cqij(:,:,:,:)
host:0x38e7cf90 device:0x400875200000 size:4030464 presentcount:0+5 line:746 name:var%gproj(:,:,:,:)
host:0x39509ea0 device:0x4006861b2800 size:98304 presentcount:0+1 line:1101 name:w1%gproj(:)
host:0x401d76a0 device:0x400874d40a00 size:393216 presentcount:0+2 line:1226 name:wa%gproj(:,:)
host:0x402376d0 device:0x400c438c0000 size:393216 presentcount:0+2 line:1226 name:wa%gproj(:,:)
host:0x4029ea80 device:0x400dd5600000 size:3145728 presentcount:0+2 line:1226 name:wa%gproj(:,:)
host:0x444b4e90 device:0x4006861ca800 size:98304 presentcount:0+1 line:1101 name:w1%gproj(:)
host:0x444e1af0 device:0x4007b29fcc00 size:2048 presentcount:0+1 line:179 name:w1(:)
host:0x444e2310 device:0x4007b27fa600 size:2048 presentcount:0+1 line:179 name:wtmp(:)
host:0x444eb470 device:0x400cb1e00000 size:7284736 presentcount:0+1 line:1101 name:w1%cptwfp(:)
host:0x44bddca0 device:0x400c525b9400 size:98304 presentcount:0+1 line:1101 name:w1%gproj(:)
host:0x44bf5cd0 device:0x400c525d1400 size:98304 presentcount:0+1 line:1101 name:w1%gproj(:)
host:0x44e342d0 device:0x400dd6a00000 size:14569472 presentcount:0+1 line:202 name:precon(:,:)
host:0x45c20ec0 device:0x400c4fa00000 size:7284736 presentcount:0+1 line:1101 name:w1%cptwfp(:)
host:0x4631b8e0 device:0x400dd5a00000 size:7284736 presentcount:0+1 line:1101 name:w1%cptwfp(:)
host:0x46a0e320 device:0x400dd6200000 size:7284736 presentcount:0+1 line:1101 name:w1%cptwfp(:)
host:0x4005996710a0 device:0x4007b3a00000 size:45593280 presentcount:0+2 line:430 name:var%nli(:,:)
host:0x40059e5039e0 device:0x400c52a00000 size:14458880 presentcount:0+1 line:195 name:cstrf(:,:)
host:0x4005f6ee6d70 device:0x400dd1e00000 size:29138944 presentcount:0+2 line:1226 name:wa%cptwfp(:,:)
host:0x4005fbb66f80 device:0x400dd3a00000 size:29138944 presentcount:0+2 line:1226 name:wa%cptwfp(:,:)
host:0x4006a00012b0 device:0x4007c0000000 size:807411968 presentcount:0+2 line:430 name:var%rproj(:)
host:0x4006d02131a0 device:0x40082dc00000 size:230400000 presentcount:0+2 line:194 name:sv(:,:)
host:0x400780004a60 device:0x4007a0000000 size:298674176 presentcount:0+5 line:746 name:var%cptwfp(:,:,:,:)
host:0x400791ce7190 device:0x400ca0000000 size:233111552 presentcount:0+2 line:1226 name:wa%cptwfp(:,:)
host:0x400811ce77c0 device:0x4005a0000000 size:230400000 presentcount:0+1 line:1101 name:w1%cr(:)
host:0x400846e979d0 device:0x4007f0400000 size:230400000 presentcount:0+1 line:1236 name:w1%cr(:)
host:0x4008e0007df0 device:0x400860000000 size:230400000 presentcount:0+1 line:1101 name:w1%cr(:)
host:0x4008edbd8000 device:0x400820000000 size:230400000 presentcount:0+1 line:1236 name:w1%cr(:)
host:0x400b00008420 device:0x400c20000000 size:230400000 presentcount:0+1 line:1101 name:w1%cr(:)
host:0x400b0dbd0020 device:0x400db1e00000 size:230400000 presentcount:0+1 line:1236 name:w1%cr(:)
host:0x400c00000440 device:0x400d91e00000 size:230400000 presentcount:0+1 line:1101 name:w1%cr(:)
host:0x400c0dbc0650 device:0x400d71e00000 size:230400000 presentcount:0+1 line:1236 name:w1%cr(:)
host:0x400de0005ae0 device:0x400e20000000 size:921600000 presentcount:0+1 line:1005 name:cwork1(:,:)
host:0xffffcbdb3c30 device:0x4007b27fb200 size:3024 presentcount:0+12 line:682 name:var
host:0xffffcbdb4800 device:0x4006fc3ff800 size:1480 presentcount:0+1 line:174 name:w_ini
host:0xffffcbdb4dd0 device:0x4007b27f9c00 size:1480 presentcount:0+1 line:174 name:wopt
host:0xffffcbdb53a0 device:0x40073c1fbc00 size:1480 presentcount:0+1 line:174 name:wtmpa
allocated block device:0x40055e5e4000 size:41984 thread:1
allocated block device:0x40055e5ee400 size:4608 thread:1
allocated block device:0x40055e5ef600 size:512 thread:1
allocated block device:0x40055e5ef800 size:512 thread:1
allocated block device:0x40055e5efa00 size:512 thread:1
allocated block device:0x40055e5efc00 size:512 thread:1
allocated block device:0x40055e5efe00 size:512 thread:1
allocated block device:0x40055e5f0000 size:512 thread:1
allocated block device:0x40055e5f0200 size:512 thread:1
allocated block device:0x40055e5f0400 size:5120 thread:1
allocated block device:0x40055e5f1800 size:1536 thread:1
allocated block device:0x40055e5f1e00 size:1024 thread:1
allocated block device:0x40055e5f2200 size:1024 thread:1
allocated block device:0x40055e5f2600 size:1536 thread:1
allocated block device:0x40055e5f2c00 size:1024 thread:1
allocated block device:0x40055e5f3000 size:1024 thread:1
allocated block device:0x40055e5f3400 size:17408 thread:1
allocated block device:0x40055e5f7800 size:17408 thread:1
allocated block device:0x40055e5fbc00 size:2048 thread:1
allocated block device:0x40055e5fc400 size:512 thread:1
allocated block device:0x40055e5fc600 size:4608 thread:1
allocated block device:0x40055e5fd800 size:512 thread:1
allocated block device:0x40055e5fda00 size:4608 thread:1
allocated block device:0x40055e5fec00 size:3072 thread:1
allocated block device:0x40055e5ff800 size:512 thread:1
allocated block device:0x40055e5ffa00 size:512 thread:1
allocated block device:0x40055e5ffc00 size:512 thread:1
allocated block device:0x40055e5ffe00 size:512 thread:1
allocated block device:0x4005a0000000 size:230400000 thread:1
allocated block device:0x40068611a000 size:83968 thread:1
allocated block device:0x40068612e800 size:180224 thread:1
allocated block device:0x40068615a800 size:180224 thread:1
allocated block device:0x400686186800 size:180224 thread:1
allocated block device:0x4006861b2800 size:98304 thread:1
allocated block device:0x4006861ca800 size:98304 thread:1
allocated block device:0x4006fc3ff800 size:1536 thread:1
allocated block device:0x40071c3ffa00 size:1024 thread:1
allocated block device:0x40073c1fbc00 size:2048 thread:1
allocated block device:0x40073c1fc600 size:2560 thread:1
allocated block device:0x40073c1fd000 size:512 thread:1
allocated block device:0x40073c1fd200 size:4608 thread:1
allocated block device:0x40073c1fe400 size:512 thread:1
allocated block device:0x40073c1fe600 size:4608 thread:1
allocated block device:0x40073c1ff800 size:512 thread:1
allocated block device:0x40073c1ffa00 size:512 thread:1
allocated block device:0x40073c1ffc00 size:512 thread:1
allocated block device:0x40073c1ffe00 size:512 thread:1
allocated block device:0x40075c3f4000 size:41984 thread:1
allocated block device:0x40075c3fe400 size:5120 thread:1
allocated block device:0x40075c3ff800 size:512 thread:1
allocated block device:0x40075c3ffa00 size:512 thread:1
allocated block device:0x40075c3ffc00 size:512 thread:1
allocated block device:0x40075c3ffe00 size:512 thread:1
allocated block device:0x4007a0000000 size:298674176 thread:1
allocated block device:0x4007b1e00000 size:4030464 thread:1
allocated block device:0x4007b2200000 size:1821184 thread:1
allocated block device:0x4007b23bca00 size:180224 thread:1
allocated block device:0x4007b23e8a00 size:26112 thread:1
allocated block device:0x4007b23ef000 size:512 thread:1
allocated block device:0x4007b23ef200 size:4608 thread:1
allocated block device:0x4007b23f0400 size:4608 thread:1
allocated block device:0x4007b23f1600 size:4608 thread:1
allocated block device:0x4007b23f2800 size:512 thread:1
allocated block device:0x4007b23f2a00 size:24064 thread:1
allocated block device:0x4007b23f8800 size:512 thread:1
allocated block device:0x4007b23f8a00 size:512 thread:1
allocated block device:0x4007b23f8c00 size:24064 thread:1
allocated block device:0x4007b23fea00 size:512 thread:1
allocated block device:0x4007b23fec00 size:512 thread:1
allocated block device:0x4007b23fee00 size:3072 thread:1
allocated block device:0x4007b23ffa00 size:512 thread:1
allocated block device:0x4007b23ffc00 size:1024 thread:1
allocated block device:0x4007b2400000 size:1821184 thread:1
allocated block device:0x4007b25bca00 size:180224 thread:1
allocated block device:0x4007b25e8a00 size:3072 thread:1
allocated block device:0x4007b25e9600 size:5120 thread:1
allocated block device:0x4007b25eaa00 size:1536 thread:1
allocated block device:0x4007b25eb000 size:2560 thread:1
allocated block device:0x4007b25eba00 size:1536 thread:1
allocated block device:0x4007b25ec000 size:2048 thread:1
allocated block device:0x4007b25ec800 size:7680 thread:1
allocated block device:0x4007b25ee600 size:7680 thread:1
allocated block device:0x4007b25f0400 size:3072 thread:1
allocated block device:0x4007b25f1000 size:3072 thread:1
allocated block device:0x4007b25f1c00 size:5120 thread:1
allocated block device:0x4007b25f3000 size:5120 thread:1
allocated block device:0x4007b25f4400 size:1024 thread:1
allocated block device:0x4007b25f4800 size:1024 thread:1
allocated block device:0x4007b25f4c00 size:1024 thread:1
allocated block device:0x4007b25f5000 size:1024 thread:1
allocated block device:0x4007b25f5400 size:1024 thread:1
allocated block device:0x4007b25f5800 size:1024 thread:1
allocated block device:0x4007b25f5c00 size:1024 thread:1
allocated block device:0x4007b25f6000 size:5120 thread:1
allocated block device:0x4007b25f7400 size:1536 thread:1
allocated block device:0x4007b25f7a00 size:1024 thread:1
allocated block device:0x4007b25f7e00 size:1024 thread:1
allocated block device:0x4007b25f8200 size:1536 thread:1
allocated block device:0x4007b25f8800 size:1024 thread:1
allocated block device:0x4007b25f8c00 size:1024 thread:1
allocated block device:0x4007b25f9000 size:1024 thread:1
allocated block device:0x4007b25f9400 size:3072 thread:1
allocated block device:0x4007b25fa000 size:3072 thread:1
allocated block device:0x4007b25fac00 size:1536 thread:1
allocated block device:0x4007b25fb200 size:1536 thread:1
allocated block device:0x4007b25fb800 size:1024 thread:1
allocated block device:0x4007b25fbc00 size:1024 thread:1
allocated block device:0x4007b25fc000 size:1024 thread:1
allocated block device:0x4007b25fc400 size:1024 thread:1
allocated block device:0x4007b25fc800 size:1024 thread:1
allocated block device:0x4007b25fcc00 size:1024 thread:1
allocated block device:0x4007b25fd000 size:1024 thread:1
allocated block device:0x4007b25fd400 size:1024 thread:1
allocated block device:0x4007b25fd800 size:1536 thread:1
allocated block device:0x4007b25fde00 size:1024 thread:1
allocated block device:0x4007b25fe200 size:512 thread:1
allocated block device:0x4007b25fe400 size:2560 thread:1
allocated block device:0x4007b25fee00 size:3072 thread:1
allocated block device:0x4007b2600000 size:1821184 thread:1
allocated block device:0x4007b27bca00 size:180224 thread:1
allocated block device:0x4007b27e8a00 size:28672 thread:1
allocated block device:0x4007b27efa00 size:40448 thread:1
allocated block device:0x4007b27f9c00 size:2560 thread:1
allocated block device:0x4007b27fa600 size:3072 thread:1
allocated block device:0x4007b27fb200 size:3072 thread:1
allocated block device:0x4007b2800000 size:1821184 thread:1
allocated block device:0x4007b29bca00 size:180224 thread:1
allocated block device:0x4007b29e8a00 size:40448 thread:1
allocated block device:0x4007b29fcc00 size:2048 thread:1
allocated block device:0x4007b2a00000 size:7284736 thread:1
allocated block device:0x4007b3200000 size:7284736 thread:1
allocated block device:0x4007b3a00000 size:45593600 thread:1
allocated block device:0x4007c0000000 size:807412224 thread:1
allocated block device:0x4007f0400000 size:230400000 thread:1
allocated block device:0x400820000000 size:230400000 thread:1
allocated block device:0x40082dc00000 size:230400000 thread:1
allocated block device:0x400860000000 size:230400000 thread:1
allocated block device:0x400874c00000 size:391680 thread:1
allocated block device:0x400874c5fa00 size:921600 thread:1
allocated block device:0x400874d40a00 size:393216 thread:1
allocated block device:0x400874e00000 size:2799616 thread:1
allocated block device:0x400875200000 size:4030464 thread:1
allocated block device:0x400875600000 size:7284736 thread:1
allocated block device:0x400c20000000 size:298674176 thread:1
allocated block device:0x400c438c0000 size:393216 thread:1
allocated block device:0x400c4fa00000 size:7284736 thread:1
allocated block device:0x400c52000000 size:1807360 thread:1
allocated block device:0x400c521b9400 size:272384 thread:1
allocated block device:0x400c521fbc00 size:8192 thread:1
allocated block device:0x400c521fdc00 size:8192 thread:1
allocated block device:0x400c521ffc00 size:512 thread:1
allocated block device:0x400c52200000 size:1807360 thread:1
allocated block device:0x400c523b9400 size:272384 thread:1
allocated block device:0x400c523fbc00 size:8192 thread:1
allocated block device:0x400c52400000 size:1807360 thread:1
allocated block device:0x400c525b9400 size:98304 thread:1
allocated block device:0x400c525d1400 size:98304 thread:1
allocated block device:0x400c52600000 size:2799616 thread:1
allocated block device:0x400c52a00000 size:14458880 thread:1
allocated block device:0x400ca0000000 size:298674176 thread:1
allocated block device:0x400cb1e00000 size:7284736 thread:1
allocated block device:0x400d71e00000 size:230400000 thread:1
allocated block device:0x400d91e00000 size:230400000 thread:1
allocated block device:0x400db1e00000 size:230400000 thread:1
allocated block device:0x400dd1e00000 size:29138944 thread:1
allocated block device:0x400dd3a00000 size:29138944 thread:1
allocated block device:0x400dd5600000 size:3145728 thread:1
allocated block device:0x400dd5a00000 size:7284736 thread:1
allocated block device:0x400dd6200000 size:7284736 thread:1
allocated block device:0x400dd6a00000 size:14569472 thread:1
allocated block device:0x400e20000000 size:921600000 thread:1
Accelerator Fatal Error: call to cuMemAlloc returned error 2 (CUDA_ERROR_OUT_OF_MEMORY): Out of memory
 File: /lus/lfs1aip2/projects/u6cb/software/VASP/vasp.6.5.1/build/gam/fft_base.f90
 Function: restride_r2q_cmplx:945
 Line: 964

Out of memory allocating 921600000 bytes of device memory
Failing in Thread:1
Out of memory allocating 921600000 bytes of device memory
Failing in Thread:1
total/free CUDA memory: 102005473280/315621376
Present table dump for device[1]: NVIDIA Tesla GPU 0, compute capability 9.0, threadid=1
Hint: specify 0x800 bit in NV_ACC_DEBUG for verbose info.
host:0x2557280 device:0x40059e3fd800 size:32 presentcount:0+3 line:643 name:var%comm
host:0x25572a0 device:0x40059e3ef600 size:32 presentcount:0+4 line:652 name:var%comm_kinter
host:0x25572c0 device:0x40059e3ef800 size:32 presentcount:0+6 line:655 name:var%comm_kin
host:0x25572e0 device:0x40077c3ffa00 size:32 presentcount:0+3 line:646 name:var%comm_inter
host:0x2557300 device:0x40077c3ffc00 size:32 presentcount:0+7 line:649 name:var%comm_inb
host:0x256be80 device:0x40059a0ecd00 size:8 presentcount:0+1 line:-1 name:_setexm_struct_def_21
host:0x2576f40 device:0x40059a0ece00 size:28 presentcount:0+1 line:-1 name:_ml_ff_constant_21
host:0x2577c80 device:0x40059a0ecf00 size:30437 presentcount:0+1 line:-1 name:_ml_ff_taglist_21
host:0x25afc80 device:0x40059a0f4600 size:8 presentcount:0+1 line:-1 name:_mopenacc_tutor_21
host:0x25c2740 device:0x40059a0f4a00 size:32 presentcount:0+1 line:-1 name:_mbj_21
host:0x25cd640 device:0x40059a0f4d00 size:8 presentcount:0+1 line:-1 name:_sym_prec_21
host:0x26030c0 device:0x40059a0f4e00 size:344 presentcount:0+1 line:-1 name:_tet_21
host:0x261c840 device:0x40059a0f5000 size:392 presentcount:0+1 line:-1 name:_mymath_21
host:0x2817368 device:0x40059e3f0400 size:4800 presentcount:0+2 line:614 name:var
host:0x2818628 device:0x40059e3fbc00 size:1984 presentcount:0+2 line:403 name:var
host:0x281a910 device:0x40075c1ffa00 size:864 presentcount:0+4 line:2639 name:hamiltonian
host:0x286ac80 device:0x40059e3fec00 size:2712 presentcount:0+2 line:428 name:var
host:0x286b718 device:0x40077c3fc600 size:2248 presentcount:0+1 line:742 name:var
host:0x286eb50 device:0x400c921ffc00 size:288 presentcount:0+1 line:195 name:latt_cur
host:0x2871658 device:0x40079c1fe400 size:5088 presentcount:0+28 line:517 name:var
host:0x2872a38 device:0x4007f25f6000 size:5088 presentcount:0+6 line:517 name:var
host:0x2873e18 device:0x4007f25e9600 size:5088 presentcount:0+7 line:517 name:var
host:0x287a2a8 device:0x40077c3ff800 size:304 presentcount:0+1 line:567 name:var
host:0x287a3d8 device:0x4007f25fe200 size:304 presentcount:0+1 line:567 name:var
host:0x2e48ec0 device:0x40059a002600 size:960024 presentcount:0+1 line:-1 name:_setexm_struct_def_16
host:0x2f8f080 device:0x40059a0f4700 size:580 presentcount:0+1 line:-1 name:_wpbe_16
host:0x2f8f900 device:0x40059a0f4b00 size:288 presentcount:0+1 line:-1 name:_mbj_16
host:0x9f446c0 device:0x40059a0f5200 size:624 presentcount:0+1 line:-1 name:_mlr_optic_16
host:0xcd3f690 device:0x40059e3ffe00 size:24 presentcount:0+3 line:616 name:var%vkpt(:,:)
host:0xcd3f6d0 device:0x40059e3ffa00 size:8 presentcount:0+3 line:616 name:var%nityp(:)
host:0xcd3f890 device:0x40059e3f0200 size:16 presentcount:0+2 line:430 name:var%psrmax(:)
host:0xcd3f8d0 device:0x40059e3ff800 size:8 presentcount:0+3 line:616 name:var%lmmax(:)
host:0xcd3f900 device:0x40059e3ffc00 size:8 presentcount:0+3 line:616 name:var%nt_global(:)
host:0xcd3f930 device:0x4007f23f8800 size:4 presentcount:0+2 line:616 name:var%nplwkp(:)
host:0xcd3f960 device:0x4007f23f8a00 size:4 presentcount:0+2 line:616 name:var%nplwkp_tot(:)
host:0xcd3f990 device:0x4007f23fea00 size:4 presentcount:0+2 line:616 name:var%ngvector_pos(:)
host:0xcd3f9c0 device:0x4007f23f2800 size:4 presentcount:0+2 line:616 name:var%ngvector(:)
host:0xcd3f9f0 device:0x40059e3fc400 size:8 presentcount:0+2 line:616 name:var%nb_totk(:,:)
host:0xcd3fa20 device:0x4007f23fec00 size:4 presentcount:0+2 line:616 name:var%luseinv(:)
host:0xcd3fa50 device:0x40059e3efe00 size:4 presentcount:0+2 line:616 name:var%at_gamma(:)
host:0xcd3fa80 device:0x4007f23ffa00 size:8 presentcount:0+2 line:405 name:var%lmmax(:)
host:0xcd3fab0 device:0x40059e3efa00 size:8 presentcount:0+2 line:430 name:var%lmax(:)
host:0xcd3fae0 device:0x40059e3efc00 size:8 presentcount:0+2 line:430 name:var%lmmax(:)
host:0xcd3fb10 device:0x40059e3f0000 size:8 presentcount:0+2 line:430 name:var%channels(:)
host:0xcd3fb40 device:0x40079c1ff800 size:16 presentcount:0+2 line:430 name:var%rsmooth(:)
host:0xd479920 device:0x4007f25f9000 size:528 presentcount:0+1 line:480 name:var
host:0x11538180 device:0x40079c1ffa00 size:400 presentcount:0+2 line:464 name:var
host:0x11538310 device:0x40079c1ffe00 size:400 presentcount:0+2 line:464 name:var
host:0x15bcfde0 device:0x40077c3ffe00 size:8 presentcount:0+4 line:405 name:var%nityp(:)
host:0x160ce5f0 device:0x40059e3f2200 size:1000 presentcount:0+4 line:519 name:var%lpctz(:)
host:0x165517f0 device:0x4007f27e8a00 size:28464 presentcount:0+1 line:853 name:var(:)
host:0x16563f50 device:0x4007f29e8a00 size:40000 presentcount:0+1 line:857 name:var%psp(:,:)
host:0x1656dbc0 device:0x400c923fbc00 size:8000 presentcount:0+1 line:857 name:var%psprho(:)
host:0x16570e50 device:0x4007f23f8c00 size:24000 presentcount:0+2 line:466 name:var%psprnl(:,:,:)
host:0x165a0830 device:0x4007f23f0400 size:4320 presentcount:0+4 line:405 name:var%ityp(:)
host:0x165a1940 device:0x4007f23e8a00 size:25920 presentcount:0+4 line:405 name:var%posion(:,:)
host:0x165e4b10 device:0x400c921fbc00 size:8000 presentcount:0+1 line:857 name:var%pspcor(:)
host:0x165e6a80 device:0x400c921fdc00 size:8000 presentcount:0+1 line:857 name:var%psprho(:)
host:0x165ea5f0 device:0x4007f27efa00 size:40000 presentcount:0+1 line:857 name:var%psp(:,:)
host:0x165f4260 device:0x4007f23f2a00 size:24000 presentcount:0+2 line:466 name:var%psprnl(:,:,:)
host:0x16607260 device:0x4007f23ef000 size:8 presentcount:0+2 line:616 name:var%wtkpt(:)
host:0x16634310 device:0x40079c1ffc00 size:24 presentcount:0+3 line:466 name:var%lps(:)
host:0x166343c0 device:0x40077c3fd000 size:24 presentcount:0+3 line:466 name:var%lps(:)
host:0x166b2940 device:0x4007f23ef200 size:4320 presentcount:0+3 line:616 name:var%ityp(:)
host:0x166b3a50 device:0x40059e3fda00 size:4320 presentcount:0+3 line:616 name:var%npro_pos(:)
host:0x166b4b60 device:0x40059e3fc600 size:4324 presentcount:0+3 line:616 name:var%lmbase(:)
host:0x166b5c70 device:0x40059e3f1800 size:1280 presentcount:0+4 line:519 name:var%lpctx(:)
host:0x166b61a0 device:0x40059e3f1e00 size:720 presentcount:0+4 line:519 name:var%lpcty(:)
host:0x166b64a0 device:0x40059e3f2600 size:1280 presentcount:0+4 line:519 name:var%lpctx_(:)
host:0x166b69d0 device:0x40059e3f2c00 size:720 presentcount:0+4 line:519 name:var%lpcty_(:)
host:0x166b6cd0 device:0x40059e3f3000 size:1000 presentcount:0+4 line:519 name:var%lpctz_(:)
host:0x166b70e0 device:0x4007f25f7400 size:1280 presentcount:0+1 line:519 name:var%lpctx(:)
host:0x166b7610 device:0x4007f25f7a00 size:720 presentcount:0+1 line:519 name:var%lpcty(:)
host:0x166b7910 device:0x4007f25f7e00 size:1000 presentcount:0+1 line:519 name:var%lpctz(:)
host:0x166b7d20 device:0x4007f25f8200 size:1280 presentcount:0+1 line:519 name:var%lpctx_(:)
host:0x166b8250 device:0x4007f25f8800 size:720 presentcount:0+1 line:519 name:var%lpcty_(:)
host:0x166b8550 device:0x4007f25f8c00 size:1000 presentcount:0+1 line:519 name:var%lpctz_(:)
host:0x166b8960 device:0x4007f23fee00 size:2560 presentcount:0+1 line:519 name:var%lpctx(:)
host:0x166b9390 device:0x4007f25eaa00 size:1440 presentcount:0+1 line:519 name:var%lpcty(:)
host:0x166b9960 device:0x4007f25e8a00 size:2000 presentcount:0+1 line:519 name:var%lpctz(:)
host:0x166ba160 device:0x4007f25eb000 size:2560 presentcount:0+1 line:519 name:var%lpctx_(:)
host:0x166bab90 device:0x4007f25eba00 size:1440 presentcount:0+1 line:519 name:var%lpcty_(:)
host:0x166bb160 device:0x4007f25ec000 size:2000 presentcount:0+1 line:519 name:var%lpctz_(:)
host:0x167a7240 device:0x4007f25f0400 size:2824 presentcount:0+1 line:482 name:var%i2(:)
host:0x167a7d70 device:0x4007f25f1000 size:2824 presentcount:0+1 line:482 name:var%i3(:)
host:0x167a88a0 device:0x4007f25f1c00 size:5020 presentcount:0+1 line:482 name:var%i2(:)
host:0x167a9c70 device:0x4007f25f3000 size:5020 presentcount:0+1 line:482 name:var%i3(:)
host:0x167ab040 device:0x4007f25ec800 size:7200 presentcount:0+2 line:482 name:var%i2(:)
host:0x167acc90 device:0x4007f25ee600 size:7200 presentcount:0+2 line:482 name:var%i3(:)
host:0x167aed00 device:0x4008b4c5fa00 size:921600 presentcount:0+2 line:482 name:var%index(:,:)
host:0x1688fd30 device:0x4007f25fe400 size:2560 presentcount:0+1 line:569 name:var%ind1(:)
host:0x16890760 device:0x4007f25fee00 size:2824 presentcount:0+1 line:569 name:var%indcol(:)
host:0x16891290 device:0x4007f25f9400 size:2824 presentcount:0+1 line:482 name:var%i2(:)
host:0x16891dc0 device:0x4007f25fa000 size:2824 presentcount:0+1 line:482 name:var%i3(:)
host:0x168928f0 device:0x4007f25fac00 size:1512 presentcount:0+1 line:482 name:var%i2(:)
host:0x16892f00 device:0x4007f25fb200 size:1512 presentcount:0+1 line:482 name:var%i3(:)
host:0x16893510 device:0x40077c3fd200 size:4320 presentcount:0+2 line:430 name:var%nlimax(:)
host:0x16894620 device:0x40077c3fe600 size:4324 presentcount:0+2 line:430 name:var%lmbase(:)
host:0x16895730 device:0x40059e3ee400 size:4324 presentcount:0+2 line:430 name:var%nlibase(:)
host:0x16896840 device:0x40059e3f3400 size:17132 presentcount:0+4 line:519 name:var%nindpwconjg(:)
host:0x1689ab60 device:0x40059e3f7800 size:17132 presentcount:0+4 line:519 name:var%ind_in_sphere(:)
host:0x1689faa0 device:0x4007f25fbc00 size:516 presentcount:0+1 line:499 name:var%ptr(:)
host:0x1689fcd0 device:0x4007f25fb800 size:516 presentcount:0+1 line:499 name:var%n(:)
host:0x168cca80 device:0x4007f25fd800 size:1280 presentcount:0+1 line:569 name:var%ind1(:)
host:0x168ccfb0 device:0x4007f25fde00 size:700 presentcount:0+1 line:569 name:var%indcol(:)
host:0x168cd2a0 device:0x4006cc32e800 size:180000 presentcount:0+4 line:482 name:var%i2(:)
host:0x168f91f0 device:0x4006cc35a800 size:180000 presentcount:0+4 line:482 name:var%i3(:)
host:0x16925140 device:0x4007f23bca00 size:180000 presentcount:0+8 line:482 name:var%index(:,:)
host:0x16951090 device:0x4007f29bca00 size:180000 presentcount:0+8 line:482 name:var%i2(:)
host:0x1697cfe0 device:0x4006cc386800 size:180000 presentcount:0+8 line:482 name:var%i3(:)
host:0x169a9560 device:0x4007f2400000 size:1821184 presentcount:0+3 line:616 name:var%nindpw(:,:)
host:0x16b65f90 device:0x4007f25bca00 size:180000 presentcount:0+3 line:616 name:var%pl_index(:,:)
host:0x16b91ee0 device:0x4007f27bca00 size:180000 presentcount:0+3 line:616 name:var%pl_col(:,:)
host:0x16bbde30 device:0x4007f23f1600 size:4324 presentcount:0+2 line:405 name:var%lmbase(:)
host:0x16c2f7a0 device:0x4008b4c00000 size:224000 presentcount:0+1 line:499 name:var%tbl(:)
host:0x16c9ce00 device:0x400c921b9400 size:272160 presentcount:0+1 line:499 name:var%tbli(:)
host:0x16cdf550 device:0x4007f25fc400 size:516 presentcount:0+1 line:499 name:var%ptri(:)
host:0x16cdf780 device:0x4007f25fc000 size:516 presentcount:0+1 line:499 name:var%ni(:)
host:0x16cdf9b0 device:0x4007f25fcc00 size:516 presentcount:0+1 line:499 name:var%ptr(:)
host:0x16cdfbe0 device:0x4007f25fc800 size:516 presentcount:0+1 line:499 name:var%n(:)
host:0x16cdfe10 device:0x40077c3fe400 size:4 presentcount:0+1 line:499 name:var%tbli(:)
host:0x16cdfe40 device:0x4007f25fd400 size:516 presentcount:0+1 line:499 name:var%ptri(:)
host:0x16ce0070 device:0x4007f25fd000 size:516 presentcount:0+1 line:499 name:var%ni(:)
host:0x16cf4da0 device:0x4007f25f4400 size:516 presentcount:0+1 line:499 name:var%ptr(:)
host:0x16cf4fd0 device:0x4007f23ffc00 size:516 presentcount:0+1 line:499 name:var%n(:)
host:0x16cf5200 device:0x4007f25f4c00 size:516 presentcount:0+1 line:499 name:var%ptri(:)
host:0x16cf5430 device:0x4007f25f4800 size:516 presentcount:0+1 line:499 name:var%ni(:)
host:0x16cf5660 device:0x4007f25f5400 size:516 presentcount:0+1 line:499 name:var%ptr(:)
host:0x16cf5890 device:0x4007f25f5000 size:516 presentcount:0+1 line:499 name:var%n(:)
host:0x16cf5ac0 device:0x4007f25f5c00 size:516 presentcount:0+1 line:499 name:var%ptri(:)
host:0x16cf5cf0 device:0x4007f25f5800 size:516 presentcount:0+1 line:499 name:var%ni(:)
host:0x16e3c190 device:0x4008b5600000 size:7284736 presentcount:0+3 line:616 name:var%datake(:,:,:)
host:0x1752f410 device:0x4007f2600000 size:1821184 presentcount:0+3 line:616 name:var%igx(:,:)
host:0x176ecaa0 device:0x4007f2200000 size:1821184 presentcount:0+3 line:616 name:var%igy(:,:)
host:0x178aa340 device:0x4007f2800000 size:1821184 presentcount:0+3 line:616 name:var%igz(:,:)
host:0x17a68210 device:0x4007f3200000 size:7284272 presentcount:0+4 line:519 name:var%fftsca(:,:)
host:0x1815a870 device:0x400c923b9400 size:272160 presentcount:0+1 line:499 name:var%tbl(:)
host:0x18272dd0 device:0x4008b4e00000 size:1807360 presentcount:0+1 line:499 name:var%tbl(:)
host:0x185e89c0 device:0x400c92000000 size:1807200 presentcount:0+1 line:499 name:var%tbli(:)
host:0x187a3a30 device:0x400c92200000 size:1807200 presentcount:0+1 line:499 name:var%tbl(:)
host:0x18b1a140 device:0x400c92400000 size:1807200 presentcount:0+1 line:499 name:var%tbli(:)
host:0x193d2420 device:0x40059e3e4000 size:41984 presentcount:0+2 line:746 name:var%fertot(:,:,:)
host:0x193e0030 device:0x4006cc31a000 size:83968 presentcount:0+2 line:746 name:var%celtot(:,:,:)
host:0x19932420 device:0x40079c1f4000 size:41984 presentcount:0+1 line:746 name:var%auxtot(:,:,:)
host:0x1ab0f580 device:0x4007f2a00000 size:7200000 presentcount:0+1 line:195 name:dencor(:)
host:0x1b8d9870 device:0x4007f1e00000 size:2799360 presentcount:0+2 line:194 name:cdij(:,:,:,:)
host:0x1bb88f90 device:0x400c92600000 size:2799360 presentcount:0+2 line:194 name:cqij(:,:,:,:)
host:0x1c0e8c40 device:0x4008b5200000 size:4030464 presentcount:0+5 line:746 name:var%gproj(:,:,:,:)
host:0x1c777ed0 device:0x4006cc3ca800 size:98304 presentcount:0+1 line:1101 name:w1%gproj(:)
host:0x234b1500 device:0x4008b4d40a00 size:393216 presentcount:0+2 line:1226 name:wa%gproj(:,:)
host:0x23511530 device:0x400c830c0000 size:393216 presentcount:0+2 line:1226 name:wa%gproj(:,:)
host:0x235788e0 device:0x400e55600000 size:3145728 presentcount:0+2 line:1226 name:wa%gproj(:,:)
host:0x27790760 device:0x4007f29fcc00 size:2048 presentcount:0+1 line:179 name:w1(:)
host:0x27790f80 device:0x4007f27fa600 size:2048 presentcount:0+1 line:179 name:wtmp(:)
host:0x277c6dc0 device:0x400d11e00000 size:7284736 presentcount:0+1 line:1101 name:w1%cptwfp(:)
host:0x27eb95f0 device:0x4006cc3b2800 size:98304 presentcount:0+1 line:1101 name:w1%gproj(:)
host:0x27ed1620 device:0x400c925b9400 size:98304 presentcount:0+1 line:1101 name:w1%gproj(:)
host:0x27ee9650 device:0x400c925d1400 size:98304 presentcount:0+1 line:1101 name:w1%gproj(:)
host:0x2810e130 device:0x400e56a00000 size:14569472 presentcount:0+1 line:202 name:precon(:,:)
host:0x28efad20 device:0x400c8fa00000 size:7284736 presentcount:0+1 line:1101 name:w1%cptwfp(:)
host:0x295f5740 device:0x400e55a00000 size:7284736 presentcount:0+1 line:1101 name:w1%cptwfp(:)
host:0x29ce8180 device:0x400e56200000 size:7284736 presentcount:0+1 line:1101 name:w1%cptwfp(:)
host:0x40063c0010a0 device:0x4007f3a00000 size:45593280 presentcount:0+2 line:430 name:var%nli(:,:)
host:0x40063eb839e0 device:0x400c92a00000 size:14458880 presentcount:0+1 line:195 name:cstrf(:,:)
host:0x4006e00012b0 device:0x400800000000 size:807411968 presentcount:0+2 line:430 name:var%rproj(:)
host:0x4007140e6d70 device:0x400e51e00000 size:29138944 presentcount:0+2 line:1226 name:wa%cptwfp(:,:)
host:0x4007c00031a0 device:0x40086dc00000 size:230400000 presentcount:0+2 line:194 name:sv(:,:)
host:0x4007cdbc4a60 device:0x4007e0000000 size:298674176 presentcount:0+5 line:746 name:var%cptwfp(:,:,:,:)
host:0x400852906f80 device:0x400e53a00000 size:29138944 presentcount:0+2 line:1226 name:wa%cptwfp(:,:)
host:0x400880007190 device:0x400d00000000 size:233111552 presentcount:0+2 line:1226 name:wa%cptwfp(:,:)
host:0x40088de677c0 device:0x400c60000000 size:230400000 presentcount:0+1 line:1101 name:w1%cr(:)
host:0x4009400079d0 device:0x400830400000 size:230400000 presentcount:0+1 line:1236 name:w1%cr(:)
host:0x40094dbd7df0 device:0x4008a0000000 size:230400000 presentcount:0+1 line:1101 name:w1%cr(:)
host:0x400a60008000 device:0x400860000000 size:230400000 presentcount:0+1 line:1236 name:w1%cr(:)
host:0x400a6dbd8420 device:0x4005e0000000 size:230400000 presentcount:0+1 line:1101 name:w1%cr(:)
host:0x400bc0000020 device:0x400e31e00000 size:230400000 presentcount:0+1 line:1236 name:w1%cr(:)
host:0x400bcdbc0440 device:0x400e11e00000 size:230400000 presentcount:0+1 line:1101 name:w1%cr(:)
host:0x400c40000650 device:0x400df1e00000 size:230400000 presentcount:0+1 line:1236 name:w1%cr(:)
host:0xffffd6077410 device:0x4007f27fb200 size:3024 presentcount:0+12 line:682 name:var
host:0xffffd6077fe0 device:0x40073c5ff800 size:1480 presentcount:0+1 line:174 name:w_ini
host:0xffffd60785b0 device:0x4007f27f9c00 size:1480 presentcount:0+1 line:174 name:wopt
host:0xffffd6078b80 device:0x40077c3fbc00 size:1480 presentcount:0+1 line:174 name:wtmpa
allocated block device:0x40059e3e4000 size:41984 thread:1
allocated block device:0x40059e3ee400 size:4608 thread:1
allocated block device:0x40059e3ef600 size:512 thread:1
allocated block device:0x40059e3ef800 size:512 thread:1
allocated block device:0x40059e3efa00 size:512 thread:1
allocated block device:0x40059e3efc00 size:512 thread:1
allocated block device:0x40059e3efe00 size:512 thread:1
allocated block device:0x40059e3f0000 size:512 thread:1
allocated block device:0x40059e3f0200 size:512 thread:1
allocated block device:0x40059e3f0400 size:5120 thread:1
allocated block device:0x40059e3f1800 size:1536 thread:1
allocated block device:0x40059e3f1e00 size:1024 thread:1
allocated block device:0x40059e3f2200 size:1024 thread:1
allocated block device:0x40059e3f2600 size:1536 thread:1
allocated block device:0x40059e3f2c00 size:1024 thread:1
allocated block device:0x40059e3f3000 size:1024 thread:1
allocated block device:0x40059e3f3400 size:17408 thread:1
allocated block device:0x40059e3f7800 size:17408 thread:1
allocated block device:0x40059e3fbc00 size:2048 thread:1
allocated block device:0x40059e3fc400 size:512 thread:1
allocated block device:0x40059e3fc600 size:4608 thread:1
allocated block device:0x40059e3fd800 size:512 thread:1
allocated block device:0x40059e3fda00 size:4608 thread:1
allocated block device:0x40059e3fec00 size:3072 thread:1
allocated block device:0x40059e3ff800 size:512 thread:1
allocated block device:0x40059e3ffa00 size:512 thread:1
allocated block device:0x40059e3ffc00 size:512 thread:1
allocated block device:0x40059e3ffe00 size:512 thread:1
allocated block device:0x4005e0000000 size:298674176 thread:1
allocated block device:0x4006cc31a000 size:83968 thread:1
allocated block device:0x4006cc32e800 size:180224 thread:1
allocated block device:0x4006cc35a800 size:180224 thread:1
allocated block device:0x4006cc386800 size:180224 thread:1
allocated block device:0x4006cc3b2800 size:98304 thread:1
allocated block device:0x4006cc3ca800 size:98304 thread:1
allocated block device:0x40073c5ff800 size:1536 thread:1
allocated block device:0x40075c1ffa00 size:1024 thread:1
allocated block device:0x40077c3fbc00 size:2048 thread:1
allocated block device:0x40077c3fc600 size:2560 thread:1
allocated block device:0x40077c3fd000 size:512 thread:1
allocated block device:0x40077c3fd200 size:4608 thread:1
allocated block device:0x40077c3fe400 size:512 thread:1
allocated block device:0x40077c3fe600 size:4608 thread:1
allocated block device:0x40077c3ff800 size:512 thread:1
allocated block device:0x40077c3ffa00 size:512 thread:1
allocated block device:0x40077c3ffc00 size:512 thread:1
allocated block device:0x40077c3ffe00 size:512 thread:1
allocated block device:0x40079c1f4000 size:41984 thread:1
allocated block device:0x40079c1fe400 size:5120 thread:1
allocated block device:0x40079c1ff800 size:512 thread:1
allocated block device:0x40079c1ffa00 size:512 thread:1
allocated block device:0x40079c1ffc00 size:512 thread:1
allocated block device:0x40079c1ffe00 size:512 thread:1
allocated block device:0x4007e0000000 size:298674176 thread:1
allocated block device:0x4007f1e00000 size:4030464 thread:1
allocated block device:0x4007f2200000 size:1821184 thread:1
allocated block device:0x4007f23bca00 size:180224 thread:1
allocated block device:0x4007f23e8a00 size:26112 thread:1
allocated block device:0x4007f23ef000 size:512 thread:1
allocated block device:0x4007f23ef200 size:4608 thread:1
allocated block device:0x4007f23f0400 size:4608 thread:1
allocated block device:0x4007f23f1600 size:4608 thread:1
allocated block device:0x4007f23f2800 size:512 thread:1
allocated block device:0x4007f23f2a00 size:24064 thread:1
allocated block device:0x4007f23f8800 size:512 thread:1
allocated block device:0x4007f23f8a00 size:512 thread:1
allocated block device:0x4007f23f8c00 size:24064 thread:1
allocated block device:0x4007f23fea00 size:512 thread:1
allocated block device:0x4007f23fec00 size:512 thread:1
allocated block device:0x4007f23fee00 size:3072 thread:1
allocated block device:0x4007f23ffa00 size:512 thread:1
allocated block device:0x4007f23ffc00 size:1024 thread:1
allocated block device:0x4007f2400000 size:1821184 thread:1
allocated block device:0x4007f25bca00 size:180224 thread:1
allocated block device:0x4007f25e8a00 size:3072 thread:1
allocated block device:0x4007f25e9600 size:5120 thread:1
allocated block device:0x4007f25eaa00 size:1536 thread:1
allocated block device:0x4007f25eb000 size:2560 thread:1
allocated block device:0x4007f25eba00 size:1536 thread:1
allocated block device:0x4007f25ec000 size:2048 thread:1
allocated block device:0x4007f25ec800 size:7680 thread:1
allocated block device:0x4007f25ee600 size:7680 thread:1
allocated block device:0x4007f25f0400 size:3072 thread:1
allocated block device:0x4007f25f1000 size:3072 thread:1
allocated block device:0x4007f25f1c00 size:5120 thread:1
allocated block device:0x4007f25f3000 size:5120 thread:1
allocated block device:0x4007f25f4400 size:1024 thread:1
allocated block device:0x4007f25f4800 size:1024 thread:1
allocated block device:0x4007f25f4c00 size:1024 thread:1
allocated block device:0x4007f25f5000 size:1024 thread:1
allocated block device:0x4007f25f5400 size:1024 thread:1
allocated block device:0x4007f25f5800 size:1024 thread:1
allocated block device:0x4007f25f5c00 size:1024 thread:1
allocated block device:0x4007f25f6000 size:5120 thread:1
allocated block device:0x4007f25f7400 size:1536 thread:1
allocated block device:0x4007f25f7a00 size:1024 thread:1
allocated block device:0x4007f25f7e00 size:1024 thread:1
allocated block device:0x4007f25f8200 size:1536 thread:1
allocated block device:0x4007f25f8800 size:1024 thread:1
allocated block device:0x4007f25f8c00 size:1024 thread:1
allocated block device:0x4007f25f9000 size:1024 thread:1
allocated block device:0x4007f25f9400 size:3072 thread:1
allocated block device:0x4007f25fa000 size:3072 thread:1
allocated block device:0x4007f25fac00 size:1536 thread:1
allocated block device:0x4007f25fb200 size:1536 thread:1
allocated block device:0x4007f25fb800 size:1024 thread:1
allocated block device:0x4007f25fbc00 size:1024 thread:1
allocated block device:0x4007f25fc000 size:1024 thread:1
allocated block device:0x4007f25fc400 size:1024 thread:1
allocated block device:0x4007f25fc800 size:1024 thread:1
allocated block device:0x4007f25fcc00 size:1024 thread:1
allocated block device:0x4007f25fd000 size:1024 thread:1
allocated block device:0x4007f25fd400 size:1024 thread:1
allocated block device:0x4007f25fd800 size:1536 thread:1
allocated block device:0x4007f25fde00 size:1024 thread:1
allocated block device:0x4007f25fe200 size:512 thread:1
allocated block device:0x4007f25fe400 size:2560 thread:1
allocated block device:0x4007f25fee00 size:3072 thread:1
allocated block device:0x4007f2600000 size:1821184 thread:1
allocated block device:0x4007f27bca00 size:180224 thread:1
allocated block device:0x4007f27e8a00 size:28672 thread:1
allocated block device:0x4007f27efa00 size:40448 thread:1
allocated block device:0x4007f27f9c00 size:2560 thread:1
allocated block device:0x4007f27fa600 size:3072 thread:1
allocated block device:0x4007f27fb200 size:3072 thread:1
allocated block device:0x4007f2800000 size:1821184 thread:1
allocated block device:0x4007f29bca00 size:180224 thread:1
allocated block device:0x4007f29e8a00 size:40448 thread:1
allocated block device:0x4007f29fcc00 size:2048 thread:1
allocated block device:0x4007f2a00000 size:7284736 thread:1
allocated block device:0x4007f3200000 size:7284736 thread:1
allocated block device:0x4007f3a00000 size:45593600 thread:1
allocated block device:0x400800000000 size:807412224 thread:1
allocated block device:0x400830400000 size:230400000 thread:1
allocated block device:0x400860000000 size:230400000 thread:1
allocated block device:0x40086dc00000 size:230400000 thread:1
allocated block device:0x4008a0000000 size:230400000 thread:1
allocated block device:0x4008b4c00000 size:391680 thread:1
allocated block device:0x4008b4c5fa00 size:921600 thread:1
allocated block device:0x4008b4d40a00 size:393216 thread:1
allocated block device:0x4008b4e00000 size:2799616 thread:1
allocated block device:0x4008b5200000 size:4030464 thread:1
allocated block device:0x4008b5600000 size:7284736 thread:1
allocated block device:0x400c60000000 size:230400000 thread:1
allocated block device:0x400c830c0000 size:393216 thread:1
allocated block device:0x400c8fa00000 size:7284736 thread:1
allocated block device:0x400c92000000 size:1807360 thread:1
allocated block device:0x400c921b9400 size:272384 thread:1
allocated block device:0x400c921fbc00 size:8192 thread:1
allocated block device:0x400c921fdc00 size:8192 thread:1
allocated block device:0x400c921ffc00 size:512 thread:1
allocated block device:0x400c92200000 size:1807360 thread:1
allocated block device:0x400c923b9400 size:272384 thread:1
allocated block device:0x400c923fbc00 size:8192 thread:1
allocated block device:0x400c92400000 size:1807360 thread:1
allocated block device:0x400c925b9400 size:98304 thread:1
allocated block device:0x400c925d1400 size:98304 thread:1
allocated block device:0x400c92600000 size:2799616 thread:1
allocated block device:0x400c92a00000 size:14458880 thread:1
allocated block device:0x400d00000000 size:298674176 thread:1
allocated block device:0x400d11e00000 size:7284736 thread:1
allocated block device:0x400df1e00000 size:230400000 thread:1
allocated block device:0x400e11e00000 size:230400000 thread:1
allocated block device:0x400e31e00000 size:230400000 thread:1
allocated block device:0x400e51e00000 size:29138944 thread:1
allocated block device:0x400e53a00000 size:29138944 thread:1
allocated block device:0x400e55600000 size:3145728 thread:1
allocated block device:0x400e55a00000 size:7284736 thread:1
allocated block device:0x400e56200000 size:7284736 thread:1
allocated block device:0x400e56a00000 size:14569472 thread:1
Accelerator Fatal Error: call to cuMemAlloc returned error 2 (CUDA_ERROR_OUT_OF_MEMORY): Out of memory
 File: /lus/lfs1aip2/projects/u6cb/software/VASP/vasp.6.5.1/build/gam/hamil.f90
 Function: hamiltmu:978
 Line: 1005

total/free CUDA memory: 102005473280/315490304
Present table dump for device[1]: NVIDIA Tesla GPU 0, compute capability 9.0, threadid=1
Hint: specify 0x800 bit in NV_ACC_DEBUG for verbose info.
host:0x2557280 device:0x40057e3fd800 size:32 presentcount:0+3 line:643 name:var%comm
host:0x25572a0 device:0x40057e3ef600 size:32 presentcount:0+4 line:652 name:var%comm_kinter
host:0x25572c0 device:0x40057e3ef800 size:32 presentcount:0+6 line:655 name:var%comm_kin
host:0x25572e0 device:0x4007671ffa00 size:32 presentcount:0+3 line:646 name:var%comm_inter
host:0x2557300 device:0x4007671ffc00 size:32 presentcount:0+7 line:649 name:var%comm_inb
host:0x256be80 device:0x40057a0ecd00 size:8 presentcount:0+1 line:-1 name:_setexm_struct_def_21
host:0x2576f40 device:0x40057a0ece00 size:28 presentcount:0+1 line:-1 name:_ml_ff_constant_21
host:0x2577c80 device:0x40057a0ecf00 size:30437 presentcount:0+1 line:-1 name:_ml_ff_taglist_21
host:0x25afc80 device:0x40057a0f4600 size:8 presentcount:0+1 line:-1 name:_mopenacc_tutor_21
host:0x25c2740 device:0x40057a0f4a00 size:32 presentcount:0+1 line:-1 name:_mbj_21
host:0x25cd640 device:0x40057a0f4d00 size:8 presentcount:0+1 line:-1 name:_sym_prec_21
host:0x26030c0 device:0x40057a0f4e00 size:344 presentcount:0+1 line:-1 name:_tet_21
host:0x261c840 device:0x40057a0f5000 size:392 presentcount:0+1 line:-1 name:_mymath_21
host:0x2817368 device:0x40057e3f0400 size:4800 presentcount:0+2 line:614 name:var
host:0x2818628 device:0x40057e3fbc00 size:1984 presentcount:0+2 line:403 name:var
host:0x281a910 device:0x4007471ffa00 size:864 presentcount:0+4 line:2639 name:hamiltonian
host:0x286ac80 device:0x40057e3fec00 size:2712 presentcount:0+2 line:428 name:var
host:0x286b718 device:0x4007671fc600 size:2248 presentcount:0+1 line:742 name:var
host:0x286eb50 device:0x400c721ffc00 size:288 presentcount:0+1 line:195 name:latt_cur
host:0x2871658 device:0x4007871fe400 size:5088 presentcount:0+28 line:517 name:var
host:0x2872a38 device:0x4007d25f6000 size:5088 presentcount:0+6 line:517 name:var
host:0x2873e18 device:0x4007d25e9600 size:5088 presentcount:0+7 line:517 name:var
host:0x287a2a8 device:0x4007671ff800 size:304 presentcount:0+1 line:567 name:var
host:0x287a3d8 device:0x4007d25fe200 size:304 presentcount:0+1 line:567 name:var
host:0x2e48ec0 device:0x40057a002600 size:960024 presentcount:0+1 line:-1 name:_setexm_struct_def_16
host:0x2f8f080 device:0x40057a0f4700 size:580 presentcount:0+1 line:-1 name:_wpbe_16
host:0x2f8f900 device:0x40057a0f4b00 size:288 presentcount:0+1 line:-1 name:_mbj_16
host:0x9f446c0 device:0x40057a0f5200 size:624 presentcount:0+1 line:-1 name:_mlr_optic_16
host:0x42859470 device:0x4007d25f9000 size:528 presentcount:0+1 line:480 name:var
host:0x469184c0 device:0x4007871ffa00 size:400 presentcount:0+2 line:464 name:var
host:0x46918650 device:0x4007871ffe00 size:400 presentcount:0+2 line:464 name:var
host:0x4afb0130 device:0x4007671ffe00 size:8 presentcount:0+4 line:405 name:var%nityp(:)
host:0x4b4ae940 device:0x40057e3f2200 size:1000 presentcount:0+4 line:519 name:var%lpctz(:)
host:0x4b931b40 device:0x4007d27e8a00 size:28464 presentcount:0+1 line:853 name:var(:)
host:0x4b9442a0 device:0x4007d29e8a00 size:40000 presentcount:0+1 line:857 name:var%psp(:,:)
host:0x4b94df10 device:0x400c723fbc00 size:8000 presentcount:0+1 line:857 name:var%psprho(:)
host:0x4b9511a0 device:0x4007d23f8c00 size:24000 presentcount:0+2 line:466 name:var%psprnl(:,:,:)
host:0x4b980b80 device:0x4007d23f0400 size:4320 presentcount:0+4 line:405 name:var%ityp(:)
host:0x4b981c90 device:0x4007d23e8a00 size:25920 presentcount:0+4 line:405 name:var%posion(:,:)
host:0x4b9c4e60 device:0x400c721fbc00 size:8000 presentcount:0+1 line:857 name:var%pspcor(:)
host:0x4b9c6dd0 device:0x400c721fdc00 size:8000 presentcount:0+1 line:857 name:var%psprho(:)
host:0x4b9ca940 device:0x4007d27efa00 size:40000 presentcount:0+1 line:857 name:var%psp(:,:)
host:0x4b9d45b0 device:0x4007d23f2a00 size:24000 presentcount:0+2 line:466 name:var%psprnl(:,:,:)
host:0x4b9e77e0 device:0x4007d25fbc00 size:516 presentcount:0+1 line:499 name:var%ptr(:)
host:0x4ba14660 device:0x4007871ffc00 size:24 presentcount:0+3 line:466 name:var%lps(:)
host:0x4ba14710 device:0x4007671fd000 size:24 presentcount:0+3 line:466 name:var%lps(:)
host:0x4bb706e0 device:0x40057e3ffe00 size:24 presentcount:0+3 line:616 name:var%vkpt(:,:)
host:0x4bb95860 device:0x4007d23ef000 size:8 presentcount:0+2 line:616 name:var%wtkpt(:)
host:0x4bb95890 device:0x40057e3ffa00 size:8 presentcount:0+3 line:616 name:var%nityp(:)
host:0x4bb95ac0 device:0x40057e3f0200 size:16 presentcount:0+2 line:430 name:var%psrmax(:)
host:0x4bb96080 device:0x4007d23ef200 size:4320 presentcount:0+3 line:616 name:var%ityp(:)
host:0x4bb97190 device:0x40057e3ff800 size:8 presentcount:0+3 line:616 name:var%lmmax(:)
host:0x4bb971c0 device:0x40057e3ffc00 size:8 presentcount:0+3 line:616 name:var%nt_global(:)
host:0x4bb971f0 device:0x40057e3fda00 size:4320 presentcount:0+3 line:616 name:var%npro_pos(:)
host:0x4bb98300 device:0x40057e3fc600 size:4324 presentcount:0+3 line:616 name:var%lmbase(:)
host:0x4bb99410 device:0x4007d23f8800 size:4 presentcount:0+2 line:616 name:var%nplwkp(:)
host:0x4bb99440 device:0x4007d23f8a00 size:4 presentcount:0+2 line:616 name:var%nplwkp_tot(:)
host:0x4bb99470 device:0x4007d23fea00 size:4 presentcount:0+2 line:616 name:var%ngvector_pos(:)
host:0x4bb994a0 device:0x4007d23f2800 size:4 presentcount:0+2 line:616 name:var%ngvector(:)
host:0x4bb994d0 device:0x40057e3f1800 size:1280 presentcount:0+4 line:519 name:var%lpctx(:)
host:0x4bb99a00 device:0x40057e3f1e00 size:720 presentcount:0+4 line:519 name:var%lpcty(:)
host:0x4bb99d00 device:0x40057e3f2600 size:1280 presentcount:0+4 line:519 name:var%lpctx_(:)
host:0x4bb9a230 device:0x40057e3f2c00 size:720 presentcount:0+4 line:519 name:var%lpcty_(:)
host:0x4bb9a530 device:0x40057e3f3000 size:1000 presentcount:0+4 line:519 name:var%lpctz_(:)
host:0x4bb9a940 device:0x4007d25f7400 size:1280 presentcount:0+1 line:519 name:var%lpctx(:)
host:0x4bb9ae70 device:0x4007d25f7a00 size:720 presentcount:0+1 line:519 name:var%lpcty(:)
host:0x4bb9b170 device:0x4007d25f7e00 size:1000 presentcount:0+1 line:519 name:var%lpctz(:)
host:0x4bb9b580 device:0x4007d25f8200 size:1280 presentcount:0+1 line:519 name:var%lpctx_(:)
host:0x4bb9bab0 device:0x4007d25f8800 size:720 presentcount:0+1 line:519 name:var%lpcty_(:)
host:0x4bb9bdb0 device:0x4007d25f8c00 size:1000 presentcount:0+1 line:519 name:var%lpctz_(:)
host:0x4bb9c1c0 device:0x4007d23fee00 size:2560 presentcount:0+1 line:519 name:var%lpctx(:)
host:0x4bb9cbf0 device:0x4007d25eaa00 size:1440 presentcount:0+1 line:519 name:var%lpcty(:)
host:0x4bb9d1c0 device:0x4007d25e8a00 size:2000 presentcount:0+1 line:519 name:var%lpctz(:)
host:0x4bb9d9c0 device:0x4007d25eb000 size:2560 presentcount:0+1 line:519 name:var%lpctx_(:)
host:0x4bb9e3f0 device:0x4007d25eba00 size:1440 presentcount:0+1 line:519 name:var%lpcty_(:)
host:0x4bb9e9c0 device:0x4007d25ec000 size:2000 presentcount:0+1 line:519 name:var%lpctz_(:)
host:0x4bc8aaa0 device:0x4007d25f0400 size:2824 presentcount:0+1 line:482 name:var%i2(:)
host:0x4bc8b5d0 device:0x4007d25f1000 size:2824 presentcount:0+1 line:482 name:var%i3(:)
host:0x4bc8c100 device:0x4007d25f1c00 size:5020 presentcount:0+1 line:482 name:var%i2(:)
host:0x4bc8d4d0 device:0x4007d25f3000 size:5020 presentcount:0+1 line:482 name:var%i3(:)
host:0x4bc8e8a0 device:0x4007d25ec800 size:7200 presentcount:0+2 line:482 name:var%i2(:)
host:0x4bc904f0 device:0x4007d25ee600 size:7200 presentcount:0+2 line:482 name:var%i3(:)
host:0x4bc92140 device:0x4007d25fe400 size:2560 presentcount:0+1 line:569 name:var%ind1(:)
host:0x4bc92b70 device:0x4007d25fee00 size:2824 presentcount:0+1 line:569 name:var%indcol(:)
host:0x4bc936a0 device:0x4007d25f9400 size:2824 presentcount:0+1 line:482 name:var%i2(:)
host:0x4bc941d0 device:0x4007d25fa000 size:2824 presentcount:0+1 line:482 name:var%i3(:)
host:0x4bc94d00 device:0x4007d25fac00 size:1512 presentcount:0+1 line:482 name:var%i2(:)
host:0x4bc95310 device:0x4007d25fb200 size:1512 presentcount:0+1 line:482 name:var%i3(:)
host:0x4bc95920 device:0x4007671fd200 size:4320 presentcount:0+2 line:430 name:var%nlimax(:)
host:0x4bc96a30 device:0x4007671fe400 size:4 presentcount:0+1 line:499 name:var%tbli(:)
host:0x4bc96a60 device:0x4007d25fd800 size:1280 presentcount:0+1 line:569 name:var%ind1(:)
host:0x4bc96f90 device:0x4007d25fde00 size:696 presentcount:0+1 line:569 name:var%indcol(:)
host:0x4bc97270 device:0x40057e3fc400 size:8 presentcount:0+2 line:616 name:var%nb_totk(:,:)
host:0x4bc972a0 device:0x4007d23fec00 size:4 presentcount:0+2 line:616 name:var%luseinv(:)
host:0x4bc972d0 device:0x40057e3efe00 size:4 presentcount:0+2 line:616 name:var%at_gamma(:)
host:0x4bc97300 device:0x4007d23ffa00 size:8 presentcount:0+2 line:405 name:var%lmmax(:)
host:0x4bc97330 device:0x40057e3efa00 size:8 presentcount:0+2 line:430 name:var%lmax(:)
host:0x4bc97360 device:0x4007d23f1600 size:4324 presentcount:0+2 line:405 name:var%lmbase(:)
host:0x4bc98470 device:0x40057e3efc00 size:8 presentcount:0+2 line:430 name:var%lmmax(:)
host:0x4bc984a0 device:0x40057e3f0000 size:8 presentcount:0+2 line:430 name:var%channels(:)
host:0x4bc984d0 device:0x4007871ff800 size:16 presentcount:0+2 line:430 name:var%rsmooth(:)
host:0x4bc98510 device:0x4007671fe600 size:4324 presentcount:0+2 line:430 name:var%lmbase(:)
host:0x4bc99620 device:0x40057e3ee400 size:4324 presentcount:0+2 line:430 name:var%nlibase(:)
host:0x4bc9a730 device:0x40057e3f3400 size:17132 presentcount:0+4 line:519 name:var%nindpwconjg(:)
host:0x4bc9ea50 device:0x40057e3f7800 size:17132 presentcount:0+4 line:519 name:var%ind_in_sphere(:)
host:0x4bca3990 device:0x4007d25fb800 size:516 presentcount:0+1 line:499 name:var%n(:)
host:0x4bca3bc0 device:0x4007d25fc400 size:516 presentcount:0+1 line:499 name:var%ptri(:)
host:0x4bca3df0 device:0x4007d25fc000 size:516 presentcount:0+1 line:499 name:var%ni(:)
host:0x4bca4020 device:0x4007d25fcc00 size:516 presentcount:0+1 line:499 name:var%ptr(:)
host:0x4bca4250 device:0x4007d25fc800 size:516 presentcount:0+1 line:499 name:var%n(:)
host:0x4bca4480 device:0x4007d25fd400 size:516 presentcount:0+1 line:499 name:var%ptri(:)
host:0x4bca46b0 device:0x4007d25fd000 size:516 presentcount:0+1 line:499 name:var%ni(:)
host:0x4bcad6d0 device:0x4007d25f4400 size:516 presentcount:0+1 line:499 name:var%ptr(:)
host:0x4bcad900 device:0x4007d23ffc00 size:516 presentcount:0+1 line:499 name:var%n(:)
host:0x4bcadb30 device:0x4007d25f4c00 size:516 presentcount:0+1 line:499 name:var%ptri(:)
host:0x4bcae330 device:0x400894c5fa00 size:921600 presentcount:0+2 line:482 name:var%index(:,:)
host:0x4bdc7790 device:0x4006b232e800 size:180000 presentcount:0+4 line:482 name:var%i2(:)
host:0x4bdf36e0 device:0x4006b235a800 size:180000 presentcount:0+4 line:482 name:var%i3(:)
host:0x4be1f630 device:0x4007d23bca00 size:180000 presentcount:0+8 line:482 name:var%index(:,:)
host:0x4be4b580 device:0x4007d29bca00 size:180000 presentcount:0+8 line:482 name:var%i2(:)
host:0x4be774d0 device:0x4006b2386800 size:180000 presentcount:0+8 line:482 name:var%i3(:)
host:0x4bea3a50 device:0x4007d2400000 size:1821184 presentcount:0+3 line:616 name:var%nindpw(:,:)
host:0x4c060480 device:0x4007d25bca00 size:180000 presentcount:0+3 line:616 name:var%pl_index(:,:)
host:0x4c08c3d0 device:0x4007d27bca00 size:180000 presentcount:0+3 line:616 name:var%pl_col(:,:)
host:0x4c0cbbd0 device:0x4007d25f4800 size:516 presentcount:0+1 line:499 name:var%ni(:)
host:0x4c0cbe00 device:0x4007d25f5400 size:516 presentcount:0+1 line:499 name:var%ptr(:)
host:0x4c0cc030 device:0x4007d25f5000 size:516 presentcount:0+1 line:499 name:var%n(:)
host:0x4c0cc260 device:0x4007d25f5c00 size:516 presentcount:0+1 line:499 name:var%ptri(:)
host:0x4c0cc490 device:0x4007d25f5800 size:516 presentcount:0+1 line:499 name:var%ni(:)
host:0x4c21c4e0 device:0x400895600000 size:7284736 presentcount:0+3 line:616 name:var%datake(:,:,:)
host:0x4c90f760 device:0x4007d2600000 size:1821184 presentcount:0+3 line:616 name:var%igx(:,:)
host:0x4caccdf0 device:0x4007d2200000 size:1821184 presentcount:0+3 line:616 name:var%igy(:,:)
host:0x4cc8a690 device:0x4007d2800000 size:1821184 presentcount:0+3 line:616 name:var%igz(:,:)
host:0x4ce48560 device:0x4007d3200000 size:7284272 presentcount:0+4 line:519 name:var%fftsca(:,:)
host:0x4d572ff0 device:0x400894c00000 size:222720 presentcount:0+1 line:499 name:var%tbl(:)
host:0x4d5dfc50 device:0x400c721b9400 size:272160 presentcount:0+1 line:499 name:var%tbli(:)
host:0x4d6223a0 device:0x400c723b9400 size:272160 presentcount:0+1 line:499 name:var%tbl(:)
host:0x4d73a900 device:0x400894e00000 size:1807360 presentcount:0+1 line:499 name:var%tbl(:)
host:0x4dab04f0 device:0x400c72000000 size:1807200 presentcount:0+1 line:499 name:var%tbli(:)
host:0x4dc6b560 device:0x400c72200000 size:1807200 presentcount:0+1 line:499 name:var%tbl(:)
host:0x4de50030 device:0x4006b231a000 size:83968 presentcount:0+2 line:746 name:var%celtot(:,:,:)
host:0x4dfe1c70 device:0x400c72400000 size:1807200 presentcount:0+1 line:499 name:var%tbli(:)
host:0x4e4532d0 device:0x40057e3e4000 size:41984 presentcount:0+2 line:746 name:var%fertot(:,:,:)
host:0x4f272420 device:0x4007871f4000 size:41984 presentcount:0+1 line:746 name:var%auxtot(:,:,:)
host:0x5029a210 device:0x4007d2a00000 size:7200000 presentcount:0+1 line:195 name:dencor(:)
host:0x51064500 device:0x4007d1e00000 size:2799360 presentcount:0+2 line:194 name:cdij(:,:,:,:)
host:0x51313c20 device:0x400c72600000 size:2799360 presentcount:0+2 line:194 name:cqij(:,:,:,:)
host:0x518738d0 device:0x400895200000 size:4030464 presentcount:0+5 line:746 name:var%gproj(:,:,:,:)
host:0x51f022c0 device:0x4006b23ca800 size:98304 presentcount:0+1 line:1101 name:w1%gproj(:)
host:0x587e0750 device:0x400894d40a00 size:393216 presentcount:0+2 line:1226 name:wa%gproj(:,:)
host:0x58840780 device:0x400c638c0000 size:393216 presentcount:0+2 line:1226 name:wa%gproj(:,:)
host:0x588a70e0 device:0x400df5600000 size:3145728 presentcount:0+2 line:1226 name:wa%gproj(:,:)
host:0x5cae6ce0 device:0x4007d29fcc00 size:2048 presentcount:0+1 line:179 name:w1(:)
host:0x5cae7500 device:0x4007d27fa600 size:2048 presentcount:0+1 line:179 name:wtmp(:)
host:0x5caf2850 device:0x400cd1e00000 size:7284736 presentcount:0+1 line:1101 name:w1%cptwfp(:)
host:0x5d1e5080 device:0x4006b23b2800 size:98304 presentcount:0+1 line:1101 name:w1%gproj(:)
host:0x5d1fd0b0 device:0x400c725b9400 size:98304 presentcount:0+1 line:1101 name:w1%gproj(:)
host:0x5d2150e0 device:0x400c725d1400 size:98304 presentcount:0+1 line:1101 name:w1%gproj(:)
host:0x5d439bd0 device:0x400df6a00000 size:14569472 presentcount:0+1 line:202 name:precon(:,:)
host:0x5e225d70 device:0x400c6fa00000 size:7284736 presentcount:0+1 line:1101 name:w1%cptwfp(:)
host:0x5e91fd40 device:0x400df5a00000 size:7284736 presentcount:0+1 line:1101 name:w1%cptwfp(:)
host:0x5f01a340 device:0x400df6200000 size:7284736 presentcount:0+1 line:1101 name:w1%cptwfp(:)
host:0x40061c0010a0 device:0x4007d3a00000 size:45593280 presentcount:0+2 line:430 name:var%nli(:,:)
host:0x40061eb839e0 device:0x400c72a00000 size:14458880 presentcount:0+1 line:195 name:cstrf(:,:)
host:0x4006c00012b0 device:0x4007e0000000 size:807411968 presentcount:0+2 line:430 name:var%rproj(:)
host:0x4006f40e6320 device:0x400df1e00000 size:29138944 presentcount:0+2 line:1226 name:wa%cptwfp(:,:)
host:0x4007a00031a0 device:0x40084dc00000 size:230400000 presentcount:0+2 line:194 name:sv(:,:)
host:0x4007adbc4a60 device:0x4007c0000000 size:298674176 presentcount:0+5 line:746 name:var%cptwfp(:,:,:,:)
host:0x400832906530 device:0x400df3a00000 size:29138944 presentcount:0+2 line:1226 name:wa%cptwfp(:,:)
host:0x400860006740 device:0x400cc0000000 size:233111552 presentcount:0+2 line:1226 name:wa%cptwfp(:,:)
host:0x40086de66d70 device:0x4005c0000000 size:230400000 presentcount:0+1 line:1101 name:w1%cr(:)
host:0x400900006f80 device:0x400810400000 size:230400000 presentcount:0+1 line:1236 name:w1%cr(:)
host:0x40090dbd73a0 device:0x400880000000 size:230400000 presentcount:0+1 line:1101 name:w1%cr(:)
host:0x400b200075b0 device:0x400840000000 size:230400000 presentcount:0+1 line:1236 name:w1%cr(:)
host:0x400b2dbd79d0 device:0x400c40000000 size:230400000 presentcount:0+1 line:1101 name:w1%cr(:)
host:0x400c20007be0 device:0x400dd1e00000 size:230400000 presentcount:0+1 line:1236 name:w1%cr(:)
host:0x400c2dbd8000 device:0x400db1e00000 size:230400000 presentcount:0+1 line:1101 name:w1%cr(:)
host:0x400ca0008210 device:0x400d91e00000 size:230400000 presentcount:0+1 line:1236 name:w1%cr(:)
host:0xffffd9b5ed50 device:0x4007d27fb200 size:3024 presentcount:0+12 line:682 name:var
host:0xffffd9b5f920 device:0x4007271ff800 size:1480 presentcount:0+1 line:174 name:w_ini
host:0xffffd9b5fef0 device:0x4007d27f9c00 size:1480 presentcount:0+1 line:174 name:wopt
host:0xffffd9b604c0 device:0x4007671fbc00 size:1480 presentcount:0+1 line:174 name:wtmpa
allocated block device:0x40057e3e4000 size:41984 thread:1
allocated block device:0x40057e3ee400 size:4608 thread:1
allocated block device:0x40057e3ef600 size:512 thread:1
allocated block device:0x40057e3ef800 size:512 thread:1
allocated block device:0x40057e3efa00 size:512 thread:1
allocated block device:0x40057e3efc00 size:512 thread:1
allocated block device:0x40057e3efe00 size:512 thread:1
allocated block device:0x40057e3f0000 size:512 thread:1
allocated block device:0x40057e3f0200 size:512 thread:1
allocated block device:0x40057e3f0400 size:5120 thread:1
allocated block device:0x40057e3f1800 size:1536 thread:1
allocated block device:0x40057e3f1e00 size:1024 thread:1
allocated block device:0x40057e3f2200 size:1024 thread:1
allocated block device:0x40057e3f2600 size:1536 thread:1
allocated block device:0x40057e3f2c00 size:1024 thread:1
allocated block device:0x40057e3f3000 size:1024 thread:1
allocated block device:0x40057e3f3400 size:17408 thread:1
allocated block device:0x40057e3f7800 size:17408 thread:1
allocated block device:0x40057e3fbc00 size:2048 thread:1
allocated block device:0x40057e3fc400 size:512 thread:1
allocated block device:0x40057e3fc600 size:4608 thread:1
allocated block device:0x40057e3fd800 size:512 thread:1
allocated block device:0x40057e3fda00 size:4608 thread:1
allocated block device:0x40057e3fec00 size:3072 thread:1
allocated block device:0x40057e3ff800 size:512 thread:1
allocated block device:0x40057e3ffa00 size:512 thread:1
allocated block device:0x40057e3ffc00 size:512 thread:1
allocated block device:0x40057e3ffe00 size:512 thread:1
allocated block device:0x4005c0000000 size:230400000 thread:1
allocated block device:0x4006b231a000 size:83968 thread:1
allocated block device:0x4006b232e800 size:180224 thread:1
allocated block device:0x4006b235a800 size:180224 thread:1
allocated block device:0x4006b2386800 size:180224 thread:1
allocated block device:0x4006b23b2800 size:98304 thread:1
allocated block device:0x4006b23ca800 size:98304 thread:1
allocated block device:0x4007271ff800 size:1536 thread:1
allocated block device:0x4007471ffa00 size:1024 thread:1
allocated block device:0x4007671fbc00 size:2048 thread:1
allocated block device:0x4007671fc600 size:2560 thread:1
allocated block device:0x4007671fd000 size:512 thread:1
allocated block device:0x4007671fd200 size:4608 thread:1
allocated block device:0x4007671fe400 size:512 thread:1
allocated block device:0x4007671fe600 size:4608 thread:1
allocated block device:0x4007671ff800 size:512 thread:1
allocated block device:0x4007671ffa00 size:512 thread:1
allocated block device:0x4007671ffc00 size:512 thread:1
allocated block device:0x4007671ffe00 size:512 thread:1
allocated block device:0x4007871f4000 size:41984 thread:1
allocated block device:0x4007871fe400 size:5120 thread:1
allocated block device:0x4007871ff800 size:512 thread:1
allocated block device:0x4007871ffa00 size:512 thread:1
allocated block device:0x4007871ffc00 size:512 thread:1
allocated block device:0x4007871ffe00 size:512 thread:1
allocated block device:0x4007c0000000 size:298674176 thread:1
allocated block device:0x4007d1e00000 size:4030464 thread:1
allocated block device:0x4007d2200000 size:1821184 thread:1
allocated block device:0x4007d23bca00 size:180224 thread:1
allocated block device:0x4007d23e8a00 size:26112 thread:1
allocated block device:0x4007d23ef000 size:512 thread:1
allocated block device:0x4007d23ef200 size:4608 thread:1
allocated block device:0x4007d23f0400 size:4608 thread:1
allocated block device:0x4007d23f1600 size:4608 thread:1
allocated block device:0x4007d23f2800 size:512 thread:1
allocated block device:0x4007d23f2a00 size:24064 thread:1
allocated block device:0x4007d23f8800 size:512 thread:1
allocated block device:0x4007d23f8a00 size:512 thread:1
allocated block device:0x4007d23f8c00 size:24064 thread:1
allocated block device:0x4007d23fea00 size:512 thread:1
allocated block device:0x4007d23fec00 size:512 thread:1
allocated block device:0x4007d23fee00 size:3072 thread:1
allocated block device:0x4007d23ffa00 size:512 thread:1
allocated block device:0x4007d23ffc00 size:1024 thread:1
allocated block device:0x4007d2400000 size:1821184 thread:1
allocated block device:0x4007d25bca00 size:180224 thread:1
allocated block device:0x4007d25e8a00 size:3072 thread:1
allocated block device:0x4007d25e9600 size:5120 thread:1
allocated block device:0x4007d25eaa00 size:1536 thread:1
allocated block device:0x4007d25eb000 size:2560 thread:1
allocated block device:0x4007d25eba00 size:1536 thread:1
allocated block device:0x4007d25ec000 size:2048 thread:1
allocated block device:0x4007d25ec800 size:7680 thread:1
allocated block device:0x4007d25ee600 size:7680 thread:1
allocated block device:0x4007d25f0400 size:3072 thread:1
allocated block device:0x4007d25f1000 size:3072 thread:1
allocated block device:0x4007d25f1c00 size:5120 thread:1
allocated block device:0x4007d25f3000 size:5120 thread:1
allocated block device:0x4007d25f4400 size:1024 thread:1
allocated block device:0x4007d25f4800 size:1024 thread:1
allocated block device:0x4007d25f4c00 size:1024 thread:1
allocated block device:0x4007d25f5000 size:1024 thread:1
allocated block device:0x4007d25f5400 size:1024 thread:1
allocated block device:0x4007d25f5800 size:1024 thread:1
allocated block device:0x4007d25f5c00 size:1024 thread:1
allocated block device:0x4007d25f6000 size:5120 thread:1
allocated block device:0x4007d25f7400 size:1536 thread:1
allocated block device:0x4007d25f7a00 size:1024 thread:1
allocated block device:0x4007d25f7e00 size:1024 thread:1
allocated block device:0x4007d25f8200 size:1536 thread:1
allocated block device:0x4007d25f8800 size:1024 thread:1
allocated block device:0x4007d25f8c00 size:1024 thread:1
allocated block device:0x4007d25f9000 size:1024 thread:1
allocated block device:0x4007d25f9400 size:3072 thread:1
allocated block device:0x4007d25fa000 size:3072 thread:1
allocated block device:0x4007d25fac00 size:1536 thread:1
allocated block device:0x4007d25fb200 size:1536 thread:1
allocated block device:0x4007d25fb800 size:1024 thread:1
allocated block device:0x4007d25fbc00 size:1024 thread:1
allocated block device:0x4007d25fc000 size:1024 thread:1
allocated block device:0x4007d25fc400 size:1024 thread:1
allocated block device:0x4007d25fc800 size:1024 thread:1
allocated block device:0x4007d25fcc00 size:1024 thread:1
allocated block device:0x4007d25fd000 size:1024 thread:1
allocated block device:0x4007d25fd400 size:1024 thread:1
allocated block device:0x4007d25fd800 size:1536 thread:1
allocated block device:0x4007d25fde00 size:1024 thread:1
allocated block device:0x4007d25fe200 size:512 thread:1
allocated block device:0x4007d25fe400 size:2560 thread:1
allocated block device:0x4007d25fee00 size:3072 thread:1
allocated block device:0x4007d2600000 size:1821184 thread:1
allocated block device:0x4007d27bca00 size:180224 thread:1
allocated block device:0x4007d27e8a00 size:28672 thread:1
allocated block device:0x4007d27efa00 size:40448 thread:1
allocated block device:0x4007d27f9c00 size:2560 thread:1
allocated block device:0x4007d27fa600 size:3072 thread:1
allocated block device:0x4007d27fb200 size:3072 thread:1
allocated block device:0x4007d2800000 size:1821184 thread:1
allocated block device:0x4007d29bca00 size:180224 thread:1
allocated block device:0x4007d29e8a00 size:40448 thread:1
allocated block device:0x4007d29fcc00 size:2048 thread:1
allocated block device:0x4007d2a00000 size:7284736 thread:1
allocated block device:0x4007d3200000 size:7284736 thread:1
allocated block device:0x4007d3a00000 size:45593600 thread:1
allocated block device:0x4007e0000000 size:807412224 thread:1
allocated block device:0x400810400000 size:230400000 thread:1
allocated block device:0x400840000000 size:230400000 thread:1
allocated block device:0x40084dc00000 size:230400000 thread:1
allocated block device:0x400880000000 size:230400000 thread:1
allocated block device:0x400894c00000 size:391680 thread:1
allocated block device:0x400894c5fa00 size:921600 thread:1
allocated block device:0x400894d40a00 size:393216 thread:1
allocated block device:0x400894e00000 size:2799616 thread:1
allocated block device:0x400895200000 size:4030464 thread:1
allocated block device:0x400895600000 size:7284736 thread:1
allocated block device:0x400c40000000 size:298674176 thread:1
allocated block device:0x400c638c0000 size:393216 thread:1
allocated block device:0x400c6fa00000 size:7284736 thread:1
allocated block device:0x400c72000000 size:1807360 thread:1
allocated block device:0x400c721b9400 size:272384 thread:1
allocated block device:0x400c721fbc00 size:8192 thread:1
allocated block device:0x400c721fdc00 size:8192 thread:1
allocated block device:0x400c721ffc00 size:512 thread:1
allocated block device:0x400c72200000 size:1807360 thread:1
allocated block device:0x400c723b9400 size:272384 thread:1
allocated block device:0x400c723fbc00 size:8192 thread:1
allocated block device:0x400c72400000 size:1807360 thread:1
allocated block device:0x400c725b9400 size:98304 thread:1
allocated block device:0x400c725d1400 size:98304 thread:1
allocated block device:0x400c72600000 size:2799616 thread:1
allocated block device:0x400c72a00000 size:14458880 thread:1
allocated block device:0x400cc0000000 size:298674176 thread:1
allocated block device:0x400cd1e00000 size:7284736 thread:1
allocated block device:0x400d91e00000 size:230400000 thread:1
allocated block device:0x400db1e00000 size:230400000 thread:1
allocated block device:0x400dd1e00000 size:230400000 thread:1
allocated block device:0x400df1e00000 size:29138944 thread:1
allocated block device:0x400df3a00000 size:29138944 thread:1
allocated block device:0x400df5600000 size:3145728 thread:1
allocated block device:0x400df5a00000 size:7284736 thread:1
allocated block device:0x400df6200000 size:7284736 thread:1
allocated block device:0x400df6a00000 size:14569472 thread:1
Accelerator Fatal Error: call to cuMemAlloc returned error 2 (CUDA_ERROR_OUT_OF_MEMORY): Out of memory
 File: /lus/lfs1aip2/projects/u6cb/software/VASP/vasp.6.5.1/build/gam/hamil.f90
 Function: hamiltmu:978
 Line: 1005

Out of memory allocating 921600000 bytes of device memory
Failing in Thread:1
total/free CUDA memory: 102005473280/314769408
Present table dump for device[1]: NVIDIA Tesla GPU 0, compute capability 9.0, threadid=1
Hint: specify 0x800 bit in NV_ACC_DEBUG for verbose info.
host:0x2557280 device:0x40057e5fd800 size:32 presentcount:0+3 line:643 name:var%comm
host:0x25572a0 device:0x40057e5ef600 size:32 presentcount:0+4 line:652 name:var%comm_kinter
host:0x25572c0 device:0x40057e5ef800 size:32 presentcount:0+6 line:655 name:var%comm_kin
host:0x25572e0 device:0x40075c1ffa00 size:32 presentcount:0+3 line:646 name:var%comm_inter
host:0x2557300 device:0x40075c1ffc00 size:32 presentcount:0+7 line:649 name:var%comm_inb
host:0x256be80 device:0x40057a0ecd00 size:8 presentcount:0+1 line:-1 name:_setexm_struct_def_21
host:0x2576f40 device:0x40057a0ece00 size:28 presentcount:0+1 line:-1 name:_ml_ff_constant_21
host:0x2577c80 device:0x40057a0ecf00 size:30437 presentcount:0+1 line:-1 name:_ml_ff_taglist_21
host:0x25afc80 device:0x40057a0f4600 size:8 presentcount:0+1 line:-1 name:_mopenacc_tutor_21
host:0x25c2740 device:0x40057a0f4a00 size:32 presentcount:0+1 line:-1 name:_mbj_21
host:0x25cd640 device:0x40057a0f4d00 size:8 presentcount:0+1 line:-1 name:_sym_prec_21
host:0x26030c0 device:0x40057a0f4e00 size:344 presentcount:0+1 line:-1 name:_tet_21
host:0x261c840 device:0x40057a0f5000 size:392 presentcount:0+1 line:-1 name:_mymath_21
host:0x2817368 device:0x40057e5f0400 size:4800 presentcount:0+2 line:614 name:var
host:0x2818628 device:0x40057e5fbc00 size:1984 presentcount:0+2 line:403 name:var
host:0x281a910 device:0x40073c3ffa00 size:864 presentcount:0+4 line:2639 name:hamiltonian
host:0x286ac80 device:0x40057e5fec00 size:2712 presentcount:0+2 line:428 name:var
host:0x286b718 device:0x40075c1fc600 size:2248 presentcount:0+1 line:742 name:var
host:0x286eb50 device:0x400c521ffc00 size:288 presentcount:0+1 line:195 name:latt_cur
host:0x2871658 device:0x40077c3fe400 size:5088 presentcount:0+28 line:517 name:var
host:0x2872a38 device:0x4007d25f6000 size:5088 presentcount:0+6 line:517 name:var
host:0x2873e18 device:0x4007d25e9600 size:5088 presentcount:0+7 line:517 name:var
host:0x287a2a8 device:0x40075c1ff800 size:304 presentcount:0+1 line:567 name:var
host:0x287a3d8 device:0x4007d25fe200 size:304 presentcount:0+1 line:567 name:var
host:0x2e48ec0 device:0x40057a002600 size:960024 presentcount:0+1 line:-1 name:_setexm_struct_def_16
host:0x2f8f080 device:0x40057a0f4700 size:580 presentcount:0+1 line:-1 name:_wpbe_16
host:0x2f8f900 device:0x40057a0f4b00 size:288 presentcount:0+1 line:-1 name:_mbj_16
host:0x9f446c0 device:0x40057a0f5200 size:624 presentcount:0+1 line:-1 name:_mlr_optic_16
host:0x2463caa0 device:0x4007d25f9000 size:528 presentcount:0+1 line:480 name:var
host:0x2888d630 device:0x40075c1ffe00 size:8 presentcount:0+4 line:405 name:var%nityp(:)
host:0x28d8be40 device:0x40057e5f2200 size:1000 presentcount:0+4 line:519 name:var%lpctz(:)
host:0x2920ef40 device:0x4007d27e8a00 size:28464 presentcount:0+1 line:853 name:var(:)
host:0x292216c0 device:0x4007d29e8a00 size:40000 presentcount:0+1 line:857 name:var%psp(:,:)
host:0x2922b330 device:0x400c523fbc00 size:8000 presentcount:0+1 line:857 name:var%psprho(:)
host:0x2922e5c0 device:0x4007d23f8c00 size:24000 presentcount:0+2 line:466 name:var%psprnl(:,:,:)
host:0x2925dfa0 device:0x4007d23f0400 size:4320 presentcount:0+4 line:405 name:var%ityp(:)
host:0x2925f0b0 device:0x4007d23e8a00 size:25920 presentcount:0+4 line:405 name:var%posion(:,:)
host:0x292a2410 device:0x4007d27efa00 size:40000 presentcount:0+1 line:857 name:var%psp(:,:)
host:0x292ac080 device:0x400c521fbc00 size:8000 presentcount:0+1 line:857 name:var%pspcor(:)
host:0x292adff0 device:0x400c521fdc00 size:8000 presentcount:0+1 line:857 name:var%psprho(:)
host:0x292b1280 device:0x4007d23f2a00 size:24000 presentcount:0+2 line:466 name:var%psprnl(:,:,:)
host:0x292fe240 device:0x40077c3ffc00 size:24 presentcount:0+3 line:466 name:var%lps(:)
host:0x292fe2f0 device:0x40075c1fd000 size:24 presentcount:0+3 line:466 name:var%lps(:)
host:0x293f2d80 device:0x40057e5ffe00 size:24 presentcount:0+3 line:616 name:var%vkpt(:,:)
host:0x29417f30 device:0x4007d23ef000 size:8 presentcount:0+2 line:616 name:var%wtkpt(:)
host:0x29417f60 device:0x40057e5ffa00 size:8 presentcount:0+3 line:616 name:var%nityp(:)
host:0x29418070 device:0x40057e5f0200 size:16 presentcount:0+2 line:430 name:var%psrmax(:)
host:0x29418630 device:0x4007d23ef200 size:4320 presentcount:0+3 line:616 name:var%ityp(:)
host:0x29419740 device:0x40057e5ff800 size:8 presentcount:0+3 line:616 name:var%lmmax(:)
host:0x29419770 device:0x40057e5ffc00 size:8 presentcount:0+3 line:616 name:var%nt_global(:)
host:0x294197a0 device:0x40057e5fda00 size:4320 presentcount:0+3 line:616 name:var%npro_pos(:)
host:0x2941a8b0 device:0x40057e5fc600 size:4324 presentcount:0+3 line:616 name:var%lmbase(:)
host:0x2941b9c0 device:0x4007d23f8800 size:4 presentcount:0+2 line:616 name:var%nplwkp(:)
host:0x2941b9f0 device:0x4007d23f8a00 size:4 presentcount:0+2 line:616 name:var%nplwkp_tot(:)
host:0x2941ba20 device:0x4007d23fea00 size:4 presentcount:0+2 line:616 name:var%ngvector_pos(:)
host:0x2941ba50 device:0x4007d23f2800 size:4 presentcount:0+2 line:616 name:var%ngvector(:)
host:0x2941ba80 device:0x40057e5f1800 size:1280 presentcount:0+4 line:519 name:var%lpctx(:)
host:0x2941bfb0 device:0x40057e5f1e00 size:720 presentcount:0+4 line:519 name:var%lpcty(:)
host:0x2941c2b0 device:0x40057e5f2600 size:1280 presentcount:0+4 line:519 name:var%lpctx_(:)
host:0x2941c7e0 device:0x40057e5f2c00 size:720 presentcount:0+4 line:519 name:var%lpcty_(:)
host:0x2941cae0 device:0x40057e5f3000 size:1000 presentcount:0+4 line:519 name:var%lpctz_(:)
host:0x2941cef0 device:0x4007d25f7400 size:1280 presentcount:0+1 line:519 name:var%lpctx(:)
host:0x2941d420 device:0x4007d25f7a00 size:720 presentcount:0+1 line:519 name:var%lpcty(:)
host:0x2941d720 device:0x4007d25f7e00 size:1000 presentcount:0+1 line:519 name:var%lpctz(:)
host:0x2941db30 device:0x4007d25f8200 size:1280 presentcount:0+1 line:519 name:var%lpctx_(:)
host:0x2941e060 device:0x4007d25f8800 size:720 presentcount:0+1 line:519 name:var%lpcty_(:)
host:0x2941e360 device:0x4007d25f8c00 size:1000 presentcount:0+1 line:519 name:var%lpctz_(:)
host:0x2941e770 device:0x4007d23fee00 size:2560 presentcount:0+1 line:519 name:var%lpctx(:)
host:0x2941f1a0 device:0x4007d25eaa00 size:1440 presentcount:0+1 line:519 name:var%lpcty(:)
host:0x2941f770 device:0x4007d25e8a00 size:2000 presentcount:0+1 line:519 name:var%lpctz(:)
host:0x2941ff70 device:0x4007d25eb000 size:2560 presentcount:0+1 line:519 name:var%lpctx_(:)
host:0x294209a0 device:0x4007d25eba00 size:1440 presentcount:0+1 line:519 name:var%lpcty_(:)
host:0x29420f70 device:0x4007d25ec000 size:2000 presentcount:0+1 line:519 name:var%lpctz_(:)
host:0x2950d050 device:0x4007d25f0400 size:2824 presentcount:0+1 line:482 name:var%i2(:)
host:0x2950db80 device:0x4007d25f1000 size:2824 presentcount:0+1 line:482 name:var%i3(:)
host:0x2950e6b0 device:0x4007d25f1c00 size:5020 presentcount:0+1 line:482 name:var%i2(:)
host:0x2950fa80 device:0x4007d25f3000 size:5020 presentcount:0+1 line:482 name:var%i3(:)
host:0x29510e50 device:0x4007d25ec800 size:7200 presentcount:0+2 line:482 name:var%i2(:)
host:0x29512aa0 device:0x4007d25ee600 size:7200 presentcount:0+2 line:482 name:var%i3(:)
host:0x29514b10 device:0x400874c5fa00 size:921600 presentcount:0+2 line:482 name:var%index(:,:)
host:0x295f5b40 device:0x4007d25fe400 size:2560 presentcount:0+1 line:569 name:var%ind1(:)
host:0x295f6570 device:0x4007d25fee00 size:2824 presentcount:0+1 line:569 name:var%indcol(:)
host:0x295f70a0 device:0x4007d25f9400 size:2824 presentcount:0+1 line:482 name:var%i2(:)
host:0x295f7bd0 device:0x4007d25fa000 size:2824 presentcount:0+1 line:482 name:var%i3(:)
host:0x295f8700 device:0x4007d25fac00 size:1512 presentcount:0+1 line:482 name:var%i2(:)
host:0x295f8d10 device:0x4007d25fb200 size:1512 presentcount:0+1 line:482 name:var%i3(:)
host:0x295f9320 device:0x40075c1fd200 size:4320 presentcount:0+2 line:430 name:var%nlimax(:)
host:0x295fa430 device:0x40075c1fe600 size:4324 presentcount:0+2 line:430 name:var%lmbase(:)
host:0x295fb540 device:0x40057e5ee400 size:4324 presentcount:0+2 line:430 name:var%nlibase(:)
host:0x295fc650 device:0x40057e5f3400 size:17132 presentcount:0+4 line:519 name:var%nindpwconjg(:)
host:0x29600970 device:0x40057e5f7800 size:17132 presentcount:0+4 line:519 name:var%ind_in_sphere(:)
host:0x29632890 device:0x4007d25fd800 size:1280 presentcount:0+1 line:569 name:var%ind1(:)
host:0x29632dc0 device:0x4007d25fde00 size:700 presentcount:0+1 line:569 name:var%indcol(:)
host:0x296330b0 device:0x4006b032e800 size:180000 presentcount:0+4 line:482 name:var%i2(:)
host:0x2965f000 device:0x4006b035a800 size:180000 presentcount:0+4 line:482 name:var%i3(:)
host:0x2968af50 device:0x4007d23bca00 size:180000 presentcount:0+8 line:482 name:var%index(:,:)
host:0x296b6ea0 device:0x4007d29bca00 size:180000 presentcount:0+8 line:482 name:var%i2(:)
host:0x296e2df0 device:0x4006b0386800 size:180000 presentcount:0+8 line:482 name:var%i3(:)
host:0x2970f370 device:0x4007d2400000 size:1821184 presentcount:0+3 line:616 name:var%nindpw(:,:)
host:0x298cbda0 device:0x40057e5fc400 size:8 presentcount:0+2 line:616 name:var%nb_totk(:,:)
host:0x298cbdd0 device:0x4007d23fec00 size:4 presentcount:0+2 line:616 name:var%luseinv(:)
host:0x298cbe00 device:0x40057e5efe00 size:4 presentcount:0+2 line:616 name:var%at_gamma(:)
host:0x298cbe30 device:0x4007d25bca00 size:180000 presentcount:0+3 line:616 name:var%pl_index(:,:)
host:0x298f7d80 device:0x4007d27bca00 size:180000 presentcount:0+3 line:616 name:var%pl_col(:,:)
host:0x29923cd0 device:0x4007d23ffa00 size:8 presentcount:0+2 line:405 name:var%lmmax(:)
host:0x29923d00 device:0x40057e5efa00 size:8 presentcount:0+2 line:430 name:var%lmax(:)
host:0x29923d30 device:0x4007d23f1600 size:4324 presentcount:0+2 line:405 name:var%lmbase(:)
host:0x29924e40 device:0x40057e5efc00 size:8 presentcount:0+2 line:430 name:var%lmmax(:)
host:0x29924e70 device:0x40057e5f0000 size:8 presentcount:0+2 line:430 name:var%channels(:)
host:0x29924ea0 device:0x40077c3ff800 size:16 presentcount:0+2 line:430 name:var%rsmooth(:)
host:0x29924ee0 device:0x40077c3ffa00 size:400 presentcount:0+2 line:464 name:var
host:0x29925070 device:0x40077c3ffe00 size:400 presentcount:0+2 line:464 name:var
host:0x29995a90 device:0x4007d25fbc00 size:516 presentcount:0+1 line:499 name:var%ptr(:)
host:0x29995cc0 device:0x4007d25fb800 size:516 presentcount:0+1 line:499 name:var%n(:)
host:0x29995ef0 device:0x4007d25fc400 size:516 presentcount:0+1 line:499 name:var%ptri(:)
host:0x29996120 device:0x4007d25fc000 size:516 presentcount:0+1 line:499 name:var%ni(:)
host:0x29996350 device:0x4007d25fcc00 size:516 presentcount:0+1 line:499 name:var%ptr(:)
host:0x29996580 device:0x4007d25fc800 size:516 presentcount:0+1 line:499 name:var%n(:)
host:0x299967b0 device:0x40075c1fe400 size:4 presentcount:0+1 line:499 name:var%tbli(:)
host:0x299967e0 device:0x4007d25fd400 size:516 presentcount:0+1 line:499 name:var%ptri(:)
host:0x29996a10 device:0x4007d25fd000 size:516 presentcount:0+1 line:499 name:var%ni(:)
host:0x299b02c0 device:0x4007d25f4400 size:516 presentcount:0+1 line:499 name:var%ptr(:)
host:0x299b04f0 device:0x4007d23ffc00 size:516 presentcount:0+1 line:499 name:var%n(:)
host:0x299b0720 device:0x4007d25f4c00 size:516 presentcount:0+1 line:499 name:var%ptri(:)
host:0x299b0950 device:0x4007d25f4800 size:516 presentcount:0+1 line:499 name:var%ni(:)
host:0x299b0b80 device:0x4007d25f5400 size:516 presentcount:0+1 line:499 name:var%ptr(:)
host:0x299b0db0 device:0x4007d25f5000 size:516 presentcount:0+1 line:499 name:var%n(:)
host:0x299b0fe0 device:0x4007d25f5c00 size:516 presentcount:0+1 line:499 name:var%ptri(:)
host:0x299b1210 device:0x4007d25f5800 size:516 presentcount:0+1 line:499 name:var%ni(:)
host:0x29af98e0 device:0x400875600000 size:7284736 presentcount:0+3 line:616 name:var%datake(:,:,:)
host:0x2a1ecb60 device:0x4007d2600000 size:1821184 presentcount:0+3 line:616 name:var%igx(:,:)
host:0x2a3aa1f0 device:0x4007d2200000 size:1821184 presentcount:0+3 line:616 name:var%igy(:,:)
host:0x2a567a90 device:0x4007d2800000 size:1821184 presentcount:0+3 line:616 name:var%igz(:,:)
host:0x2a725960 device:0x4007d3200000 size:7284272 presentcount:0+4 line:519 name:var%fftsca(:,:)
host:0x2ae17fc0 device:0x400874c00000 size:224000 presentcount:0+1 line:499 name:var%tbl(:)
host:0x2ae85620 device:0x400c521b9400 size:272160 presentcount:0+1 line:499 name:var%tbli(:)
host:0x2aec7d70 device:0x400c523b9400 size:272160 presentcount:0+1 line:499 name:var%tbl(:)
host:0x2afe02d0 device:0x400874e00000 size:1807360 presentcount:0+1 line:499 name:var%tbl(:)
host:0x2b355ec0 device:0x400c52000000 size:1807200 presentcount:0+1 line:499 name:var%tbli(:)
host:0x2b510f30 device:0x400c52200000 size:1807200 presentcount:0+1 line:499 name:var%tbl(:)
host:0x2b887640 device:0x400c52400000 size:1807200 presentcount:0+1 line:499 name:var%tbli(:)
host:0x2c4b2420 device:0x40077c3f4000 size:41984 presentcount:0+1 line:746 name:var%auxtot(:,:,:)
host:0x2c4d2420 device:0x40057e5e4000 size:41984 presentcount:0+2 line:746 name:var%fertot(:,:,:)
host:0x2c4e0030 device:0x4006b031a000 size:83968 presentcount:0+2 line:746 name:var%celtot(:,:,:)
host:0x2d4ec500 device:0x4007d2a00000 size:7200000 presentcount:0+1 line:195 name:dencor(:)
host:0x2e2b67f0 device:0x4007d1e00000 size:2799360 presentcount:0+2 line:194 name:cdij(:,:,:,:)
host:0x2e565f10 device:0x400c52600000 size:2799360 presentcount:0+2 line:194 name:cqij(:,:,:,:)
host:0x2eac5bc0 device:0x400875200000 size:4030464 presentcount:0+5 line:746 name:var%gproj(:,:,:,:)
host:0x2f1464c0 device:0x4007d29fcc00 size:2048 presentcount:0+1 line:179 name:w1(:)
host:0x2f146ce0 device:0x4007d27fa600 size:2048 presentcount:0+1 line:179 name:wtmp(:)
host:0x2f153200 device:0x4006b03b2800 size:98304 presentcount:0+1 line:1101 name:w1%gproj(:)
host:0x360693a0 device:0x400874d40a00 size:393216 presentcount:0+2 line:1226 name:wa%gproj(:,:)
host:0x360c93d0 device:0x400c430c0000 size:393216 presentcount:0+2 line:1226 name:wa%gproj(:,:)
host:0x36130780 device:0x400e15600000 size:3145728 presentcount:0+2 line:1226 name:wa%gproj(:,:)
host:0x3a347ad0 device:0x4006b03ca800 size:98304 presentcount:0+1 line:1101 name:w1%gproj(:)
host:0x3a37e5b0 device:0x400cd1e00000 size:7284736 presentcount:0+1 line:1101 name:w1%cptwfp(:)
host:0x3aa70de0 device:0x400c525b9400 size:98304 presentcount:0+1 line:1101 name:w1%gproj(:)
host:0x3aa88e10 device:0x400c525d1400 size:98304 presentcount:0+1 line:1101 name:w1%gproj(:)
host:0x3acc7680 device:0x400e16a00000 size:14569472 presentcount:0+1 line:202 name:precon(:,:)
host:0x3bab4270 device:0x400c4f200000 size:7284736 presentcount:0+1 line:1101 name:w1%cptwfp(:)
host:0x3c1aec90 device:0x400e15a00000 size:7284736 presentcount:0+1 line:1101 name:w1%cptwfp(:)
host:0x3c8a16d0 device:0x400e16200000 size:7284736 presentcount:0+1 line:1101 name:w1%cptwfp(:)
host:0x4006080010a0 device:0x4007d3a00000 size:45593280 presentcount:0+2 line:430 name:var%nli(:,:)
host:0x40060ce931a0 device:0x40082dc00000 size:230400000 presentcount:0+2 line:194 name:sv(:,:)
host:0x40061aa539e0 device:0x400c52a00000 size:14458880 presentcount:0+1 line:195 name:cstrf(:,:)
host:0x4006c00012b0 device:0x4007e0000000 size:807411968 presentcount:0+2 line:430 name:var%rproj(:)
host:0x4006f0216d70 device:0x400e11e00000 size:29138944 presentcount:0+2 line:1226 name:wa%cptwfp(:,:)
host:0x4006f1df6f80 device:0x400e13a00000 size:29138944 presentcount:0+2 line:1226 name:wa%cptwfp(:,:)
host:0x4007a0004a60 device:0x4007c0000000 size:298674176 presentcount:0+5 line:746 name:var%cptwfp(:,:,:,:)
host:0x400851ce7190 device:0x400cc0000000 size:233111552 presentcount:0+2 line:1226 name:wa%cptwfp(:,:)
host:0x4009000077c0 device:0x4005cdc00000 size:230400000 presentcount:0+1 line:1101 name:w1%cr(:)
host:0x40090dbd79d0 device:0x400810400000 size:230400000 presentcount:0+1 line:1236 name:w1%cr(:)
host:0x400a20007df0 device:0x400860000000 size:230400000 presentcount:0+1 line:1101 name:w1%cr(:)
host:0x400a2dbd8000 device:0x400820000000 size:230400000 presentcount:0+1 line:1236 name:w1%cr(:)
host:0x400b80008420 device:0x400c20000000 size:230400000 presentcount:0+1 line:1101 name:w1%cr(:)
host:0x400b8dbd0020 device:0x400df1e00000 size:230400000 presentcount:0+1 line:1236 name:w1%cr(:)
host:0x400c00000440 device:0x400dd1e00000 size:230400000 presentcount:0+1 line:1101 name:w1%cr(:)
host:0x400c0dbc0650 device:0x400db1e00000 size:230400000 presentcount:0+1 line:1236 name:w1%cr(:)
host:0xffffd52be140 device:0x4007d27fb200 size:3024 presentcount:0+12 line:682 name:var
host:0xffffd52bed10 device:0x40071c3ff800 size:1480 presentcount:0+1 line:174 name:w_ini
host:0xffffd52bf2e0 device:0x4007d27f9c00 size:1480 presentcount:0+1 line:174 name:wopt
host:0xffffd52bf8b0 device:0x40075c1fbc00 size:1480 presentcount:0+1 line:174 name:wtmpa
allocated block device:0x40057e5e4000 size:41984 thread:1
allocated block device:0x40057e5ee400 size:4608 thread:1
allocated block device:0x40057e5ef600 size:512 thread:1
allocated block device:0x40057e5ef800 size:512 thread:1
allocated block device:0x40057e5efa00 size:512 thread:1
allocated block device:0x40057e5efc00 size:512 thread:1
allocated block device:0x40057e5efe00 size:512 thread:1
allocated block device:0x40057e5f0000 size:512 thread:1
allocated block device:0x40057e5f0200 size:512 thread:1
allocated block device:0x40057e5f0400 size:5120 thread:1
allocated block device:0x40057e5f1800 size:1536 thread:1
allocated block device:0x40057e5f1e00 size:1024 thread:1
allocated block device:0x40057e5f2200 size:1024 thread:1
allocated block device:0x40057e5f2600 size:1536 thread:1
allocated block device:0x40057e5f2c00 size:1024 thread:1
allocated block device:0x40057e5f3000 size:1024 thread:1
allocated block device:0x40057e5f3400 size:17408 thread:1
allocated block device:0x40057e5f7800 size:17408 thread:1
allocated block device:0x40057e5fbc00 size:2048 thread:1
allocated block device:0x40057e5fc400 size:512 thread:1
allocated block device:0x40057e5fc600 size:4608 thread:1
allocated block device:0x40057e5fd800 size:512 thread:1
allocated block device:0x40057e5fda00 size:4608 thread:1
allocated block device:0x40057e5fec00 size:3072 thread:1
allocated block device:0x40057e5ff800 size:512 thread:1
allocated block device:0x40057e5ffa00 size:512 thread:1
allocated block device:0x40057e5ffc00 size:512 thread:1
allocated block device:0x40057e5ffe00 size:512 thread:1
allocated block device:0x4005cdc00000 size:230400000 thread:1
allocated block device:0x4006b031a000 size:83968 thread:1
allocated block device:0x4006b032e800 size:180224 thread:1
allocated block device:0x4006b035a800 size:180224 thread:1
allocated block device:0x4006b0386800 size:180224 thread:1
allocated block device:0x4006b03b2800 size:98304 thread:1
allocated block device:0x4006b03ca800 size:98304 thread:1
allocated block device:0x40071c3ff800 size:1536 thread:1
allocated block device:0x40073c3ffa00 size:1024 thread:1
allocated block device:0x40075c1fbc00 size:2048 thread:1
allocated block device:0x40075c1fc600 size:2560 thread:1
allocated block device:0x40075c1fd000 size:512 thread:1
allocated block device:0x40075c1fd200 size:4608 thread:1
allocated block device:0x40075c1fe400 size:512 thread:1
allocated block device:0x40075c1fe600 size:4608 thread:1
allocated block device:0x40075c1ff800 size:512 thread:1
allocated block device:0x40075c1ffa00 size:512 thread:1
allocated block device:0x40075c1ffc00 size:512 thread:1
allocated block device:0x40075c1ffe00 size:512 thread:1
allocated block device:0x40077c3f4000 size:41984 thread:1
allocated block device:0x40077c3fe400 size:5120 thread:1
allocated block device:0x40077c3ff800 size:512 thread:1
allocated block device:0x40077c3ffa00 size:512 thread:1
allocated block device:0x40077c3ffc00 size:512 thread:1
allocated block device:0x40077c3ffe00 size:512 thread:1
allocated block device:0x4007c0000000 size:298674176 thread:1
allocated block device:0x4007d1e00000 size:4030464 thread:1
allocated block device:0x4007d2200000 size:1821184 thread:1
allocated block device:0x4007d23bca00 size:180224 thread:1
allocated block device:0x4007d23e8a00 size:26112 thread:1
allocated block device:0x4007d23ef000 size:512 thread:1
allocated block device:0x4007d23ef200 size:4608 thread:1
allocated block device:0x4007d23f0400 size:4608 thread:1
allocated block device:0x4007d23f1600 size:4608 thread:1
allocated block device:0x4007d23f2800 size:512 thread:1
allocated block device:0x4007d23f2a00 size:24064 thread:1
allocated block device:0x4007d23f8800 size:512 thread:1
allocated block device:0x4007d23f8a00 size:512 thread:1
allocated block device:0x4007d23f8c00 size:24064 thread:1
allocated block device:0x4007d23fea00 size:512 thread:1
allocated block device:0x4007d23fec00 size:512 thread:1
allocated block device:0x4007d23fee00 size:3072 thread:1
allocated block device:0x4007d23ffa00 size:512 thread:1
allocated block device:0x4007d23ffc00 size:1024 thread:1
allocated block device:0x4007d2400000 size:1821184 thread:1
allocated block device:0x4007d25bca00 size:180224 thread:1
allocated block device:0x4007d25e8a00 size:3072 thread:1
allocated block device:0x4007d25e9600 size:5120 thread:1
allocated block device:0x4007d25eaa00 size:1536 thread:1
allocated block device:0x4007d25eb000 size:2560 thread:1
allocated block device:0x4007d25eba00 size:1536 thread:1
allocated block device:0x4007d25ec000 size:2048 thread:1
allocated block device:0x4007d25ec800 size:7680 thread:1
allocated block device:0x4007d25ee600 size:7680 thread:1
allocated block device:0x4007d25f0400 size:3072 thread:1
allocated block device:0x4007d25f1000 size:3072 thread:1
allocated block device:0x4007d25f1c00 size:5120 thread:1
allocated block device:0x4007d25f3000 size:5120 thread:1
allocated block device:0x4007d25f4400 size:1024 thread:1
allocated block device:0x4007d25f4800 size:1024 thread:1
allocated block device:0x4007d25f4c00 size:1024 thread:1
allocated block device:0x4007d25f5000 size:1024 thread:1
allocated block device:0x4007d25f5400 size:1024 thread:1
allocated block device:0x4007d25f5800 size:1024 thread:1
allocated block device:0x4007d25f5c00 size:1024 thread:1
allocated block device:0x4007d25f6000 size:5120 thread:1
allocated block device:0x4007d25f7400 size:1536 thread:1
allocated block device:0x4007d25f7a00 size:1024 thread:1
allocated block device:0x4007d25f7e00 size:1024 thread:1
allocated block device:0x4007d25f8200 size:1536 thread:1
allocated block device:0x4007d25f8800 size:1024 thread:1
allocated block device:0x4007d25f8c00 size:1024 thread:1
allocated block device:0x4007d25f9000 size:1024 thread:1
allocated block device:0x4007d25f9400 size:3072 thread:1
allocated block device:0x4007d25fa000 size:3072 thread:1
allocated block device:0x4007d25fac00 size:1536 thread:1
allocated block device:0x4007d25fb200 size:1536 thread:1
allocated block device:0x4007d25fb800 size:1024 thread:1
allocated block device:0x4007d25fbc00 size:1024 thread:1
allocated block device:0x4007d25fc000 size:1024 thread:1
allocated block device:0x4007d25fc400 size:1024 thread:1
allocated block device:0x4007d25fc800 size:1024 thread:1
allocated block device:0x4007d25fcc00 size:1024 thread:1
allocated block device:0x4007d25fd000 size:1024 thread:1
allocated block device:0x4007d25fd400 size:1024 thread:1
allocated block device:0x4007d25fd800 size:1536 thread:1
allocated block device:0x4007d25fde00 size:1024 thread:1
allocated block device:0x4007d25fe200 size:512 thread:1
allocated block device:0x4007d25fe400 size:2560 thread:1
allocated block device:0x4007d25fee00 size:3072 thread:1
allocated block device:0x4007d2600000 size:1821184 thread:1
allocated block device:0x4007d27bca00 size:180224 thread:1
allocated block device:0x4007d27e8a00 size:28672 thread:1
allocated block device:0x4007d27efa00 size:40448 thread:1
allocated block device:0x4007d27f9c00 size:2560 thread:1
allocated block device:0x4007d27fa600 size:3072 thread:1
allocated block device:0x4007d27fb200 size:3072 thread:1
allocated block device:0x4007d2800000 size:1821184 thread:1
allocated block device:0x4007d29bca00 size:180224 thread:1
allocated block device:0x4007d29e8a00 size:40448 thread:1
allocated block device:0x4007d29fcc00 size:2048 thread:1
allocated block device:0x4007d2a00000 size:7284736 thread:1
allocated block device:0x4007d3200000 size:7284736 thread:1
allocated block device:0x4007d3a00000 size:45593600 thread:1
allocated block device:0x4007e0000000 size:807412224 thread:1
allocated block device:0x400810400000 size:230400000 thread:1
allocated block device:0x400820000000 size:230400000 thread:1
allocated block device:0x40082dc00000 size:230400000 thread:1
allocated block device:0x400860000000 size:230400000 thread:1
allocated block device:0x400874c00000 size:391680 thread:1
allocated block device:0x400874c5fa00 size:921600 thread:1
allocated block device:0x400874d40a00 size:393216 thread:1
allocated block device:0x400874e00000 size:2799616 thread:1
allocated block device:0x400875200000 size:4030464 thread:1
allocated block device:0x400875600000 size:7284736 thread:1
allocated block device:0x400c20000000 size:298674176 thread:1
allocated block device:0x400c430c0000 size:393216 thread:1
allocated block device:0x400c4f200000 size:7284736 thread:1
allocated block device:0x400c52000000 size:1807360 thread:1
allocated block device:0x400c521b9400 size:272384 thread:1
allocated block device:0x400c521fbc00 size:8192 thread:1
allocated block device:0x400c521fdc00 size:8192 thread:1
allocated block device:0x400c521ffc00 size:512 thread:1
allocated block device:0x400c52200000 size:1807360 thread:1
allocated block device:0x400c523b9400 size:272384 thread:1
allocated block device:0x400c523fbc00 size:8192 thread:1
allocated block device:0x400c52400000 size:1807360 thread:1
allocated block device:0x400c525b9400 size:98304 thread:1
allocated block device:0x400c525d1400 size:98304 thread:1
allocated block device:0x400c52600000 size:2799616 thread:1
allocated block device:0x400c52a00000 size:14458880 thread:1
allocated block device:0x400cc0000000 size:298674176 thread:1
allocated block device:0x400cd1e00000 size:7284736 thread:1
allocated block device:0x400db1e00000 size:230400000 thread:1
allocated block device:0x400dd1e00000 size:230400000 thread:1
allocated block device:0x400df1e00000 size:230400000 thread:1
allocated block device:0x400e11e00000 size:29138944 thread:1
allocated block device:0x400e13a00000 size:29138944 thread:1
allocated block device:0x400e15600000 size:3145728 thread:1
allocated block device:0x400e15a00000 size:7284736 thread:1
allocated block device:0x400e16200000 size:7284736 thread:1
allocated block device:0x400e16a00000 size:14569472 thread:1
Accelerator Fatal Error: call to cuMemAlloc returned error 2 (CUDA_ERROR_OUT_OF_MEMORY): Out of memory
 File: /lus/lfs1aip2/projects/u6cb/software/VASP/vasp.6.5.1/build/gam/hamil.f90
 Function: hamiltmu:978
 Line: 1005

Out of memory allocating 921600000 bytes of device memory
Failing in Thread:1
total/free CUDA memory: 102005473280/323944448
Present table dump for device[1]: NVIDIA Tesla GPU 0, compute capability 9.0, threadid=1
Hint: specify 0x800 bit in NV_ACC_DEBUG for verbose info.
host:0x2557280 device:0x40031e5fc000 size:32 presentcount:0+3 line:643 name:var%comm
host:0x25572a0 device:0x4004fc1ffa00 size:32 presentcount:0+4 line:652 name:var%comm_kinter
host:0x25572c0 device:0x4004fc1ffc00 size:32 presentcount:0+6 line:655 name:var%comm_kin
host:0x25572e0 device:0x4004fc1ff400 size:32 presentcount:0+3 line:646 name:var%comm_inter
host:0x2557300 device:0x4004fc1ff600 size:32 presentcount:0+7 line:649 name:var%comm_inb
host:0x256be80 device:0x40031a0ecd00 size:8 presentcount:0+1 line:-1 name:_setexm_struct_def_21
host:0x2576f40 device:0x40031a0ece00 size:28 presentcount:0+1 line:-1 name:_ml_ff_constant_21
host:0x2577c80 device:0x40031a0ecf00 size:30437 presentcount:0+1 line:-1 name:_ml_ff_taglist_21
host:0x25afc80 device:0x40031a0f4600 size:8 presentcount:0+1 line:-1 name:_mopenacc_tutor_21
host:0x25c2740 device:0x40031a0f4a00 size:32 presentcount:0+1 line:-1 name:_mbj_21
host:0x25cd640 device:0x40031a0f4d00 size:8 presentcount:0+1 line:-1 name:_sym_prec_21
host:0x26030c0 device:0x40031a0f4e00 size:344 presentcount:0+1 line:-1 name:_tet_21
host:0x261c840 device:0x40031a0f5000 size:392 presentcount:0+1 line:-1 name:_mymath_21
host:0x2817368 device:0x40031e5eec00 size:4800 presentcount:0+2 line:614 name:var
host:0x2818628 device:0x40031e5fa400 size:1984 presentcount:0+2 line:403 name:var
host:0x281a910 device:0x4004bc3ff800 size:864 presentcount:0+4 line:2639 name:hamiltonian
host:0x286ac80 device:0x40031e5fd400 size:2712 presentcount:0+2 line:428 name:var
host:0x286b718 device:0x4004fc1fae00 size:2248 presentcount:0+1 line:742 name:var
host:0x286eb50 device:0x4005727ff800 size:288 presentcount:0+1 line:195 name:latt_cur
host:0x2871658 device:0x40051c3fe400 size:5088 presentcount:0+28 line:517 name:var
host:0x2872a38 device:0x4005725f4800 size:5088 presentcount:0+6 line:517 name:var
host:0x2873e18 device:0x4005725e8a00 size:5088 presentcount:0+7 line:517 name:var
host:0x287a2a8 device:0x4004fc1fe000 size:304 presentcount:0+1 line:567 name:var
host:0x287a3d8 device:0x4005725fca00 size:304 presentcount:0+1 line:567 name:var
host:0x2e48ec0 device:0x40031a002600 size:960024 presentcount:0+1 line:-1 name:_setexm_struct_def_16
host:0x2f8f080 device:0x40031a0f4700 size:580 presentcount:0+1 line:-1 name:_wpbe_16
host:0x2f8f900 device:0x40031a0f4b00 size:288 presentcount:0+1 line:-1 name:_mbj_16
host:0x9f446c0 device:0x40031a0f5200 size:624 presentcount:0+1 line:-1 name:_mlr_optic_16
host:0x3a19d8b0 device:0x40031e5fe600 size:24 presentcount:0+3 line:616 name:var%vkpt(:,:)
host:0x3a19d8f0 device:0x40031e5ffe00 size:4 presentcount:0+2 line:616 name:var%nplwkp(:)
host:0x3a1fde80 device:0x40031e5eea00 size:16 presentcount:0+2 line:430 name:var%psrmax(:)
host:0x3a1fdec0 device:0x4005723f7200 size:4 presentcount:0+2 line:616 name:var%nplwkp_tot(:)
host:0x3a1fdef0 device:0x4005723fd200 size:4 presentcount:0+2 line:616 name:var%ngvector_pos(:)
host:0x3a1fdf20 device:0x40031e5ffc00 size:4 presentcount:0+2 line:616 name:var%ngvector(:)
host:0x3a1fdf50 device:0x40031e5fac00 size:8 presentcount:0+2 line:616 name:var%nb_totk(:,:)
host:0x3a1fdf80 device:0x4005723fd400 size:4 presentcount:0+2 line:616 name:var%luseinv(:)
host:0x3a1fdfb0 device:0x40031e5ee600 size:4 presentcount:0+2 line:616 name:var%at_gamma(:)
host:0x3a1fdfe0 device:0x4005723fee00 size:8 presentcount:0+2 line:405 name:var%lmmax(:)
host:0x3a1fe010 device:0x4004fc1ffe00 size:8 presentcount:0+2 line:430 name:var%lmax(:)
host:0x3a1fe040 device:0x40031e5ee400 size:8 presentcount:0+2 line:430 name:var%lmmax(:)
host:0x3a1fe070 device:0x40031e5ee800 size:8 presentcount:0+2 line:430 name:var%channels(:)
host:0x3a1fe0a0 device:0x40051c3ff800 size:16 presentcount:0+2 line:430 name:var%rsmooth(:)
host:0x3a1fe0e0 device:0x4004fc1fcc00 size:4 presentcount:0+1 line:499 name:var%tbli(:)
host:0x3b3bcc40 device:0x4005725f7800 size:528 presentcount:0+1 line:480 name:var
host:0x3f60d7d0 device:0x4004fc1ff800 size:8 presentcount:0+4 line:405 name:var%nityp(:)
host:0x3fb0bfe0 device:0x40031e5f0a00 size:1000 presentcount:0+4 line:519 name:var%lpctz(:)
host:0x3ff82250 device:0x40031e5fe400 size:8 presentcount:0+3 line:616 name:var%nt_global(:)
host:0x3ff82340 device:0x40031e5fe000 size:8 presentcount:0+3 line:616 name:var%lmmax(:)
host:0x3ff82370 device:0x40031e5fe800 size:8 presentcount:0+2 line:616 name:var%wtkpt(:)
host:0x3ff823a0 device:0x40031e5fe200 size:8 presentcount:0+3 line:616 name:var%nityp(:)
host:0x3ff8f0e0 device:0x4005727e8a00 size:28464 presentcount:0+1 line:853 name:var(:)
host:0x3ffa1860 device:0x4005729e8a00 size:40000 presentcount:0+1 line:857 name:var%psp(:,:)
host:0x3ffab4d0 device:0x4005727fd800 size:8000 presentcount:0+1 line:857 name:var%psprho(:)
host:0x3ffae760 device:0x4005723f7400 size:24000 presentcount:0+2 line:466 name:var%psprnl(:,:,:)
host:0x3ffde140 device:0x4005723ef000 size:4320 presentcount:0+4 line:405 name:var%ityp(:)
host:0x3ffdf250 device:0x4005723e8a00 size:25920 presentcount:0+4 line:405 name:var%posion(:,:)
host:0x400225b0 device:0x4005727efa00 size:40000 presentcount:0+1 line:857 name:var%psp(:,:)
host:0x4002c220 device:0x4005727f9800 size:8000 presentcount:0+1 line:857 name:var%pspcor(:)
host:0x4002e190 device:0x4005727fb800 size:8000 presentcount:0+1 line:857 name:var%psprho(:)
host:0x40031420 device:0x4005723f1400 size:24000 presentcount:0+2 line:466 name:var%psprnl(:,:,:)
host:0x4007e3e0 device:0x40051c3ffc00 size:24 presentcount:0+3 line:466 name:var%lps(:)
host:0x4007e490 device:0x4004fc1fb800 size:24 presentcount:0+3 line:466 name:var%lps(:)
host:0x401025a0 device:0x40031e5fea00 size:4320 presentcount:0+3 line:616 name:var%ityp(:)
host:0x401036b0 device:0x40031e5fc200 size:4320 presentcount:0+3 line:616 name:var%npro_pos(:)
host:0x401047c0 device:0x40031e5fae00 size:4324 presentcount:0+3 line:616 name:var%lmbase(:)
host:0x401058d0 device:0x40031e5f0000 size:1280 presentcount:0+4 line:519 name:var%lpctx(:)
host:0x40105e00 device:0x40031e5f0600 size:720 presentcount:0+4 line:519 name:var%lpcty(:)
host:0x40106100 device:0x40031e5f0e00 size:1280 presentcount:0+4 line:519 name:var%lpctx_(:)
host:0x40106630 device:0x40031e5f1400 size:720 presentcount:0+4 line:519 name:var%lpcty_(:)
host:0x40106930 device:0x40031e5f1800 size:1000 presentcount:0+4 line:519 name:var%lpctz_(:)
host:0x40106d40 device:0x4005725f5c00 size:1280 presentcount:0+1 line:519 name:var%lpctx(:)
host:0x40107270 device:0x4005725f6200 size:720 presentcount:0+1 line:519 name:var%lpcty(:)
host:0x40107570 device:0x4005725f6600 size:1000 presentcount:0+1 line:519 name:var%lpctz(:)
host:0x40107980 device:0x4005725f6a00 size:1280 presentcount:0+1 line:519 name:var%lpctx_(:)
host:0x40107eb0 device:0x4005725f7000 size:720 presentcount:0+1 line:519 name:var%lpcty_(:)
host:0x401081b0 device:0x4005725f7400 size:1000 presentcount:0+1 line:519 name:var%lpctz_(:)
host:0x401085c0 device:0x4005723fd600 size:2560 presentcount:0+1 line:519 name:var%lpctx(:)
host:0x40108ff0 device:0x4005723ff000 size:1440 presentcount:0+1 line:519 name:var%lpcty(:)
host:0x401095c0 device:0x4005723fe200 size:2000 presentcount:0+1 line:519 name:var%lpctz(:)
host:0x40109dc0 device:0x4005723ff600 size:2560 presentcount:0+1 line:519 name:var%lpctx_(:)
host:0x4010a7f0 device:0x4005725e9e00 size:1440 presentcount:0+1 line:519 name:var%lpcty_(:)
host:0x4010adc0 device:0x4005725ea400 size:2000 presentcount:0+1 line:519 name:var%lpctz_(:)
host:0x401f6ea0 device:0x4005725ee800 size:2824 presentcount:0+1 line:482 name:var%i2(:)
host:0x401f79d0 device:0x4005725ef400 size:2824 presentcount:0+1 line:482 name:var%i3(:)
host:0x401f8500 device:0x4005725f0000 size:5020 presentcount:0+1 line:482 name:var%i2(:)
host:0x401f98d0 device:0x4005725f1400 size:5020 presentcount:0+1 line:482 name:var%i3(:)
host:0x401faca0 device:0x4005725eac00 size:7200 presentcount:0+2 line:482 name:var%i2(:)
host:0x401fc8f0 device:0x4005725eca00 size:7200 presentcount:0+2 line:482 name:var%i3(:)
host:0x401fe960 device:0x400634c5fa00 size:921600 presentcount:0+2 line:482 name:var%index(:,:)
host:0x402df990 device:0x4005725fcc00 size:2560 presentcount:0+1 line:569 name:var%ind1(:)
host:0x402e03c0 device:0x4005725fd600 size:2824 presentcount:0+1 line:569 name:var%indcol(:)
host:0x402e0ef0 device:0x4005725f7c00 size:2824 presentcount:0+1 line:482 name:var%i2(:)
host:0x402e1a20 device:0x4005725f8800 size:2824 presentcount:0+1 line:482 name:var%i3(:)
host:0x402e2550 device:0x4005725f9400 size:1512 presentcount:0+1 line:482 name:var%i2(:)
host:0x402e2b60 device:0x4005725f9a00 size:1512 presentcount:0+1 line:482 name:var%i3(:)
host:0x402e3170 device:0x4004fc1fba00 size:4320 presentcount:0+2 line:430 name:var%nlimax(:)
host:0x402e4280 device:0x4004fc1fce00 size:4324 presentcount:0+2 line:430 name:var%lmbase(:)
host:0x402e5390 device:0x4004fc1fe200 size:4324 presentcount:0+2 line:430 name:var%nlibase(:)
host:0x402e64a0 device:0x40031e5f1c00 size:17132 presentcount:0+4 line:519 name:var%nindpwconjg(:)
host:0x402ea7c0 device:0x40031e5f6000 size:17132 presentcount:0+4 line:519 name:var%ind_in_sphere(:)
host:0x402efa10 device:0x4005725fa400 size:516 presentcount:0+1 line:499 name:var%ptr(:)
host:0x402efc40 device:0x4005725fa000 size:516 presentcount:0+1 line:499 name:var%n(:)
host:0x402efe70 device:0x400a121b9400 size:181440 presentcount:0+1 line:499 name:var%tbli(:)
host:0x4031c360 device:0x4005725fac00 size:516 presentcount:0+1 line:499 name:var%ptri(:)
host:0x4031c6e0 device:0x4005725fc000 size:1280 presentcount:0+1 line:569 name:var%ind1(:)
host:0x4031cc10 device:0x4005725fc600 size:688 presentcount:0+1 line:569 name:var%indcol(:)
host:0x4031cef0 device:0x40044c32e800 size:180000 presentcount:0+4 line:482 name:var%i2(:)
host:0x40348e40 device:0x40044c35a800 size:180000 presentcount:0+4 line:482 name:var%i3(:)
host:0x40374d90 device:0x4005723bca00 size:180000 presentcount:0+8 line:482 name:var%index(:,:)
host:0x403a0ce0 device:0x4005729bca00 size:180000 presentcount:0+8 line:482 name:var%i2(:)
host:0x403ccc30 device:0x40044c386800 size:180000 presentcount:0+8 line:482 name:var%i3(:)
host:0x403f91b0 device:0x400572400000 size:1821184 presentcount:0+3 line:616 name:var%nindpw(:,:)
host:0x405b5be0 device:0x4005725bca00 size:180000 presentcount:0+3 line:616 name:var%pl_index(:,:)
host:0x405e1b30 device:0x4005727bca00 size:180000 presentcount:0+3 line:616 name:var%pl_col(:,:)
host:0x4060da80 device:0x4005723f0200 size:4324 presentcount:0+2 line:405 name:var%lmbase(:)
host:0x4060eb90 device:0x40051c3ffa00 size:400 presentcount:0+2 line:464 name:var
host:0x4060ed20 device:0x40051c3ffe00 size:400 presentcount:0+2 line:464 name:var
host:0x4067f740 device:0x400634c00000 size:220160 presentcount:0+1 line:499 name:var%tbl(:)
host:0x406eafa0 device:0x4005725fa800 size:516 presentcount:0+1 line:499 name:var%ni(:)
host:0x406eb1d0 device:0x400a123b9400 size:181440 presentcount:0+1 line:499 name:var%tbl(:)
host:0x407176c0 device:0x4005725fb400 size:516 presentcount:0+1 line:499 name:var%ptr(:)
host:0x407178f0 device:0x4005725fb000 size:516 presentcount:0+1 line:499 name:var%n(:)
host:0x40717b20 device:0x4005725fbc00 size:516 presentcount:0+1 line:499 name:var%ptri(:)
host:0x40717d50 device:0x4005725fb800 size:516 presentcount:0+1 line:499 name:var%ni(:)
host:0x4071a060 device:0x4005725f2800 size:516 presentcount:0+1 line:499 name:var%n(:)
host:0x4072a800 device:0x4005725f2c00 size:516 presentcount:0+1 line:499 name:var%ptr(:)
host:0x40879a80 device:0x400635600000 size:7284736 presentcount:0+3 line:616 name:var%datake(:,:,:)
host:0x40f6cd00 device:0x400572600000 size:1821184 presentcount:0+3 line:616 name:var%igx(:,:)
host:0x4112a390 device:0x400572200000 size:1821184 presentcount:0+3 line:616 name:var%igy(:,:)
host:0x412e7c30 device:0x400572800000 size:1821184 presentcount:0+3 line:616 name:var%igz(:,:)
host:0x414a5b00 device:0x400573200000 size:7284272 presentcount:0+4 line:519 name:var%fftsca(:,:)
host:0x41b99db0 device:0x4005725f3400 size:516 presentcount:0+1 line:499 name:var%ptri(:)
host:0x41b99fe0 device:0x4005725f3000 size:516 presentcount:0+1 line:499 name:var%ni(:)
host:0x41b9a210 device:0x4005725f3c00 size:516 presentcount:0+1 line:499 name:var%ptr(:)
host:0x41b9a440 device:0x4005725f3800 size:516 presentcount:0+1 line:499 name:var%n(:)
host:0x41b9a670 device:0x4005725f4400 size:516 presentcount:0+1 line:499 name:var%ptri(:)
host:0x41b9a8a0 device:0x4005725f4000 size:516 presentcount:0+1 line:499 name:var%ni(:)
host:0x41c57d10 device:0x400634e00000 size:1807360 presentcount:0+1 line:499 name:var%tbl(:)
host:0x41fcd900 device:0x400a12000000 size:1807200 presentcount:0+1 line:499 name:var%tbli(:)
host:0x42188970 device:0x400a12200000 size:1807200 presentcount:0+1 line:499 name:var%tbl(:)
host:0x42452420 device:0x40051c3f4000 size:41984 presentcount:0+1 line:746 name:var%auxtot(:,:,:)
host:0x42492420 device:0x40031e5e4000 size:41984 presentcount:0+2 line:746 name:var%fertot(:,:,:)
host:0x424a0030 device:0x40044c31a000 size:83968 presentcount:0+2 line:746 name:var%celtot(:,:,:)
host:0x424ff080 device:0x400a12400000 size:1807200 presentcount:0+1 line:499 name:var%tbli(:)
host:0x441ac190 device:0x400572a00000 size:7200000 presentcount:0+1 line:195 name:dencor(:)
host:0x44f76480 device:0x400571e00000 size:2799360 presentcount:0+2 line:194 name:cdij(:,:,:,:)
host:0x45225ba0 device:0x400a12600000 size:2799360 presentcount:0+2 line:194 name:cqij(:,:,:,:)
host:0x45785850 device:0x400635200000 size:4030464 presentcount:0+5 line:746 name:var%gproj(:,:,:,:)
host:0x45e06050 device:0x400a121f5600 size:2048 presentcount:0+1 line:179 name:wtmp(:)
host:0x45e13290 device:0x40044c3ca800 size:98304 presentcount:0+1 line:1101 name:w1%gproj(:)
host:0x4cce4a80 device:0x400634d40a00 size:393216 presentcount:0+2 line:1226 name:wa%gproj(:,:)
host:0x4cd44ab0 device:0x400a038c0000 size:393216 presentcount:0+2 line:1226 name:wa%gproj(:,:)
host:0x4cdac070 device:0x400b95600000 size:3145728 presentcount:0+2 line:1226 name:wa%gproj(:,:)
host:0x50fc3560 device:0x4005729fe200 size:2048 presentcount:0+1 line:179 name:w1(:)
host:0x50ffb7d0 device:0x400a71e00000 size:7284736 presentcount:0+1 line:1101 name:w1%cptwfp(:)
host:0x516ee000 device:0x40044c3b2800 size:98304 presentcount:0+1 line:1101 name:w1%gproj(:)
host:0x51706030 device:0x400a123e5a00 size:98304 presentcount:0+1 line:1101 name:w1%gproj(:)
host:0x5171e060 device:0x40044c3e2800 size:98304 presentcount:0+1 line:1101 name:w1%gproj(:)
host:0x51942f70 device:0x400b96a00000 size:14569472 presentcount:0+1 line:202 name:precon(:,:)
host:0x5272fd70 device:0x400a0fa00000 size:7284736 presentcount:0+1 line:1101 name:w1%cptwfp(:)
host:0x52e2a9a0 device:0x400b95a00000 size:7284736 presentcount:0+1 line:1101 name:w1%cptwfp(:)
host:0x5351d5f0 device:0x400b96200000 size:7284736 presentcount:0+1 line:1101 name:w1%cptwfp(:)
host:0x4004600010a0 device:0x400573a00000 size:45593280 presentcount:0+2 line:430 name:var%nli(:,:)
host:0x400462b812b0 device:0x400580000000 size:807411968 presentcount:0+2 line:430 name:var%rproj(:)
host:0x400492d939e0 device:0x400a12a00000 size:14458880 presentcount:0+1 line:195 name:cstrf(:,:)
host:0x400497206f80 device:0x400b91e00000 size:29138944 presentcount:0+2 line:1226 name:wa%cptwfp(:,:)
host:0x40049be87190 device:0x400b93a00000 size:29138944 presentcount:0+2 line:1226 name:wa%cptwfp(:,:)
host:0x4005400031a0 device:0x4005edc00000 size:230400000 presentcount:0+2 line:194 name:sv(:,:)
host:0x40054dbc4a60 device:0x400560000000 size:298674176 presentcount:0+5 line:746 name:var%cptwfp(:,:,:,:)
host:0x400600000020 device:0x4009e0000000 size:230400000 presentcount:0+1 line:1101 name:w1%cr(:)
host:0x4006a00073a0 device:0x400a60000000 size:233111552 presentcount:0+2 line:1226 name:wa%cptwfp(:,:)
host:0x4006ade679d0 device:0x400360000000 size:230400000 presentcount:0+1 line:1101 name:w1%cr(:)
host:0x4008c0007be0 device:0x4005b0400000 size:230400000 presentcount:0+1 line:1236 name:w1%cr(:)
host:0x4008cdbd8000 device:0x400620000000 size:230400000 presentcount:0+1 line:1101 name:w1%cr(:)
host:0x4009c0008210 device:0x4005e0000000 size:230400000 presentcount:0+1 line:1236 name:w1%cr(:)
host:0x4009cdbd0230 device:0x400b71e00000 size:230400000 presentcount:0+1 line:1236 name:w1%cr(:)
host:0x400a40000650 device:0x400b51e00000 size:230400000 presentcount:0+1 line:1101 name:w1%cr(:)
host:0x400a4dbc0860 device:0x400b31e00000 size:230400000 presentcount:0+1 line:1236 name:w1%cr(:)
host:0xffffc7294140 device:0x400a121f6200 size:3024 presentcount:0+12 line:682 name:var
host:0xffffc7294d10 device:0x4004dc3ff600 size:1480 presentcount:0+1 line:174 name:w_ini
host:0xffffc72952e0 device:0x4005725ff600 size:1480 presentcount:0+1 line:174 name:wopt
host:0xffffc72958b0 device:0x4004fc1fa400 size:1480 presentcount:0+1 line:174 name:wtmpa
allocated block device:0x40031e5e4000 size:41984 thread:1
allocated block device:0x40031e5ee400 size:512 thread:1
allocated block device:0x40031e5ee600 size:512 thread:1
allocated block device:0x40031e5ee800 size:512 thread:1
allocated block device:0x40031e5eea00 size:512 thread:1
allocated block device:0x40031e5eec00 size:5120 thread:1
allocated block device:0x40031e5f0000 size:1536 thread:1
allocated block device:0x40031e5f0600 size:1024 thread:1
allocated block device:0x40031e5f0a00 size:1024 thread:1
allocated block device:0x40031e5f0e00 size:1536 thread:1
allocated block device:0x40031e5f1400 size:1024 thread:1
allocated block device:0x40031e5f1800 size:1024 thread:1
allocated block device:0x40031e5f1c00 size:17408 thread:1
allocated block device:0x40031e5f6000 size:17408 thread:1
allocated block device:0x40031e5fa400 size:2048 thread:1
allocated block device:0x40031e5fac00 size:512 thread:1
allocated block device:0x40031e5fae00 size:4608 thread:1
allocated block device:0x40031e5fc000 size:512 thread:1
allocated block device:0x40031e5fc200 size:4608 thread:1
allocated block device:0x40031e5fd400 size:3072 thread:1
allocated block device:0x40031e5fe000 size:512 thread:1
allocated block device:0x40031e5fe200 size:512 thread:1
allocated block device:0x40031e5fe400 size:512 thread:1
allocated block device:0x40031e5fe600 size:512 thread:1
allocated block device:0x40031e5fe800 size:512 thread:1
allocated block device:0x40031e5fea00 size:4608 thread:1
allocated block device:0x40031e5ffc00 size:512 thread:1
allocated block device:0x40031e5ffe00 size:512 thread:1
allocated block device:0x400360000000 size:230400000 thread:1
allocated block device:0x40044c31a000 size:83968 thread:1
allocated block device:0x40044c32e800 size:180224 thread:1
allocated block device:0x40044c35a800 size:180224 thread:1
allocated block device:0x40044c386800 size:180224 thread:1
allocated block device:0x40044c3b2800 size:98304 thread:1
allocated block device:0x40044c3ca800 size:98304 thread:1
allocated block device:0x40044c3e2800 size:98304 thread:1
allocated block device:0x4004bc3ff800 size:1024 thread:1
allocated block device:0x4004dc3ff600 size:1536 thread:1
allocated block device:0x4004fc1fa400 size:2048 thread:1
allocated block device:0x4004fc1fae00 size:2560 thread:1
allocated block device:0x4004fc1fb800 size:512 thread:1
allocated block device:0x4004fc1fba00 size:4608 thread:1
allocated block device:0x4004fc1fcc00 size:512 thread:1
allocated block device:0x4004fc1fce00 size:4608 thread:1
allocated block device:0x4004fc1fe000 size:512 thread:1
allocated block device:0x4004fc1fe200 size:4608 thread:1
allocated block device:0x4004fc1ff400 size:512 thread:1
allocated block device:0x4004fc1ff600 size:512 thread:1
allocated block device:0x4004fc1ff800 size:512 thread:1
allocated block device:0x4004fc1ffa00 size:512 thread:1
allocated block device:0x4004fc1ffc00 size:512 thread:1
allocated block device:0x4004fc1ffe00 size:512 thread:1
allocated block device:0x40051c3f4000 size:41984 thread:1
allocated block device:0x40051c3fe400 size:5120 thread:1
allocated block device:0x40051c3ff800 size:512 thread:1
allocated block device:0x40051c3ffa00 size:512 thread:1
allocated block device:0x40051c3ffc00 size:512 thread:1
allocated block device:0x40051c3ffe00 size:512 thread:1
allocated block device:0x400560000000 size:298674176 thread:1
allocated block device:0x400571e00000 size:4030464 thread:1
allocated block device:0x400572200000 size:1821184 thread:1
allocated block device:0x4005723bca00 size:180224 thread:1
allocated block device:0x4005723e8a00 size:26112 thread:1
allocated block device:0x4005723ef000 size:4608 thread:1
allocated block device:0x4005723f0200 size:4608 thread:1
allocated block device:0x4005723f1400 size:24064 thread:1
allocated block device:0x4005723f7200 size:512 thread:1
allocated block device:0x4005723f7400 size:24064 thread:1
allocated block device:0x4005723fd200 size:512 thread:1
allocated block device:0x4005723fd400 size:512 thread:1
allocated block device:0x4005723fd600 size:3072 thread:1
allocated block device:0x4005723fe200 size:3072 thread:1
allocated block device:0x4005723fee00 size:512 thread:1
allocated block device:0x4005723ff000 size:1536 thread:1
allocated block device:0x4005723ff600 size:2560 thread:1
allocated block device:0x400572400000 size:1821184 thread:1
allocated block device:0x4005725bca00 size:180224 thread:1
allocated block device:0x4005725e8a00 size:5120 thread:1
allocated block device:0x4005725e9e00 size:1536 thread:1
allocated block device:0x4005725ea400 size:2048 thread:1
allocated block device:0x4005725eac00 size:7680 thread:1
allocated block device:0x4005725eca00 size:7680 thread:1
allocated block device:0x4005725ee800 size:3072 thread:1
allocated block device:0x4005725ef400 size:3072 thread:1
allocated block device:0x4005725f0000 size:5120 thread:1
allocated block device:0x4005725f1400 size:5120 thread:1
allocated block device:0x4005725f2800 size:1024 thread:1
allocated block device:0x4005725f2c00 size:1024 thread:1
allocated block device:0x4005725f3000 size:1024 thread:1
allocated block device:0x4005725f3400 size:1024 thread:1
allocated block device:0x4005725f3800 size:1024 thread:1
allocated block device:0x4005725f3c00 size:1024 thread:1
allocated block device:0x4005725f4000 size:1024 thread:1
allocated block device:0x4005725f4400 size:1024 thread:1
allocated block device:0x4005725f4800 size:5120 thread:1
allocated block device:0x4005725f5c00 size:1536 thread:1
allocated block device:0x4005725f6200 size:1024 thread:1
allocated block device:0x4005725f6600 size:1024 thread:1
allocated block device:0x4005725f6a00 size:1536 thread:1
allocated block device:0x4005725f7000 size:1024 thread:1
allocated block device:0x4005725f7400 size:1024 thread:1
allocated block device:0x4005725f7800 size:1024 thread:1
allocated block device:0x4005725f7c00 size:3072 thread:1
allocated block device:0x4005725f8800 size:3072 thread:1
allocated block device:0x4005725f9400 size:1536 thread:1
allocated block device:0x4005725f9a00 size:1536 thread:1
allocated block device:0x4005725fa000 size:1024 thread:1
allocated block device:0x4005725fa400 size:1024 thread:1
allocated block device:0x4005725fa800 size:1024 thread:1
allocated block device:0x4005725fac00 size:1024 thread:1
allocated block device:0x4005725fb000 size:1024 thread:1
allocated block device:0x4005725fb400 size:1024 thread:1
allocated block device:0x4005725fb800 size:1024 thread:1
allocated block device:0x4005725fbc00 size:1024 thread:1
allocated block device:0x4005725fc000 size:1536 thread:1
allocated block device:0x4005725fc600 size:1024 thread:1
allocated block device:0x4005725fca00 size:512 thread:1
allocated block device:0x4005725fcc00 size:2560 thread:1
allocated block device:0x4005725fd600 size:3072 thread:1
allocated block device:0x4005725ff600 size:2560 thread:1
allocated block device:0x400572600000 size:1821184 thread:1
allocated block device:0x4005727bca00 size:180224 thread:1
allocated block device:0x4005727e8a00 size:28672 thread:1
allocated block device:0x4005727efa00 size:40448 thread:1
allocated block device:0x4005727f9800 size:8192 thread:1
allocated block device:0x4005727fb800 size:8192 thread:1
allocated block device:0x4005727fd800 size:8192 thread:1
allocated block device:0x4005727ff800 size:512 thread:1
allocated block device:0x400572800000 size:1821184 thread:1
allocated block device:0x4005729bca00 size:180224 thread:1
allocated block device:0x4005729e8a00 size:40448 thread:1
allocated block device:0x4005729fe200 size:2048 thread:1
allocated block device:0x400572a00000 size:7284736 thread:1
allocated block device:0x400573200000 size:7284736 thread:1
allocated block device:0x400573a00000 size:45593600 thread:1
allocated block device:0x400580000000 size:807412224 thread:1
allocated block device:0x4005b0400000 size:230400000 thread:1
allocated block device:0x4005e0000000 size:230400000 thread:1
allocated block device:0x4005edc00000 size:230400000 thread:1
allocated block device:0x400620000000 size:230400000 thread:1
allocated block device:0x400634c00000 size:391680 thread:1
allocated block device:0x400634c5fa00 size:921600 thread:1
allocated block device:0x400634d40a00 size:393216 thread:1
allocated block device:0x400634e00000 size:2799616 thread:1
allocated block device:0x400635200000 size:4030464 thread:1
allocated block device:0x400635600000 size:7284736 thread:1
allocated block device:0x4009e0000000 size:298674176 thread:1
allocated block device:0x400a038c0000 size:393216 thread:1
allocated block device:0x400a0fa00000 size:7284736 thread:1
allocated block device:0x400a12000000 size:1807360 thread:1
allocated block device:0x400a121b9400 size:181760 thread:1
allocated block device:0x400a121f5600 size:3072 thread:1
allocated block device:0x400a121f6200 size:3072 thread:1
allocated block device:0x400a12200000 size:1807360 thread:1
allocated block device:0x400a123b9400 size:181760 thread:1
allocated block device:0x400a123e5a00 size:98304 thread:1
allocated block device:0x400a12400000 size:1807360 thread:1
allocated block device:0x400a12600000 size:2799616 thread:1
allocated block device:0x400a12a00000 size:14458880 thread:1
allocated block device:0x400a60000000 size:298674176 thread:1
allocated block device:0x400a71e00000 size:7284736 thread:1
allocated block device:0x400b31e00000 size:230400000 thread:1
allocated block device:0x400b51e00000 size:230400000 thread:1
allocated block device:0x400b71e00000 size:230400000 thread:1
allocated block device:0x400b91e00000 size:29138944 thread:1
allocated block device:0x400b93a00000 size:29138944 thread:1
allocated block device:0x400b95600000 size:3145728 thread:1
allocated block device:0x400b95a00000 size:7284736 thread:1
allocated block device:0x400b96200000 size:7284736 thread:1
allocated block device:0x400b96a00000 size:14569472 thread:1
Accelerator Fatal Error: call to cuMemAlloc returned error 2 (CUDA_ERROR_OUT_OF_MEMORY): Out of memory
 File: /lus/lfs1aip2/projects/u6cb/software/VASP/vasp.6.5.1/build/gam/hamil.f90
 Function: hamiltmu:978
 Line: 1005

srun: error: nid011316: tasks 105,110: Exited with exit code 1
srun: Terminating StepId=3298631.0
slurmstepd: error: *** STEP 3298631.0 ON nid011308 CANCELLED AT 2026-03-23T22:31:59 ***
srun: error: nid011308: task 14: Exited with exit code 1
srun: error: nid011310: tasks 64,66-68,70-83,85-95: Terminated
srun: error: nid011310: tasks 65,69,84: Exited with exit code 1
srun: error: nid011309: tasks 32-44,46-54,56-58,60-63: Terminated
srun: error: nid011309: tasks 45,55,59: Exited with exit code 1
srun: error: nid011316: tasks 96-104,106-109,111-127: Terminated
srun: error: nid011308: tasks 0-13,15-31: Terminated
srun: Force Terminated StepId=3298631.0
++++ Power data
#Date        Time         gpu    pwr  gtemp  mtemp 
#YYYYMMDD    HH:MM:SS     Idx      W      C      C 
 20260323    21:39:07       0     79     33     42 
 20260323    21:39:07       1     93     34     43 
 20260323    21:39:07       2     86     35     44 
 20260323    21:39:07       3     89     33     43 
 20260323    21:39:37       0    130     35     41 
 20260323    21:39:37       1    106     35     43 
 20260323    21:39:37       2    135     37     44 
 20260323    21:39:37       3     89     33     43 
 20260323    21:40:07       0    126     35     41 
 20260323    21:40:07       1    139     36     43 
 20260323    21:40:07       2    133     37     44 
 20260323    21:40:07       3    136     35     43 
 20260323    21:40:37       0    126     35     41 
 20260323    21:40:37       1    139     36     43 
 20260323    21:40:37       2    133     37     44 
 20260323    21:40:37       3    136     35     43 
 20260323    21:41:07       0    126     35     41 
 20260323    21:41:07       1    139     36     44 
 20260323    21:41:07       2    133     37     44 
 20260323    21:41:07       3    136     34     43 
 20260323    21:41:37       0    126     35     41 
 20260323    21:41:37       1    139     36     44 
 20260323    21:41:37       2    133     37     44 
 20260323    21:41:37       3    136     35     43 
 20260323    21:42:07       0    126     35     41 
 20260323    21:42:07       1    139     36     44 
 20260323    21:42:07       2    134     37     44 
 20260323    21:42:07       3    136     35     43 
 20260323    21:42:37       0    126     35     41 
 20260323    21:42:37       1    139     36     44 
 20260323    21:42:37       2    133     37     44 
 20260323    21:42:37       3    136     34     43 
 20260323    21:43:07       0    126     35     41 
 20260323    21:43:07       1    139     36     43 
 20260323    21:43:07       2    133     37     44 
 20260323    21:43:07       3    136     35     43 
 20260323    21:43:37       0    126     35     41 
 20260323    21:43:37       1    139     36     43 
 20260323    21:43:37       2    133     37     44 
 20260323    21:43:37       3    136     34     43 
 20260323    21:44:07       0    126     35     41 
 20260323    21:44:07       1    138     36     44 
 20260323    21:44:07       2    133     37     44 
 20260323    21:44:07       3    136     34     43 
#Date        Time         gpu    pwr  gtemp  mtemp 
#YYYYMMDD    HH:MM:SS     Idx      W      C      C 
 20260323    21:44:37       0    126     35     41 
 20260323    21:44:37       1    138     36     45 
 20260323    21:44:37       2    133     37     44 
 20260323    21:44:37       3    136     34     43 
 20260323    21:45:07       0    126     35     41 
 20260323    21:45:07       1    139     36     44 
 20260323    21:45:07       2    133     37     44 
 20260323    21:45:07       3    136     35     44 
 20260323    21:45:37       0    126     35     41 
 20260323    21:45:37       1    138     36     43 
 20260323    21:45:37       2    133     37     44 
 20260323    21:45:37       3    136     35     43 
 20260323    21:46:07       0    126     35     41 
 20260323    21:46:07       1    139     36     43 
 20260323    21:46:07       2    133     37     44 
 20260323    21:46:07       3    136     35     43 
 20260323    21:46:37       0    126     35     41 
 20260323    21:46:37       1    139     36     43 
 20260323    21:46:37       2    133     37     44 
 20260323    21:46:37       3    136     35     43 
 20260323    21:47:07       0    126     35     41 
 20260323    21:47:07       1    139     36     45 
 20260323    21:47:07       2    133     37     44 
 20260323    21:47:07       3    136     35     43 
 20260323    21:47:37       0    126     35     41 
 20260323    21:47:37       1    139     36     45 
 20260323    21:47:37       2    133     37     44 
 20260323    21:47:37       3    136     35     43 
 20260323    21:48:07       0    126     35     41 
 20260323    21:48:07       1    138     36     43 
 20260323    21:48:07       2    133     37     44 
 20260323    21:48:07       3    136     35     43 
 20260323    21:48:37       0    126     35     41 
 20260323    21:48:37       1    139     36     44 
 20260323    21:48:37       2    133     37     44 
 20260323    21:48:37       3    136     34     43 
 20260323    21:49:07       0    126     35     41 
 20260323    21:49:07       1    138     36     43 
 20260323    21:49:07       2    133     37     44 
 20260323    21:49:07       3    136     34     43 
 20260323    21:49:37       0    126     35     41 
 20260323    21:49:37       1    138     36     43 
 20260323    21:49:37       2    133     37     44 
 20260323    21:49:37       3    136     34     43 
#Date        Time         gpu    pwr  gtemp  mtemp 
#YYYYMMDD    HH:MM:SS     Idx      W      C      C 
 20260323    21:50:07       0    126     35     41 
 20260323    21:50:07       1    139     36     44 
 20260323    21:50:07       2    133     37     44 
 20260323    21:50:07       3    136     34     43 
 20260323    21:50:37       0    126     35     41 
 20260323    21:50:37       1    138     36     43 
 20260323    21:50:37       2    133     37     44 
 20260323    21:50:37       3    136     34     43 
 20260323    21:51:07       0    126     35     41 
 20260323    21:51:07       1    139     36     43 
 20260323    21:51:07       2    133     37     44 
 20260323    21:51:07       3    136     34     43 
 20260323    21:51:37       0    126     35     41 
 20260323    21:51:37       1    139     36     43 
 20260323    21:51:37       2    133     37     44 
 20260323    21:51:37       3    136     34     43 
 20260323    21:52:07       0    126     35     41 
 20260323    21:52:07       1    139     36     43 
 20260323    21:52:07       2    133     37     44 
 20260323    21:52:07       3    136     34     43 
 20260323    21:52:38       0    126     35     41 
 20260323    21:52:38       1    139     36     44 
 20260323    21:52:38       2    133     37     45 
 20260323    21:52:38       3    136     34     43 
 20260323    21:53:08       0    126     35     41 
 20260323    21:53:08       1    139     36     43 
 20260323    21:53:08       2    133     37     44 
 20260323    21:53:08       3    136     34     43 
 20260323    21:53:38       0    126     35     41 
 20260323    21:53:38       1    139     36     43 
 20260323    21:53:38       2    133     37     44 
 20260323    21:53:38       3    136     34     43 
 20260323    21:54:08       0    126     35     41 
 20260323    21:54:08       1    139     36     43 
 20260323    21:54:08       2    133     37     44 
 20260323    21:54:08       3    136     34     43 
 20260323    21:54:38       0    126     35     41 
 20260323    21:54:38       1    139     36     43 
 20260323    21:54:38       2    133     37     44 
 20260323    21:54:38       3    136     34     43 
 20260323    21:55:08       0    126     35     41 
 20260323    21:55:08       1    138     36     44 
 20260323    21:55:08       2    133     37     44 
 20260323    21:55:08       3    136     34     43 
#Date        Time         gpu    pwr  gtemp  mtemp 
#YYYYMMDD    HH:MM:SS     Idx      W      C      C 
 20260323    21:55:38       0    126     35     41 
 20260323    21:55:38       1    139     36     44 
 20260323    21:55:38       2    133     37     44 
 20260323    21:55:38       3    136     34     43 
 20260323    21:56:08       0    126     35     41 
 20260323    21:56:08       1    139     36     43 
 20260323    21:56:08       2    133     37     44 
 20260323    21:56:08       3    136     34     43 
 20260323    21:56:38       0    126     35     41 
 20260323    21:56:38       1    139     36     43 
 20260323    21:56:38       2    133     37     44 
 20260323    21:56:38       3    136     34     43 
 20260323    21:57:08       0    126     35     41 
 20260323    21:57:08       1    139     36     44 
 20260323    21:57:08       2    133     37     44 
 20260323    21:57:08       3    136     34     43 
 20260323    21:57:38       0    126     35     41 
 20260323    21:57:38       1    139     36     43 
 20260323    21:57:38       2    133     37     44 
 20260323    21:57:38       3    136     34     43 
 20260323    21:58:08       0    126     35     41 
 20260323    21:58:08       1    139     36     43 
 20260323    21:58:08       2    133     37     44 
 20260323    21:58:08       3    136     35     43 
 20260323    21:58:38       0    126     35     41 
 20260323    21:58:38       1    139     36     44 
 20260323    21:58:38       2    133     37     44 
 20260323    21:58:38       3    136     35     43 
 20260323    21:59:08       0    126     35     41 
 20260323    21:59:08       1    139     36     43 
 20260323    21:59:08       2    133     37     44 
 20260323    21:59:08       3    136     35     43 
 20260323    21:59:38       0    126     35     41 
 20260323    21:59:38       1    139     36     43 
 20260323    21:59:38       2    133     37     44 
 20260323    21:59:38       3    136     35     43 
 20260323    22:00:08       0    126     35     41 
 20260323    22:00:08       1    138     36     44 
 20260323    22:00:08       2    133     37     44 
 20260323    22:00:08       3    136     35     43 
 20260323    22:00:38       0    126     35     41 
 20260323    22:00:38       1    139     36     43 
 20260323    22:00:38       2    133     37     44 
 20260323    22:00:38       3    136     35     43 
#Date        Time         gpu    pwr  gtemp  mtemp 
#YYYYMMDD    HH:MM:SS     Idx      W      C      C 
 20260323    22:01:08       0    126     35     41 
 20260323    22:01:08       1    139     36     45 
 20260323    22:01:08       2    133     37     44 
 20260323    22:01:08       3    136     35     44 
 20260323    22:01:38       0    126     35     41 
 20260323    22:01:38       1    139     36     45 
 20260323    22:01:38       2    134     37     44 
 20260323    22:01:38       3    136     35     44 
 20260323    22:02:08       0    126     35     41 
 20260323    22:02:08       1    139     36     45 
 20260323    22:02:08       2    133     37     44 
 20260323    22:02:08       3    135     34     43 
 20260323    22:02:38       0    126     35     41 
 20260323    22:02:38       1    139     36     43 
 20260323    22:02:38       2    133     37     44 
 20260323    22:02:38       3    135     35     43 
 20260323    22:03:08       0    126     35     41 
 20260323    22:03:08       1    139     36     44 
 20260323    22:03:08       2    133     37     44 
 20260323    22:03:08       3    135     35     43 
 20260323    22:03:38       0    126     35     41 
 20260323    22:03:38       1    139     36     43 
 20260323    22:03:38       2    133     37     44 
 20260323    22:03:38       3    135     34     43 
 20260323    22:04:08       0    126     35     41 
 20260323    22:04:08       1    139     36     43 
 20260323    22:04:08       2    133     37     44 
 20260323    22:04:08       3    135     34     43 
 20260323    22:04:38       0    126     35     41 
 20260323    22:04:38       1    139     36     44 
 20260323    22:04:38       2    133     37     44 
 20260323    22:04:38       3    135     34     43 
 20260323    22:05:08       0    126     35     41 
 20260323    22:05:08       1    138     36     44 
 20260323    22:05:08       2    133     37     44 
 20260323    22:05:08       3    135     34     43 
 20260323    22:05:38       0    126     35     41 
 20260323    22:05:38       1    139     36     44 
 20260323    22:05:38       2    133     37     44 
 20260323    22:05:38       3    135     34     43 
 20260323    22:06:08       0    126     35     41 
 20260323    22:06:08       1    139     36     43 
 20260323    22:06:08       2    133     37     45 
 20260323    22:06:08       3    135     34     43 
#Date        Time         gpu    pwr  gtemp  mtemp 
#YYYYMMDD    HH:MM:SS     Idx      W      C      C 
 20260323    22:06:38       0    126     35     41 
 20260323    22:06:38       1    139     36     43 
 20260323    22:06:38       2    133     37     44 
 20260323    22:06:38       3    135     34     43 
 20260323    22:07:08       0    126     35     41 
 20260323    22:07:08       1    139     36     44 
 20260323    22:07:08       2    133     37     44 
 20260323    22:07:08       3    135     34     43 
 20260323    22:07:38       0    126     35     41 
 20260323    22:07:38       1    139     36     44 
 20260323    22:07:38       2    133     37     44 
 20260323    22:07:38       3    135     34     43 
 20260323    22:08:08       0    126     35     41 
 20260323    22:08:08       1    139     36     45 
 20260323    22:08:08       2    133     37     44 
 20260323    22:08:08       3    135     34     43 
 20260323    22:08:38       0    126     35     41 
 20260323    22:08:38       1    139     36     44 
 20260323    22:08:38       2    133     37     44 
 20260323    22:08:38       3    135     34     43 
 20260323    22:09:08       0    126     35     41 
 20260323    22:09:08       1    139     36     43 
 20260323    22:09:08       2    133     37     44 
 20260323    22:09:08       3    135     34     43 
 20260323    22:09:38       0    126     35     41 
 20260323    22:09:38       1    139     36     44 
 20260323    22:09:38       2    133     37     44 
 20260323    22:09:38       3    135     34     43 
 20260323    22:10:08       0    126     35     41 
 20260323    22:10:08       1    138     36     44 
 20260323    22:10:08       2    133     37     44 
 20260323    22:10:08       3    135     34     43 
 20260323    22:10:38       0    126     35     41 
 20260323    22:10:38       1    139     35     44 
 20260323    22:10:38       2    133     37     44 
 20260323    22:10:38       3    135     34     43 
 20260323    22:11:08       0    126     35     41 
 20260323    22:11:08       1    139     35     43 
 20260323    22:11:08       2    133     37     44 
 20260323    22:11:08       3    135     34     43 
 20260323    22:11:38       0    126     35     41 
 20260323    22:11:38       1    139     35     44 
 20260323    22:11:38       2    133     37     45 
 20260323    22:11:38       3    135     34     43 
#Date        Time         gpu    pwr  gtemp  mtemp 
#YYYYMMDD    HH:MM:SS     Idx      W      C      C 
 20260323    22:12:08       0    126     35     41 
 20260323    22:12:08       1    139     36     44 
 20260323    22:12:08       2    133     37     44 
 20260323    22:12:08       3    135     34     43 
 20260323    22:12:38       0    126     35     41 
 20260323    22:12:38       1    138     36     43 
 20260323    22:12:38       2    133     37     45 
 20260323    22:12:38       3    135     34     43 
 20260323    22:13:08       0    126     35     41 
 20260323    22:13:08       1    139     36     44 
 20260323    22:13:08       2    133     37     44 
 20260323    22:13:08       3    135     34     43 
 20260323    22:13:38       0    126     35     41 
 20260323    22:13:38       1    138     35     44 
 20260323    22:13:38       2    133     37     44 
 20260323    22:13:38       3    135     34     43 
 20260323    22:14:08       0    126     35     41 
 20260323    22:14:08       1    138     36     44 
 20260323    22:14:08       2    133     37     45 
 20260323    22:14:08       3    135     34     43 
 20260323    22:14:38       0    126     35     41 
 20260323    22:14:38       1    138     36     44 
 20260323    22:14:38       2    133     37     45 
 20260323    22:14:38       3    135     34     43 
 20260323    22:15:08       0    126     35     41 
 20260323    22:15:08       1    138     36     43 
 20260323    22:15:08       2    133     37     44 
 20260323    22:15:08       3    135     34     43 
 20260323    22:15:38       0    126     35     41 
 20260323    22:15:38       1    139     36     43 
 20260323    22:15:38       2    133     37     45 
 20260323    22:15:38       3    135     34     43 
 20260323    22:16:08       0    126     35     41 
 20260323    22:16:08       1    138     36     44 
 20260323    22:16:08       2    133     37     44 
 20260323    22:16:08       3    135     34     43 
 20260323    22:16:38       0    126     35     41 
 20260323    22:16:38       1    139     36     43 
 20260323    22:16:38       2    133     37     44 
 20260323    22:16:38       3    135     34     43 
 20260323    22:17:08       0    126     35     41 
 20260323    22:17:08       1    138     36     43 
 20260323    22:17:08       2    133     37     45 
 20260323    22:17:08       3    135     34     43 
#Date        Time         gpu    pwr  gtemp  mtemp 
#YYYYMMDD    HH:MM:SS     Idx      W      C      C 
 20260323    22:17:38       0    126     35     41 
 20260323    22:17:38       1    138     36     44 
 20260323    22:17:38       2    133     37     44 
 20260323    22:17:38       3    135     34     44 
 20260323    22:18:08       0    126     35     41 
 20260323    22:18:08       1    139     36     44 
 20260323    22:18:08       2    133     37     44 
 20260323    22:18:08       3    135     35     43 
 20260323    22:18:38       0    126     35     41 
 20260323    22:18:38       1    139     36     45 
 20260323    22:18:38       2    133     37     44 
 20260323    22:18:38       3    135     34     43 
 20260323    22:19:08       0    126     35     41 
 20260323    22:19:08       1    138     36     43 
 20260323    22:19:08       2    133     37     44 
 20260323    22:19:08       3    135     34     43 
 20260323    22:19:38       0    126     35     41 
 20260323    22:19:38       1    139     36     44 
 20260323    22:19:38       2    133     37     45 
 20260323    22:19:38       3    135     34     43 
 20260323    22:20:08       0    128     35     41 
 20260323    22:20:08       1    139     36     43 
 20260323    22:20:08       2    134     37     44 
 20260323    22:20:08       3    137     35     44 
 20260323    22:20:38       0    127     35     41 
 20260323    22:20:38       1    139     36     43 
 20260323    22:20:38       2    133     37     44 
 20260323    22:20:38       3    136     34     43 
 20260323    22:21:08       0    127     35     41 
 20260323    22:21:08       1    139     36     44 
 20260323    22:21:08       2    133     37     44 
 20260323    22:21:08       3    136     34     43 
 20260323    22:21:38       0    127     35     41 
 20260323    22:21:38       1    139     36     44 
 20260323    22:21:38       2    133     37     44 
 20260323    22:21:38       3    136     34     43 
 20260323    22:22:08       0    127     35     41 
 20260323    22:22:08       1    139     36     44 
 20260323    22:22:08       2    133     37     44 
 20260323    22:22:08       3    136     34     43 
 20260323    22:22:38       0    127     35     41 
 20260323    22:22:38       1    139     36     43 
 20260323    22:22:38       2    133     37     44 
 20260323    22:22:38       3    136     34     43 
#Date        Time         gpu    pwr  gtemp  mtemp 
#YYYYMMDD    HH:MM:SS     Idx      W      C      C 
 20260323    22:23:08       0    127     35     41 
 20260323    22:23:08       1    139     36     44 
 20260323    22:23:08       2    133     37     44 
 20260323    22:23:08       3    136     34     43 
 20260323    22:23:38       0    127     35     41 
 20260323    22:23:38       1    139     36     43 
 20260323    22:23:38       2    133     37     44 
 20260323    22:23:38       3    136     34     43 
 20260323    22:24:08       0    137     36     42 
 20260323    22:24:08       1    150     37     45 
 20260323    22:24:08       2    144     38     46 
 20260323    22:24:08       3    146     35     43 
 20260323    22:24:38       0    126     35     41 
 20260323    22:24:38       1    139     36     44 
 20260323    22:24:38       2    133     37     44 
 20260323    22:24:38       3    135     34     43 
 20260323    22:25:08       0    126     35     41 
 20260323    22:25:08       1    139     36     43 
 20260323    22:25:08       2    133     37     44 
 20260323    22:25:08       3    136     34     43 
 20260323    22:25:38       0    139     36     42 
 20260323    22:25:38       1    153     37     46 
 20260323    22:25:38       2    147     38     46 
 20260323    22:25:38       3    149     36     45 
 20260323    22:26:08       0    126     35     41 
 20260323    22:26:08       1    139     36     44 
 20260323    22:26:08       2    133     37     44 
 20260323    22:26:08       3    135     34     43 
 20260323    22:26:38       0    140     36     42 
 20260323    22:26:38       1    153     37     45 
 20260323    22:26:38       2    147     39     46 
 20260323    22:26:38       3    149     36     43 
 20260323    22:27:08       0    140     35     42 
 20260323    22:27:08       1    153     37     45 
 20260323    22:27:08       2    145     38     46 
 20260323    22:27:08       3    147     36     45 
 20260323    22:27:38       0    138     35     42 
 20260323    22:27:38       1    150     36     45 
 20260323    22:27:38       2    145     38     46 
 20260323    22:27:38       3    147     35     44 
 20260323    22:28:08       0    128     35     41 
 20260323    22:28:08       1    139     36     45 
 20260323    22:28:08       2    135     37     44 
 20260323    22:28:08       3    137     34     43 
#Date        Time         gpu    pwr  gtemp  mtemp 
#YYYYMMDD    HH:MM:SS     Idx      W      C      C 
 20260323    22:28:38       0    128     35     41 
 20260323    22:28:38       1    139     36     44 
 20260323    22:28:38       2    135     37     44 
 20260323    22:28:38       3    137     34     43 
 20260323    22:29:08       0    128     35     41 
 20260323    22:29:08       1    139     36     45 
 20260323    22:29:08       2    135     37     44 
 20260323    22:29:08       3    137     34     43 
 20260323    22:29:38       0    128     35     41 
 20260323    22:29:38       1    139     36     43 
 20260323    22:29:38       2    135     37     44 
 20260323    22:29:38       3    137     34     43 
 20260323    22:30:08       0    128     35     41 
 20260323    22:30:08       1    138     36     44 
 20260323    22:30:08       2    134     37     44 
 20260323    22:30:08       3    137     34     43 
 20260323    22:30:38       0    128     35     41 
 20260323    22:30:38       1    139     36     43 
 20260323    22:30:38       2    135     37     44 
 20260323    22:30:38       3    136     34     43 
 20260323    22:31:08       0    128     35     41 
 20260323    22:31:08       1    138     36     44 
 20260323    22:31:08       2    135     37     44 
 20260323    22:31:08       3    136     34     43 
 20260323    22:31:38       0    139     35     42 
 20260323    22:31:38       1    152     36     45 
 20260323    22:31:38       2    146     38     46 
 20260323    22:31:38       3    148     35     43 
