 vasp.6.5.1 10Mar25 (build Mar 18 2026 11:13:34) gamma-only                      
 executed on              LinuxNV date 2026.03.21  07:41:13
 running   64 mpi-ranks, with    8 threads/rank, on    2 nodes
 distrk:  each k-point on   64 cores,    1 groups
 distr:  one band on NCORE=   1 cores,   64 groups
 Offloading initialized ...    8 GPUs detected


--------------------------------------------------------------------------------------------------------


 INCAR:
   SYSTEM = TiO2
   NWRITE = 1     verbosity write-flag
   ISTART = 0     0-new 1-cont 2-samecut job
   ISPIN = 1     1-no, 2-yes
   PREC = Accurate   *
   NELM = 10       max.
   EDIFF = 1.0e-7    stopping-criterion for electronic upd.
   ENCUT = 750
   NSW = 0   *
   IBRION = -1   *  ionic relax: -1:no move
   ISYM = 0      symmetry:0-OFF, 1-ON,2-ON+memory conserving for CD
   POTIM = 0.5   *  for MD, timestep in femtoseconds, for relaxation, a step-size scaling factor
   IWAVPR = 0     * wavefunction is extrapolated forward to new ion positions (0\=no,>10 runs in memory, <10 in temporary file, 1\=simple, 2\=more advanced, 3\=mix of 1 and 2)
   ISMEAR = 0     *  part. occup.:-5 Blochl,-4 tet,-3,-2,-1-fermi,0-Gauss,>0MP
   SIGMA = 0.10   *  broadening in eV -4 tet -1-fermi 0-gauss
   IALGO = 48    * algorithm: use only 8 (CG) or 48 (RMM-DIIS)
   LREAL = .TRUE. * non-local projectors in real space+automatic optim
   GGA = 91
   LWAVE = .F.     * write WAVECAR
   LCHARG = .F.     * write CHGCAR and CHG
   LVTOT = .F.      * write the local potential LOCPOT
   LELF = .FALSE.   create ELFCAR file
   LPLANE = .TRUE.
   NSIM = 4
   NCORE = 1

 POTCAR:   PAW_GGA Ti_sv 07Sep2000                
 POTCAR:   PAW_GGA O 05Jan2001                    
 POTCAR:   PAW_GGA Ti_sv 07Sep2000                
  local pseudopotential read in
  partial core-charges read in
  atomic valenz-charges read in
  non local Contribution for L=            0  read in
    real space projection operators read in
  non local Contribution for L=            0  read in
    real space projection operators read in
  non local Contribution for L=            1  read in
    real space projection operators read in
  non local Contribution for L=            1  read in
    real space projection operators read in
  non local Contribution for L=            2  read in
    real space projection operators read in
  non local Contribution for L=            2  read in
    real space projection operators read in
    PAW grid and wavefunctions read in
 
   number of l-projection  operators is LMAX  =            6
   number of lm-projection operators is LMMAX =           18
 
 POTCAR:   PAW_GGA O 05Jan2001                    
  local pseudopotential read in
  atomic valenz-charges read in
  non local Contribution for L=            0  read in
    real space projection operators read in
  non local Contribution for L=            0  read in
    real space projection operators read in
  non local Contribution for L=            1  read in
    real space projection operators read in
  non local Contribution for L=            1  read in
    real space projection operators read in
    PAW grid and wavefunctions read in
 
   number of l-projection  operators is LMAX  =            4
   number of lm-projection operators is LMMAX =            8
 
 PAW_GGA Ti_sv 07Sep2000                :
 energy of atom  1       EATOM=-1589.1200
 kinetic energy error for atom=    0.0010 (will be added to EATOM!!)
 PAW_GGA O 05Jan2001                    :
 energy of atom  2       EATOM= -433.0277
 kinetic energy error for atom=    0.0059 (will be added to EATOM!!)
 
 
 POSCAR: TeraGrid TiO2 Benchmark, Doubled in X di
  positions in cartesian coordinates
  velocities in cartesian coordinates
  No initial velocities read in


 exchange-correlation table for 91
   RHO(1)=    0.500       N(1)  =     2000
   RHO(2)=  100.500       N(2)  =     4000
 


--------------------------------------------------------------------------------------------------------


 ion  position               nearest neighbor table
     1  0.000  0.000  0.268-   377 1.84   365 1.96   849 1.96   528 1.96  1012 1.96
     2  0.500  0.000  0.268-   378 1.84   527 1.96  1011 1.96   850 1.96   366 1.96
     3  0.083  0.000  0.268-   379 1.84   367 1.96   851 1.96   849 1.96   365 1.96
     4  0.583  0.000  0.268-   380 1.84   368 1.96   852 1.96   850 1.96   366 1.96
     5  0.042  0.167  0.256-   361 1.85   363 1.85   365 2.06   369 2.06   373 2.10   375 2.10
     6  0.542  0.167  0.256-   362 1.85   364 1.85   366 2.06   370 2.06   374 2.10   376 2.10
     7  0.125  0.167  0.256-   363 1.85   441 1.85   367 2.06   371 2.06   375 2.10   453 2.10
     8  0.625  0.167  0.256-   364 1.85   442 1.85   368 2.06   372 2.06   376 2.10   454 2.10
     9  0.000  0.167  0.377-   373 1.89   385 1.99   381 1.99   548 1.99   544 1.99   393 2.10
    10  0.500  0.167  0.377-   374 1.89   547 1.99   543 1.99   386 1.99   382 1.99   394 2.10
    11  0.083  0.167  0.377-   375 1.89   387 1.99   383 1.99   385 1.99   381 1.99   395 2.10
    12  0.583  0.167  0.377-   376 1.89   388 1.99   384 1.99   386 1.99   382 1.99   396 2.10
    13  0.042  0.000  0.384-   389 1.92   391 1.92   385 1.98   861 1.98   377 2.02   379 2.02
    14  0.542  0.000  0.384-   390 1.92   392 1.92   386 1.98   862 1.98   378 2.02   380 2.02
    15  0.125  0.000  0.384-   391 1.92   469 1.92   387 1.98   863 1.98   379 2.02   457 2.02
    16  0.625  0.000  0.384-   392 1.92   470 1.92   388 1.98   864 1.98   380 2.02   458 2.02
    17  0.000  0.000  0.500-   397 1.97   881 1.97   560 1.97  1044 1.97   409 2.01   389 2.01
    18  0.500  0.000  0.500-   559 1.97  1043 1.97   882 1.97   398 1.97   410 2.01   390 2.01
    19  0.083  0.000  0.500-   399 1.97   883 1.97   881 1.97   397 1.97   411 2.01   391 2.01
    20  0.583  0.000  0.500-   400 1.97   884 1.97   882 1.97   398 1.97   412 2.01   392 2.01
    21  0.042  0.167  0.500-   405 1.97   407 1.97   393 1.97   395 1.97   397 2.00   401 2.00
    22  0.542  0.167  0.500-   406 1.97   408 1.97   394 1.97   396 1.97   398 2.00   402 2.00
    23  0.125  0.167  0.500-   407 1.97   485 1.97   473 1.97   395 1.97   399 2.00   403 2.00
    24  0.625  0.167  0.500-   408 1.97   396 1.97   486 1.97   474 1.97   400 2.00   404 2.00
    25  0.000  0.167  0.623-   425 1.89   417 1.99   413 1.99   580 1.99   576 1.99   405 2.10
    26  0.500  0.167  0.623-   426 1.89   579 1.99   575 1.99   418 1.99   414 1.99   406 2.10
    27  0.083  0.167  0.623-   427 1.89   419 1.99   415 1.99   417 1.99   413 1.99   407 2.10
    28  0.583  0.167  0.623-   428 1.89   420 1.99   416 1.99   418 1.99   414 1.99   408 2.10
    29  0.042  0.000  0.616-   409 1.92   411 1.92   417 1.98   893 1.98   421 2.02   423 2.02
    30  0.542  0.000  0.616-   410 1.92   412 1.92   418 1.98   894 1.98   422 2.02   424 2.02
    31  0.125  0.000  0.616-   411 1.92   489 1.92   419 1.98   895 1.98   501 2.02   423 2.02
    32  0.625  0.000  0.616-   412 1.92   490 1.92   420 1.98   896 1.98   424 2.02   502 2.02
    33  0.000  0.000  0.732-   421 1.84   429 1.96   913 1.96   592 1.96  1076 1.96
    34  0.500  0.000  0.732-   422 1.84   591 1.96  1075 1.96   914 1.96   430 1.96
    35  0.083  0.000  0.732-   423 1.84   431 1.96   915 1.96   913 1.96   429 1.96
    36  0.583  0.000  0.732-   424 1.84   432 1.96   916 1.96   914 1.96   430 1.96
    37  0.042  0.167  0.744-   437 1.85   439 1.85   429 2.06   433 2.06   425 2.10   427 2.10
    38  0.542  0.167  0.744-   438 1.85   440 1.85   430 2.06   434 2.06   426 2.10   428 2.10
    39  0.125  0.167  0.744-   439 1.85   517 1.85   431 2.06   435 2.06   505 2.10   427 2.10
    40  0.625  0.167  0.744-   440 1.85   518 1.85   432 2.06   436 2.06   428 2.10   506 2.10
    41  0.167  0.000  0.268-   457 1.84   367 1.96   851 1.96   445 1.96   929 1.96
    42  0.667  0.000  0.268-   458 1.84   446 1.96   930 1.96   852 1.96   368 1.96
    43  0.250  0.000  0.268-   459 1.84   447 1.96   445 1.96   929 1.96   931 1.96
    44  0.750  0.000  0.268-   460 1.84   448 1.96   932 1.96   930 1.96   446 1.96
    45  0.208  0.167  0.256-   443 1.85   441 1.85   445 2.06   449 2.06   455 2.10   453 2.10
    46  0.708  0.167  0.256-   442 1.85   444 1.85   446 2.06   450 2.06   454 2.10   456 2.10
    47  0.292  0.167  0.256-   443 1.85   521 1.85   447 2.06   451 2.06   455 2.10   533 2.10
    48  0.792  0.167  0.256-   444 1.85   522 1.85   448 2.06   452 2.06   456 2.10   534 2.10
    49  0.167  0.167  0.377-   453 1.89   387 1.99   383 1.99   465 1.99   461 1.99   473 2.10
    50  0.667  0.167  0.377-   454 1.89   466 1.99   462 1.99   388 1.99   384 1.99   474 2.10
    51  0.250  0.167  0.377-   455 1.89   465 1.99   467 1.99   461 1.99   463 1.99   475 2.10
    52  0.750  0.167  0.377-   456 1.89   468 1.99   464 1.99   466 1.99   462 1.99   476 2.10
    53  0.208  0.000  0.384-   471 1.92   469 1.92   465 1.98   941 1.98   459 2.02   457 2.02
    54  0.708  0.000  0.384-   470 1.92   472 1.92   466 1.98   942 1.98   458 2.02   460 2.02
    55  0.292  0.000  0.384-   471 1.92   549 1.92   467 1.98   943 1.98   459 2.02   537 2.02
    56  0.792  0.000  0.384-   472 1.92   550 1.92   468 1.98   944 1.98   460 2.02   538 2.02
    57  0.167  0.000  0.500-   399 1.97   883 1.97   477 1.97   961 1.97   489 2.01   469 2.01
    58  0.667  0.000  0.500-   478 1.97   962 1.97   884 1.97   400 1.97   490 2.01   470 2.01
    59  0.250  0.000  0.500-   477 1.97   479 1.97   961 1.97   963 1.97   491 2.01   471 2.01
    60  0.750  0.000  0.500-   480 1.97   964 1.97   962 1.97   478 1.97   492 2.01   472 2.01
    61  0.208  0.167  0.500-   487 1.97   485 1.97   475 1.97   473 1.97   477 2.00   481 2.00
    62  0.708  0.167  0.500-   486 1.97   474 1.97   488 1.97   476 1.97   478 2.00   482 2.00
    63  0.292  0.167  0.500-   487 1.97   565 1.97   475 1.97   553 1.97   479 2.00   483 2.00
    64  0.792  0.167  0.500-   488 1.97   476 1.97   566 1.97   554 1.97   480 2.00   484 2.00
    65  0.167  0.167  0.623-   505 1.89   419 1.99   415 1.99   497 1.99   493 1.99   485 2.10
    66  0.667  0.167  0.623-   506 1.89   498 1.99   494 1.99   420 1.99   416 1.99   486 2.10
    67  0.250  0.167  0.623-   507 1.89   499 1.99   497 1.99   495 1.99   493 1.99   487 2.10
    68  0.750  0.167  0.623-   508 1.89   500 1.99   496 1.99   498 1.99   494 1.99   488 2.10
    69  0.208  0.000  0.616-   491 1.92   489 1.92   497 1.98   973 1.98   503 2.02   501 2.02
    70  0.708  0.000  0.616-   490 1.92   492 1.92   498 1.98   974 1.98   502 2.02   504 2.02
    71  0.292  0.000  0.616-   491 1.92   569 1.92   499 1.98   975 1.98   503 2.02   581 2.02
    72  0.792  0.000  0.616-   492 1.92   570 1.92   500 1.98   976 1.98   504 2.02   582 2.02
    73  0.167  0.000  0.732-   501 1.84   431 1.96   915 1.96   509 1.96   993 1.96
    74  0.667  0.000  0.732-   502 1.84   510 1.96   994 1.96   916 1.96   432 1.96
    75  0.250  0.000  0.732-   503 1.84   509 1.96   511 1.96   993 1.96   995 1.96
    76  0.750  0.000  0.732-   504 1.84   512 1.96   996 1.96   994 1.96   510 1.96
    77  0.208  0.167  0.744-   519 1.85   517 1.85   509 2.06   513 2.06   507 2.10   505 2.10
    78  0.708  0.167  0.744-   518 1.85   520 1.85   510 2.06   514 2.06   506 2.10   508 2.10
    79  0.292  0.167  0.744-   519 1.85   597 1.85   511 2.06   515 2.06   507 2.10   585 2.10
    80  0.792  0.167  0.744-   520 1.85   598 1.85   512 2.06   516 2.06   508 2.10   586 2.10
    81  0.333  0.000  0.268-   537 1.84   525 1.96  1009 1.96   931 1.96   447 1.96
    82  0.833  0.000  0.268-   538 1.84   526 1.96  1010 1.96   932 1.96   448 1.96
    83  0.417  0.000  0.268-   539 1.84   525 1.96  1009 1.96   527 1.96  1011 1.96
    84  0.917  0.000  0.268-   540 1.84   528 1.96  1012 1.96  1010 1.96   526 1.96
    85  0.375  0.167  0.256-   521 1.85   523 1.85   525 2.06   529 2.06   533 2.10   535 2.10
    86  0.875  0.167  0.256-   522 1.85   524 1.85   526 2.06   530 2.06   534 2.10   536 2.10
    87  0.458  0.167  0.256-   362 1.85   523 1.85   527 2.06   531 2.06   374 2.10   535 2.10
    88  0.958  0.167  0.256-   524 1.85   361 1.85   528 2.06   532 2.06   536 2.10   373 2.10
    89  0.333  0.167  0.377-   533 1.89   545 1.99   541 1.99   467 1.99   463 1.99   553 2.10
    90  0.833  0.167  0.377-   534 1.89   546 1.99   542 1.99   468 1.99   464 1.99   554 2.10
    91  0.417  0.167  0.377-   535 1.89   545 1.99   541 1.99   547 1.99   543 1.99   555 2.10
    92  0.917  0.167  0.377-   536 1.89   548 1.99   544 1.99   546 1.99   542 1.99   556 2.10
    93  0.375  0.000  0.384-   549 1.92   551 1.92   545 1.98  1021 1.98   537 2.02   539 2.02
    94  0.875  0.000  0.384-   550 1.92   552 1.92   546 1.98  1022 1.98   538 2.02   540 2.02
    95  0.458  0.000  0.384-   390 1.92   551 1.92   547 1.98  1023 1.98   378 2.02   539 2.02
    96  0.958  0.000  0.384-   552 1.92   389 1.92   548 1.98  1024 1.98   540 2.02   377 2.02
    97  0.333  0.000  0.500-   557 1.97  1041 1.97   963 1.97   479 1.97   569 2.01   549 2.01
    98  0.833  0.000  0.500-   558 1.97  1042 1.97   964 1.97   480 1.97   570 2.01   550 2.01
    99  0.417  0.000  0.500-   557 1.97  1041 1.97   559 1.97  1043 1.97   571 2.01   551 2.01
   100  0.917  0.000  0.500-   560 1.97  1044 1.97  1042 1.97   558 1.97   572 2.01   552 2.01
   101  0.375  0.167  0.500-   565 1.97   567 1.97   553 1.97   555 1.97   557 2.00   561 2.00
   102  0.875  0.167  0.500-   566 1.97   554 1.97   568 1.97   556 1.97   558 2.00   562 2.00
   103  0.458  0.167  0.500-   406 1.97   394 1.97   567 1.97   555 1.97   559 2.00   563 2.00
   104  0.958  0.167  0.500-   568 1.97   556 1.97   405 1.97   393 1.97   560 2.00   564 2.00
   105  0.333  0.167  0.623-   585 1.89   577 1.99   573 1.99   499 1.99   495 1.99   565 2.10
   106  0.833  0.167  0.623-   586 1.89   578 1.99   574 1.99   500 1.99   496 1.99   566 2.10
   107  0.417  0.167  0.623-   587 1.89   577 1.99   573 1.99   579 1.99   575 1.99   567 2.10
   108  0.917  0.167  0.623-   588 1.89   580 1.99   576 1.99   578 1.99   574 1.99   568 2.10
   109  0.375  0.000  0.616-   569 1.92   571 1.92   577 1.98  1053 1.98   583 2.02   581 2.02
   110  0.875  0.000  0.616-   570 1.92   572 1.92   578 1.98  1054 1.98   582 2.02   584 2.02
   111  0.458  0.000  0.616-   410 1.92   571 1.92   579 1.98  1055 1.98   422 2.02   583 2.02
   112  0.958  0.000  0.616-   572 1.92   409 1.92   580 1.98  1056 1.98   584 2.02   421 2.02
   113  0.333  0.000  0.732-   581 1.84   589 1.96  1073 1.96   995 1.96   511 1.96
   114  0.833  0.000  0.732-   582 1.84   590 1.96  1074 1.96   996 1.96   512 1.96
   115  0.417  0.000  0.732-   583 1.84   589 1.96  1073 1.96   591 1.96  1075 1.96
   116  0.917  0.000  0.732-   584 1.84   592 1.96  1076 1.96  1074 1.96   590 1.96
   117  0.375  0.167  0.744-   597 1.85   599 1.85   589 2.06   593 2.06   585 2.10   587 2.10
   118  0.875  0.167  0.744-   598 1.85   600 1.85   590 2.06   594 2.06   586 2.10   588 2.10
   119  0.458  0.167  0.744-   438 1.85   599 1.85   591 2.06   595 2.06   426 2.10   587 2.10
   120  0.958  0.167  0.744-   600 1.85   437 1.85   592 2.06   596 2.06   588 2.10   425 2.10
   121  0.000  0.333  0.268-   617 1.84   605 1.96   369 1.96   532 1.96   768 1.96
   122  0.500  0.333  0.268-   618 1.84   531 1.96   767 1.96   370 1.96   606 1.96
   123  0.083  0.333  0.268-   619 1.84   607 1.96   371 1.96   369 1.96   605 1.96
   124  0.583  0.333  0.268-   620 1.84   608 1.96   372 1.96   370 1.96   606 1.96
   125  0.042  0.500  0.256-   601 1.85   603 1.85   605 2.06   609 2.06   613 2.10   615 2.10
   126  0.542  0.500  0.256-   602 1.85   604 1.85   606 2.06   610 2.06   614 2.10   616 2.10
   127  0.125  0.500  0.256-   603 1.85   681 1.85   611 2.06   607 2.06   615 2.10   693 2.10
   128  0.625  0.500  0.256-   604 1.85   682 1.85   612 2.06   608 2.06   616 2.10   694 2.10
   129  0.000  0.500  0.377-   613 1.89   621 1.99   625 1.99   784 1.99   788 1.99   633 2.10
   130  0.500  0.500  0.377-   614 1.89   783 1.99   787 1.99   622 1.99   626 1.99   634 2.10
   131  0.083  0.500  0.377-   615 1.89   623 1.99   627 1.99   625 1.99   621 1.99   635 2.10
   132  0.583  0.500  0.377-   616 1.89   624 1.99   628 1.99   626 1.99   622 1.99   636 2.10
   133  0.042  0.333  0.384-   629 1.92   631 1.92   625 1.98   381 1.98   617 2.02   619 2.02
   134  0.542  0.333  0.384-   630 1.92   632 1.92   626 1.98   382 1.98   618 2.02   620 2.02
   135  0.125  0.333  0.384-   631 1.92   709 1.92   627 1.98   383 1.98   697 2.02   619 2.02
   136  0.625  0.333  0.384-   632 1.92   710 1.92   628 1.98   384 1.98   620 2.02   698 2.02
   137  0.000  0.333  0.500-   401 1.97   637 1.97   564 1.97   800 1.97   649 2.01   629 2.01
   138  0.500  0.333  0.500-   563 1.97   799 1.97   638 1.97   402 1.97   650 2.01   630 2.01
   139  0.083  0.333  0.500-   403 1.97   639 1.97   637 1.97   401 1.97   651 2.01   631 2.01
   140  0.583  0.333  0.500-   404 1.97   640 1.97   638 1.97   402 1.97   652 2.01   632 2.01
   141  0.042  0.500  0.500-   645 1.97   647 1.97   633 1.97   635 1.97   637 2.00   641 2.00
   142  0.542  0.500  0.500-   646 1.97   648 1.97   634 1.97   636 1.97   638 2.00   642 2.00
   143  0.125  0.500  0.500-   647 1.97   725 1.97   713 1.97   635 1.97   643 2.00   639 2.00
   144  0.625  0.500  0.500-   648 1.97   636 1.97   726 1.97   714 1.97   644 2.00   640 2.00
   145  0.000  0.500  0.623-   665 1.89   657 1.99   653 1.99   816 1.99   820 1.99   645 2.10
   146  0.500  0.500  0.623-   666 1.89   815 1.99   819 1.99   658 1.99   654 1.99   646 2.10
   147  0.083  0.500  0.623-   667 1.89   659 1.99   655 1.99   653 1.99   657 1.99   647 2.10
   148  0.583  0.500  0.623-   668 1.89   660 1.99   656 1.99   654 1.99   658 1.99   648 2.10
   149  0.042  0.333  0.616-   649 1.92   651 1.92   657 1.98   413 1.98   661 2.02   663 2.02
   150  0.542  0.333  0.616-   650 1.92   652 1.92   658 1.98   414 1.98   662 2.02   664 2.02
   151  0.125  0.333  0.616-   651 1.92   729 1.92   659 1.98   415 1.98   663 2.02   741 2.02
   152  0.625  0.333  0.616-   652 1.92   730 1.92   660 1.98   416 1.98   664 2.02   742 2.02
   153  0.000  0.333  0.732-   661 1.84   433 1.96   669 1.96   596 1.96   832 1.96
   154  0.500  0.333  0.732-   662 1.84   595 1.96   831 1.96   670 1.96   434 1.96
   155  0.083  0.333  0.732-   663 1.84   435 1.96   671 1.96   669 1.96   433 1.96
   156  0.583  0.333  0.732-   664 1.84   436 1.96   672 1.96   670 1.96   434 1.96
   157  0.042  0.500  0.744-   677 1.85   679 1.85   669 2.06   673 2.06   665 2.10   667 2.10
   158  0.542  0.500  0.744-   678 1.85   680 1.85   670 2.06   674 2.06   666 2.10   668 2.10
   159  0.125  0.500  0.744-   679 1.85   757 1.85   671 2.06   675 2.06   745 2.10   667 2.10
   160  0.625  0.500  0.744-   680 1.85   758 1.85   672 2.06   676 2.06   668 2.10   746 2.10
   161  0.167  0.333  0.268-   697 1.84   607 1.96   371 1.96   685 1.96   449 1.96
   162  0.667  0.333  0.268-   698 1.84   686 1.96   450 1.96   372 1.96   608 1.96
   163  0.250  0.333  0.268-   699 1.84   451 1.96   685 1.96   687 1.96   449 1.96
   164  0.750  0.333  0.268-   700 1.84   688 1.96   452 1.96   450 1.96   686 1.96
   165  0.208  0.500  0.256-   683 1.85   681 1.85   685 2.06   689 2.06   695 2.10   693 2.10
   166  0.708  0.500  0.256-   682 1.85   684 1.85   686 2.06   690 2.06   694 2.10   696 2.10
   167  0.292  0.500  0.256-   683 1.85   761 1.85   691 2.06   687 2.06   695 2.10   773 2.10
   168  0.792  0.500  0.256-   684 1.85   762 1.85   692 2.06   688 2.06   696 2.10   774 2.10
   169  0.167  0.500  0.377-   693 1.89   627 1.99   623 1.99   701 1.99   705 1.99   713 2.10
   170  0.667  0.500  0.377-   694 1.89   702 1.99   706 1.99   628 1.99   624 1.99   714 2.10
   171  0.250  0.500  0.377-   695 1.89   701 1.99   703 1.99   705 1.99   707 1.99   715 2.10
   172  0.750  0.500  0.377-   696 1.89   704 1.99   708 1.99   706 1.99   702 1.99   716 2.10
   173  0.208  0.333  0.384-   711 1.92   709 1.92   705 1.98   461 1.98   699 2.02   697 2.02
   174  0.708  0.333  0.384-   710 1.92   712 1.92   706 1.98   462 1.98   698 2.02   700 2.02
   175  0.292  0.333  0.384-   711 1.92   789 1.92   707 1.98   463 1.98   699 2.02   777 2.02
   176  0.792  0.333  0.384-   712 1.92   790 1.92   708 1.98   464 1.98   700 2.02   778 2.02
   177  0.167  0.333  0.500-   403 1.97   639 1.97   481 1.97   717 1.97   729 2.01   709 2.01
   178  0.667  0.333  0.500-   482 1.97   718 1.97   640 1.97   404 1.97   730 2.01   710 2.01
   179  0.250  0.333  0.500-   481 1.97   483 1.97   717 1.97   719 1.97   731 2.01   711 2.01
   180  0.750  0.333  0.500-   484 1.97   720 1.97   718 1.97   482 1.97   732 2.01   712 2.01
   181  0.208  0.500  0.500-   727 1.97   725 1.97   715 1.97   713 1.97   717 2.00   721 2.00
   182  0.708  0.500  0.500-   726 1.97   714 1.97   728 1.97   716 1.97   718 2.00   722 2.00
   183  0.292  0.500  0.500-   727 1.97   805 1.97   715 1.97   793 1.97   723 2.00   719 2.00
   184  0.792  0.500  0.500-   728 1.97   716 1.97   806 1.97   794 1.97   724 2.00   720 2.00
   185  0.167  0.500  0.623-   745 1.89   659 1.99   655 1.99   737 1.99   733 1.99   725 2.10
   186  0.667  0.500  0.623-   746 1.89   738 1.99   734 1.99   660 1.99   656 1.99   726 2.10
   187  0.250  0.500  0.623-   747 1.89   735 1.99   737 1.99   739 1.99   733 1.99   727 2.10
   188  0.750  0.500  0.623-   748 1.89   740 1.99   736 1.99   734 1.99   738 1.99   728 2.10
   189  0.208  0.333  0.616-   731 1.92   729 1.92   737 1.98   493 1.98   743 2.02   741 2.02
   190  0.708  0.333  0.616-   730 1.92   732 1.92   738 1.98   494 1.98   742 2.02   744 2.02
   191  0.292  0.333  0.616-   731 1.92   809 1.92   739 1.98   495 1.98   743 2.02   821 2.02
   192  0.792  0.333  0.616-   732 1.92   810 1.92   740 1.98   496 1.98   744 2.02   822 2.02
   193  0.167  0.333  0.732-   741 1.84   671 1.96   435 1.96   513 1.96   749 1.96
   194  0.667  0.333  0.732-   742 1.84   514 1.96   750 1.96   436 1.96   672 1.96
   195  0.250  0.333  0.732-   743 1.84   515 1.96   513 1.96   749 1.96   751 1.96
   196  0.750  0.333  0.732-   744 1.84   516 1.96   752 1.96   750 1.96   514 1.96
   197  0.208  0.500  0.744-   759 1.85   757 1.85   749 2.06   753 2.06   747 2.10   745 2.10
   198  0.708  0.500  0.744-   758 1.85   760 1.85   750 2.06   754 2.06   746 2.10   748 2.10
   199  0.292  0.500  0.744-   759 1.85   837 1.85   751 2.06   755 2.06   747 2.10   825 2.10
   200  0.792  0.500  0.744-   760 1.85   838 1.85   752 2.06   756 2.06   748 2.10   826 2.10
   201  0.333  0.333  0.268-   777 1.84   765 1.96   529 1.96   451 1.96   687 1.96
   202  0.833  0.333  0.268-   778 1.84   766 1.96   530 1.96   452 1.96   688 1.96
   203  0.417  0.333  0.268-   779 1.84   765 1.96   529 1.96   767 1.96   531 1.96
   204  0.917  0.333  0.268-   780 1.84   768 1.96   532 1.96   530 1.96   766 1.96
   205  0.375  0.500  0.256-   761 1.85   763 1.85   765 2.06   769 2.06   773 2.10   775 2.10
   206  0.875  0.500  0.256-   762 1.85   764 1.85   766 2.06   770 2.06   774 2.10   776 2.10
   207  0.458  0.500  0.256-   602 1.85   763 1.85   767 2.06   771 2.06   614 2.10   775 2.10
   208  0.958  0.500  0.256-   764 1.85   601 1.85   768 2.06   772 2.06   776 2.10   613 2.10
   209  0.333  0.500  0.377-   773 1.89   781 1.99   785 1.99   707 1.99   703 1.99   793 2.10
   210  0.833  0.500  0.377-   774 1.89   782 1.99   786 1.99   708 1.99   704 1.99   794 2.10
   211  0.417  0.500  0.377-   775 1.89   781 1.99   785 1.99   783 1.99   787 1.99   795 2.10
   212  0.917  0.500  0.377-   776 1.89   784 1.99   788 1.99   786 1.99   782 1.99   796 2.10
   213  0.375  0.333  0.384-   789 1.92   791 1.92   785 1.98   541 1.98   779 2.02   777 2.02
   214  0.875  0.333  0.384-   790 1.92   792 1.92   786 1.98   542 1.98   778 2.02   780 2.02
   215  0.458  0.333  0.384-   630 1.92   791 1.92   787 1.98   543 1.98   618 2.02   779 2.02
   216  0.958  0.333  0.384-   792 1.92   629 1.92   788 1.98   544 1.98   780 2.02   617 2.02
   217  0.333  0.333  0.500-   561 1.97   797 1.97   719 1.97   483 1.97   809 2.01   789 2.01
   218  0.833  0.333  0.500-   562 1.97   798 1.97   720 1.97   484 1.97   810 2.01   790 2.01
   219  0.417  0.333  0.500-   561 1.97   797 1.97   563 1.97   799 1.97   811 2.01   791 2.01
   220  0.917  0.333  0.500-   564 1.97   800 1.97   798 1.97   562 1.97   812 2.01   792 2.01
   221  0.375  0.500  0.500-   805 1.97   807 1.97   793 1.97   795 1.97   797 2.00   801 2.00
   222  0.875  0.500  0.500-   806 1.97   794 1.97   808 1.97   796 1.97   798 2.00   802 2.00
   223  0.458  0.500  0.500-   646 1.97   634 1.97   807 1.97   795 1.97   803 2.00   799 2.00
   224  0.958  0.500  0.500-   808 1.97   796 1.97   645 1.97   633 1.97   804 2.00   800 2.00
   225  0.333  0.500  0.623-   825 1.89   817 1.99   813 1.99   739 1.99   735 1.99   805 2.10
   226  0.833  0.500  0.623-   826 1.89   818 1.99   814 1.99   740 1.99   736 1.99   806 2.10
   227  0.417  0.500  0.623-   827 1.89   817 1.99   813 1.99   819 1.99   815 1.99   807 2.10
   228  0.917  0.500  0.623-   828 1.89   820 1.99   816 1.99   814 1.99   818 1.99   808 2.10
   229  0.375  0.333  0.616-   809 1.92   811 1.92   817 1.98   573 1.98   821 2.02   823 2.02
   230  0.875  0.333  0.616-   810 1.92   812 1.92   818 1.98   574 1.98   822 2.02   824 2.02
   231  0.458  0.333  0.616-   650 1.92   811 1.92   819 1.98   575 1.98   662 2.02   823 2.02
   232  0.958  0.333  0.616-   812 1.92   649 1.92   820 1.98   576 1.98   824 2.02   661 2.02
   233  0.333  0.333  0.732-   821 1.84   593 1.96   829 1.96   515 1.96   751 1.96
   234  0.833  0.333  0.732-   822 1.84   594 1.96   830 1.96   516 1.96   752 1.96
   235  0.417  0.333  0.732-   823 1.84   593 1.96   829 1.96   595 1.96   831 1.96
   236  0.917  0.333  0.732-   824 1.84   596 1.96   832 1.96   830 1.96   594 1.96
   237  0.375  0.500  0.744-   837 1.85   839 1.85   829 2.06   833 2.06   825 2.10   827 2.10
   238  0.875  0.500  0.744-   838 1.85   840 1.85   830 2.06   834 2.06   826 2.10   828 2.10
   239  0.458  0.500  0.744-   678 1.85   839 1.85   835 2.06   831 2.06   666 2.10   827 2.10
   240  0.958  0.500  0.744-   840 1.85   677 1.85   836 2.06   832 2.06   828 2.10   665 2.10
   241  0.000  0.667  0.268-   857 1.84   845 1.96   609 1.96   772 1.96  1008 1.96
   242  0.500  0.667  0.268-   858 1.84   771 1.96  1007 1.96   610 1.96   846 1.96
   243  0.083  0.667  0.268-   859 1.84   847 1.96   611 1.96   609 1.96   845 1.96
   244  0.583  0.667  0.268-   860 1.84   848 1.96   612 1.96   610 1.96   846 1.96
   245  0.042  0.833  0.256-   841 1.85   843 1.85   849 2.06   845 2.06   853 2.10   855 2.10
   246  0.542  0.833  0.256-   842 1.85   844 1.85   850 2.06   846 2.06   854 2.10   856 2.10
   247  0.125  0.833  0.256-   843 1.85   921 1.85   851 2.06   847 2.06   855 2.10   933 2.10
   248  0.625  0.833  0.256-   844 1.85   922 1.85   852 2.06   848 2.06   856 2.10   934 2.10
   249  0.000  0.833  0.377-   853 1.89   861 1.99   865 1.99  1024 1.99  1028 1.99   873 2.10
   250  0.500  0.833  0.377-   854 1.89  1023 1.99  1027 1.99   862 1.99   866 1.99   874 2.10
   251  0.083  0.833  0.377-   855 1.89   863 1.99   867 1.99   861 1.99   865 1.99   875 2.10
   252  0.583  0.833  0.377-   856 1.89   864 1.99   868 1.99   862 1.99   866 1.99   876 2.10
   253  0.042  0.667  0.384-   869 1.92   871 1.92   621 1.98   865 1.98   857 2.02   859 2.02
   254  0.542  0.667  0.384-   870 1.92   872 1.92   622 1.98   866 1.98   858 2.02   860 2.02
   255  0.125  0.667  0.384-   871 1.92   949 1.92   623 1.98   867 1.98   937 2.02   859 2.02
   256  0.625  0.667  0.384-   872 1.92   950 1.92   624 1.98   868 1.98   860 2.02   938 2.02
   257  0.000  0.667  0.500-   641 1.97   877 1.97   804 1.97  1040 1.97   889 2.01   869 2.01
   258  0.500  0.667  0.500-   803 1.97  1039 1.97   878 1.97   642 1.97   890 2.01   870 2.01
   259  0.083  0.667  0.500-   643 1.97   879 1.97   877 1.97   641 1.97   891 2.01   871 2.01
   260  0.583  0.667  0.500-   644 1.97   880 1.97   878 1.97   642 1.97   892 2.01   872 2.01
   261  0.042  0.833  0.500-   885 1.97   887 1.97   873 1.97   875 1.97   881 2.00   877 2.00
   262  0.542  0.833  0.500-   886 1.97   888 1.97   874 1.97   876 1.97   882 2.00   878 2.00
   263  0.125  0.833  0.500-   887 1.97   965 1.97   953 1.97   875 1.97   883 2.00   879 2.00
   264  0.625  0.833  0.500-   888 1.97   876 1.97   966 1.97   954 1.97   884 2.00   880 2.00
   265  0.000  0.833  0.623-   905 1.89   893 1.99   897 1.99  1056 1.99  1060 1.99   885 2.10
   266  0.500  0.833  0.623-   906 1.89  1055 1.99  1059 1.99   894 1.99   898 1.99   886 2.10
   267  0.083  0.833  0.623-   907 1.89   895 1.99   899 1.99   893 1.99   897 1.99   887 2.10
   268  0.583  0.833  0.623-   908 1.89   896 1.99   900 1.99   894 1.99   898 1.99   888 2.10
   269  0.042  0.667  0.616-   889 1.92   891 1.92   653 1.98   897 1.98   901 2.02   903 2.02
   270  0.542  0.667  0.616-   890 1.92   892 1.92   654 1.98   898 1.98   902 2.02   904 2.02
   271  0.125  0.667  0.616-   891 1.92   969 1.92   655 1.98   899 1.98   903 2.02   981 2.02
   272  0.625  0.667  0.616-   892 1.92   970 1.92   656 1.98   900 1.98   904 2.02   982 2.02
   273  0.000  0.667  0.732-   901 1.84   673 1.96   909 1.96   836 1.96  1072 1.96
   274  0.500  0.667  0.732-   902 1.84   835 1.96  1071 1.96   910 1.96   674 1.96
   275  0.083  0.667  0.732-   903 1.84   675 1.96   911 1.96   909 1.96   673 1.96
   276  0.583  0.667  0.732-   904 1.84   676 1.96   912 1.96   910 1.96   674 1.96
   277  0.042  0.833  0.744-   917 1.85   919 1.85   913 2.06   909 2.06   905 2.10   907 2.10
   278  0.542  0.833  0.744-   918 1.85   920 1.85   914 2.06   910 2.06   906 2.10   908 2.10
   279  0.125  0.833  0.744-   919 1.85   997 1.85   915 2.06   911 2.06   985 2.10   907 2.10
   280  0.625  0.833  0.744-   920 1.85   998 1.85   916 2.06   912 2.06   908 2.10   986 2.10
   281  0.167  0.667  0.268-   937 1.84   847 1.96   611 1.96   925 1.96   689 1.96
   282  0.667  0.667  0.268-   938 1.84   926 1.96   690 1.96   612 1.96   848 1.96
   283  0.250  0.667  0.268-   939 1.84   691 1.96   925 1.96   927 1.96   689 1.96
   284  0.750  0.667  0.268-   940 1.84   928 1.96   692 1.96   690 1.96   926 1.96
   285  0.208  0.833  0.256-   923 1.85   921 1.85   929 2.06   925 2.06   935 2.10   933 2.10
   286  0.708  0.833  0.256-   922 1.85   924 1.85   930 2.06   926 2.06   934 2.10   936 2.10
   287  0.292  0.833  0.256-   923 1.85  1001 1.85   931 2.06   927 2.06   935 2.10  1013 2.10
   288  0.792  0.833  0.256-   924 1.85  1002 1.85   932 2.06   928 2.06   936 2.10  1014 2.10
   289  0.167  0.833  0.377-   933 1.89   863 1.99   867 1.99   941 1.99   945 1.99   953 2.10
   290  0.667  0.833  0.377-   934 1.89   942 1.99   946 1.99   864 1.99   868 1.99   954 2.10
   291  0.250  0.833  0.377-   935 1.89   941 1.99   943 1.99   945 1.99   947 1.99   955 2.10
   292  0.750  0.833  0.377-   936 1.89   944 1.99   948 1.99   942 1.99   946 1.99   956 2.10
   293  0.208  0.667  0.384-   951 1.92   949 1.92   701 1.98   945 1.98   939 2.02   937 2.02
   294  0.708  0.667  0.384-   950 1.92   952 1.92   702 1.98   946 1.98   938 2.02   940 2.02
   295  0.292  0.667  0.384-   951 1.92  1029 1.92   703 1.98   947 1.98   939 2.02  1017 2.02
   296  0.792  0.667  0.384-   952 1.92  1030 1.92   704 1.98   948 1.98   940 2.02  1018 2.02
   297  0.167  0.667  0.500-   643 1.97   879 1.97   721 1.97   957 1.97   969 2.01   949 2.01
   298  0.667  0.667  0.500-   722 1.97   958 1.97   880 1.97   644 1.97   970 2.01   950 2.01
   299  0.250  0.667  0.500-   721 1.97   723 1.97   957 1.97   959 1.97   971 2.01   951 2.01
   300  0.750  0.667  0.500-   724 1.97   960 1.97   958 1.97   722 1.97   972 2.01   952 2.01
   301  0.208  0.833  0.500-   967 1.97   965 1.97   955 1.97   953 1.97   961 2.00   957 2.00
   302  0.708  0.833  0.500-   966 1.97   954 1.97   968 1.97   956 1.97   962 2.00   958 2.00
   303  0.292  0.833  0.500-   967 1.97  1045 1.97   955 1.97  1033 1.97   963 2.00   959 2.00
   304  0.792  0.833  0.500-   968 1.97   956 1.97  1046 1.97  1034 1.97   964 2.00   960 2.00
   305  0.167  0.833  0.623-   985 1.89   895 1.99   899 1.99   973 1.99   977 1.99   965 2.10
   306  0.667  0.833  0.623-   986 1.89   974 1.99   978 1.99   896 1.99   900 1.99   966 2.10
   307  0.250  0.833  0.623-   987 1.89   975 1.99   973 1.99   979 1.99   977 1.99   967 2.10
   308  0.750  0.833  0.623-   988 1.89   976 1.99   980 1.99   974 1.99   978 1.99   968 2.10
   309  0.208  0.667  0.616-   971 1.92   969 1.92   733 1.98   977 1.98   983 2.02   981 2.02
   310  0.708  0.667  0.616-   970 1.92   972 1.92   734 1.98   978 1.98   982 2.02   984 2.02
   311  0.292  0.667  0.616-   971 1.92  1049 1.92   735 1.98   979 1.98   983 2.02  1061 2.02
   312  0.792  0.667  0.616-   972 1.92  1050 1.92   736 1.98   980 1.98   984 2.02  1062 2.02
   313  0.167  0.667  0.732-   981 1.84   911 1.96   675 1.96   753 1.96   989 1.96
   314  0.667  0.667  0.732-   982 1.84   754 1.96   990 1.96   676 1.96   912 1.96
   315  0.250  0.667  0.732-   983 1.84   755 1.96   753 1.96   989 1.96   991 1.96
   316  0.750  0.667  0.732-   984 1.84   756 1.96   992 1.96   990 1.96   754 1.96
   317  0.208  0.833  0.744-   999 1.85   997 1.85   993 2.06   989 2.06   987 2.10   985 2.10
   318  0.708  0.833  0.744-   998 1.85  1000 1.85   994 2.06   990 2.06   986 2.10   988 2.10
   319  0.292  0.833  0.744-   999 1.85  1077 1.85   995 2.06   991 2.06   987 2.10  1065 2.10
   320  0.792  0.833  0.744-  1000 1.85  1078 1.85   996 2.06   992 2.06   988 2.10  1066 2.10
   321  0.333  0.667  0.268-  1017 1.84  1005 1.96   769 1.96   691 1.96   927 1.96
   322  0.833  0.667  0.268-  1018 1.84  1006 1.96   770 1.96   692 1.96   928 1.96
   323  0.417  0.667  0.268-  1019 1.84  1005 1.96   769 1.96  1007 1.96   771 1.96
   324  0.917  0.667  0.268-  1020 1.84  1008 1.96   772 1.96   770 1.96  1006 1.96
   325  0.375  0.833  0.256-  1001 1.85  1003 1.85  1009 2.06  1005 2.06  1013 2.10  1015 2.10
   326  0.875  0.833  0.256-  1002 1.85  1004 1.85  1010 2.06  1006 2.06  1014 2.10  1016 2.10
   327  0.458  0.833  0.256-   842 1.85  1003 1.85  1011 2.06  1007 2.06   854 2.10  1015 2.10
   328  0.958  0.833  0.256-  1004 1.85   841 1.85  1012 2.06  1008 2.06  1016 2.10   853 2.10
   329  0.333  0.833  0.377-  1013 1.89  1021 1.99  1025 1.99   943 1.99   947 1.99  1033 2.10
   330  0.833  0.833  0.377-  1014 1.89  1022 1.99  1026 1.99   944 1.99   948 1.99  1034 2.10
   331  0.417  0.833  0.377-  1015 1.89  1021 1.99  1025 1.99  1023 1.99  1027 1.99  1035 2.10
   332  0.917  0.833  0.377-  1016 1.89  1024 1.99  1028 1.99  1022 1.99  1026 1.99  1036 2.10
   333  0.375  0.667  0.384-  1029 1.92  1031 1.92   781 1.98  1025 1.98  1019 2.02  1017 2.02
   334  0.875  0.667  0.384-  1030 1.92  1032 1.92   782 1.98  1026 1.98  1018 2.02  1020 2.02
   335  0.458  0.667  0.384-   870 1.92  1031 1.92   783 1.98  1027 1.98   858 2.02  1019 2.02
   336  0.958  0.667  0.384-  1032 1.92   869 1.92   784 1.98  1028 1.98  1020 2.02   857 2.02
   337  0.333  0.667  0.500-   801 1.97  1037 1.97   959 1.97   723 1.97  1049 2.01  1029 2.01
   338  0.833  0.667  0.500-   802 1.97  1038 1.97   960 1.97   724 1.97  1050 2.01  1030 2.01
   339  0.417  0.667  0.500-   801 1.97  1037 1.97   803 1.97  1039 1.97  1051 2.01  1031 2.01
   340  0.917  0.667  0.500-   804 1.97  1040 1.97  1038 1.97   802 1.97  1052 2.01  1032 2.01
   341  0.375  0.833  0.500-  1045 1.97  1047 1.97  1033 1.97  1035 1.97  1041 2.00  1037 2.00
   342  0.875  0.833  0.500-  1046 1.97  1034 1.97  1048 1.97  1036 1.97  1042 2.00  1038 2.00
   343  0.458  0.833  0.500-   886 1.97   874 1.97  1047 1.97  1035 1.97  1043 2.00  1039 2.00
   344  0.958  0.833  0.500-  1048 1.97  1036 1.97   885 1.97   873 1.97  1044 2.00  1040 2.00
   345  0.333  0.833  0.623-  1065 1.89  1053 1.99  1057 1.99   975 1.99   979 1.99  1045 2.10
   346  0.833  0.833  0.623-  1066 1.89  1054 1.99  1058 1.99   976 1.99   980 1.99  1046 2.10
   347  0.417  0.833  0.623-  1067 1.89  1053 1.99  1057 1.99  1055 1.99  1059 1.99  1047 2.10
   348  0.917  0.833  0.623-  1068 1.89  1056 1.99  1060 1.99  1054 1.99  1058 1.99  1048 2.10
   349  0.375  0.667  0.616-  1049 1.92  1051 1.92   813 1.98  1057 1.98  1061 2.02  1063 2.02
   350  0.875  0.667  0.616-  1050 1.92  1052 1.92   814 1.98  1058 1.98  1062 2.02  1064 2.02
   351  0.458  0.667  0.616-   890 1.92  1051 1.92   815 1.98  1059 1.98   902 2.02  1063 2.02
   352  0.958  0.667  0.616-  1052 1.92   889 1.92   816 1.98  1060 1.98  1064 2.02   901 2.02
   353  0.333  0.667  0.732-  1061 1.84   833 1.96  1069 1.96   755 1.96   991 1.96
   354  0.833  0.667  0.732-  1062 1.84   834 1.96  1070 1.96   756 1.96   992 1.96
   355  0.417  0.667  0.732-  1063 1.84   833 1.96  1069 1.96   835 1.96  1071 1.96
   356  0.917  0.667  0.732-  1064 1.84   836 1.96  1072 1.96  1070 1.96   834 1.96
   357  0.375  0.833  0.744-  1077 1.85  1079 1.85  1073 2.06  1069 2.06  1065 2.10  1067 2.10
   358  0.875  0.833  0.744-  1078 1.85  1080 1.85  1074 2.06  1070 2.06  1066 2.10  1068 2.10
   359  0.458  0.833  0.744-   918 1.85  1079 1.85  1075 2.06  1071 2.06   906 2.10  1067 2.10
   360  0.958  0.833  0.744-  1080 1.85   917 1.85  1076 2.06  1072 2.06  1068 2.10   905 2.10
   361  0.000  0.167  0.216-     5 1.85    88 1.85
   362  0.500  0.167  0.216-    87 1.85     6 1.85
   363  0.083  0.167  0.216-     7 1.85     5 1.85
   364  0.583  0.167  0.216-     8 1.85     6 1.85
   365  0.042  0.062  0.256-     1 1.96     3 1.96     5 2.06
   366  0.542  0.062  0.256-     2 1.96     4 1.96     6 2.06
   367  0.125  0.062  0.256-     3 1.96    41 1.96     7 2.06
   368  0.625  0.062  0.256-     4 1.96    42 1.96     8 2.06
   369  0.042  0.271  0.256-   121 1.96   123 1.96     5 2.06
   370  0.542  0.271  0.256-   122 1.96   124 1.96     6 2.06
   371  0.125  0.271  0.256-   123 1.96   161 1.96     7 2.06
   372  0.625  0.271  0.256-   124 1.96   162 1.96     8 2.06
   373  0.000  0.167  0.309-     9 1.89     5 2.10    88 2.10
   374  0.500  0.167  0.309-    10 1.89    87 2.10     6 2.10
   375  0.083  0.167  0.309-    11 1.89     7 2.10     5 2.10
   376  0.583  0.167  0.309-    12 1.89     8 2.10     6 2.10
   377  0.000  0.000  0.334-     1 1.84    13 2.02    96 2.02
   378  0.500  0.000  0.334-     2 1.84    95 2.02    14 2.02
   379  0.083  0.000  0.334-     3 1.84    15 2.02    13 2.02
   380  0.583  0.000  0.334-     4 1.84    16 2.02    14 2.02
   381  0.042  0.233  0.381-   133 1.98     9 1.99    11 1.99
   382  0.542  0.233  0.381-   134 1.98    10 1.99    12 1.99
   383  0.125  0.233  0.381-   135 1.98    49 1.99    11 1.99
   384  0.625  0.233  0.381-   136 1.98    12 1.99    50 1.99
   385  0.042  0.100  0.381-    13 1.98     9 1.99    11 1.99
   386  0.542  0.100  0.381-    14 1.98    10 1.99    12 1.99
   387  0.125  0.100  0.381-    15 1.98    11 1.99    49 1.99
   388  0.625  0.100  0.381-    16 1.98    12 1.99    50 1.99
   389  0.000  0.000  0.428-    13 1.92    96 1.92    17 2.01
   390  0.500  0.000  0.428-    95 1.92    14 1.92    18 2.01
   391  0.083  0.000  0.428-    15 1.92    13 1.92    19 2.01
   392  0.583  0.000  0.428-    16 1.92    14 1.92    20 2.01
   393  0.000  0.167  0.453-    21 1.97   104 1.97     9 2.10
   394  0.500  0.167  0.453-   103 1.97    22 1.97    10 2.10
   395  0.083  0.167  0.453-    23 1.97    21 1.97    11 2.10
   396  0.583  0.167  0.453-    24 1.97    22 1.97    12 2.10
   397  0.042  0.065  0.500-    17 1.97    19 1.97    21 2.00
   398  0.542  0.065  0.500-    18 1.97    20 1.97    22 2.00
   399  0.125  0.065  0.500-    19 1.97    57 1.97    23 2.00
   400  0.625  0.065  0.500-    20 1.97    58 1.97    24 2.00
   401  0.042  0.268  0.500-   137 1.97   139 1.97    21 2.00
   402  0.542  0.268  0.500-   138 1.97   140 1.97    22 2.00
   403  0.125  0.268  0.500-   139 1.97   177 1.97    23 2.00
   404  0.625  0.268  0.500-   140 1.97   178 1.97    24 2.00
   405  0.000  0.167  0.547-    21 1.97   104 1.97    25 2.10
   406  0.500  0.167  0.547-   103 1.97    22 1.97    26 2.10
   407  0.083  0.167  0.547-    23 1.97    21 1.97    27 2.10
   408  0.583  0.167  0.547-    24 1.97    22 1.97    28 2.10
   409  0.000  0.000  0.572-    29 1.92   112 1.92    17 2.01
   410  0.500  0.000  0.572-   111 1.92    30 1.92    18 2.01
   411  0.083  0.000  0.572-    31 1.92    29 1.92    19 2.01
   412  0.583  0.000  0.572-    32 1.92    30 1.92    20 2.01
   413  0.042  0.233  0.619-   149 1.98    25 1.99    27 1.99
   414  0.542  0.233  0.619-   150 1.98    26 1.99    28 1.99
   415  0.125  0.233  0.619-   151 1.98    65 1.99    27 1.99
   416  0.625  0.233  0.619-   152 1.98    28 1.99    66 1.99
   417  0.042  0.100  0.619-    29 1.98    25 1.99    27 1.99
   418  0.542  0.100  0.619-    30 1.98    26 1.99    28 1.99
   419  0.125  0.100  0.619-    31 1.98    27 1.99    65 1.99
   420  0.625  0.100  0.619-    32 1.98    28 1.99    66 1.99
   421  0.000  0.000  0.666-    33 1.84    29 2.02   112 2.02
   422  0.500  0.000  0.666-    34 1.84   111 2.02    30 2.02
   423  0.083  0.000  0.666-    35 1.84    31 2.02    29 2.02
   424  0.583  0.000  0.666-    36 1.84    32 2.02    30 2.02
   425  0.000  0.167  0.691-    25 1.89    37 2.10   120 2.10
   426  0.500  0.167  0.691-    26 1.89   119 2.10    38 2.10
   427  0.083  0.167  0.691-    27 1.89    39 2.10    37 2.10
   428  0.583  0.167  0.691-    28 1.89    40 2.10    38 2.10
   429  0.042  0.062  0.744-    33 1.96    35 1.96    37 2.06
   430  0.542  0.062  0.744-    34 1.96    36 1.96    38 2.06
   431  0.125  0.062  0.744-    35 1.96    73 1.96    39 2.06
   432  0.625  0.062  0.744-    36 1.96    74 1.96    40 2.06
   433  0.042  0.271  0.744-   153 1.96   155 1.96    37 2.06
   434  0.542  0.271  0.744-   154 1.96   156 1.96    38 2.06
   435  0.125  0.271  0.744-   155 1.96   193 1.96    39 2.06
   436  0.625  0.271  0.744-   156 1.96   194 1.96    40 2.06
   437  0.000  0.167  0.784-    37 1.85   120 1.85
   438  0.500  0.167  0.784-   119 1.85    38 1.85
   439  0.083  0.167  0.784-    39 1.85    37 1.85
   440  0.583  0.167  0.784-    40 1.85    38 1.85
   441  0.167  0.167  0.216-     7 1.85    45 1.85
   442  0.667  0.167  0.216-    46 1.85     8 1.85
   443  0.250  0.167  0.216-    45 1.85    47 1.85
   444  0.750  0.167  0.216-    48 1.85    46 1.85
   445  0.208  0.062  0.256-    43 1.96    41 1.96    45 2.06
   446  0.708  0.062  0.256-    42 1.96    44 1.96    46 2.06
   447  0.292  0.062  0.256-    43 1.96    81 1.96    47 2.06
   448  0.792  0.062  0.256-    44 1.96    82 1.96    48 2.06
   449  0.208  0.271  0.256-   163 1.96   161 1.96    45 2.06
   450  0.708  0.271  0.256-   162 1.96   164 1.96    46 2.06
   451  0.292  0.271  0.256-   163 1.96   201 1.96    47 2.06
   452  0.792  0.271  0.256-   164 1.96   202 1.96    48 2.06
   453  0.167  0.167  0.309-    49 1.89     7 2.10    45 2.10
   454  0.667  0.167  0.309-    50 1.89    46 2.10     8 2.10
   455  0.250  0.167  0.309-    51 1.89    47 2.10    45 2.10
   456  0.750  0.167  0.309-    52 1.89    48 2.10    46 2.10
   457  0.167  0.000  0.334-    41 1.84    15 2.02    53 2.02
   458  0.667  0.000  0.334-    42 1.84    54 2.02    16 2.02
   459  0.250  0.000  0.334-    43 1.84    53 2.02    55 2.02
   460  0.750  0.000  0.334-    44 1.84    56 2.02    54 2.02
   461  0.208  0.233  0.381-   173 1.98    51 1.99    49 1.99
   462  0.708  0.233  0.381-   174 1.98    50 1.99    52 1.99
   463  0.292  0.233  0.381-   175 1.98    51 1.99    89 1.99
   464  0.792  0.233  0.381-   176 1.98    52 1.99    90 1.99
   465  0.208  0.100  0.381-    53 1.98    51 1.99    49 1.99
   466  0.708  0.100  0.381-    54 1.98    50 1.99    52 1.99
   467  0.292  0.100  0.381-    55 1.98    51 1.99    89 1.99
   468  0.792  0.100  0.381-    56 1.98    52 1.99    90 1.99
   469  0.167  0.000  0.428-    15 1.92    53 1.92    57 2.01
   470  0.667  0.000  0.428-    54 1.92    16 1.92    58 2.01
   471  0.250  0.000  0.428-    53 1.92    55 1.92    59 2.01
   472  0.750  0.000  0.428-    56 1.92    54 1.92    60 2.01
   473  0.167  0.167  0.453-    23 1.97    61 1.97    49 2.10
   474  0.667  0.167  0.453-    62 1.97    24 1.97    50 2.10
   475  0.250  0.167  0.453-    61 1.97    63 1.97    51 2.10
   476  0.750  0.167  0.453-    64 1.97    62 1.97    52 2.10
   477  0.208  0.065  0.500-    59 1.97    57 1.97    61 2.00
   478  0.708  0.065  0.500-    58 1.97    60 1.97    62 2.00
   479  0.292  0.065  0.500-    59 1.97    97 1.97    63 2.00
   480  0.792  0.065  0.500-    60 1.97    98 1.97    64 2.00
   481  0.208  0.268  0.500-   179 1.97   177 1.97    61 2.00
   482  0.708  0.268  0.500-   178 1.97   180 1.97    62 2.00
   483  0.292  0.268  0.500-   179 1.97   217 1.97    63 2.00
   484  0.792  0.268  0.500-   180 1.97   218 1.97    64 2.00
   485  0.167  0.167  0.547-    23 1.97    61 1.97    65 2.10
   486  0.667  0.167  0.547-    62 1.97    24 1.97    66 2.10
   487  0.250  0.167  0.547-    61 1.97    63 1.97    67 2.10
   488  0.750  0.167  0.547-    64 1.97    62 1.97    68 2.10
   489  0.167  0.000  0.572-    31 1.92    69 1.92    57 2.01
   490  0.667  0.000  0.572-    70 1.92    32 1.92    58 2.01
   491  0.250  0.000  0.572-    69 1.92    71 1.92    59 2.01
   492  0.750  0.000  0.572-    72 1.92    70 1.92    60 2.01
   493  0.208  0.233  0.619-   189 1.98    67 1.99    65 1.99
   494  0.708  0.233  0.619-   190 1.98    66 1.99    68 1.99
   495  0.292  0.233  0.619-   191 1.98    67 1.99   105 1.99
   496  0.792  0.233  0.619-   192 1.98    68 1.99   106 1.99
   497  0.208  0.100  0.619-    69 1.98    67 1.99    65 1.99
   498  0.708  0.100  0.619-    70 1.98    66 1.99    68 1.99
   499  0.292  0.100  0.619-    71 1.98    67 1.99   105 1.99
   500  0.792  0.100  0.619-    72 1.98    68 1.99   106 1.99
   501  0.167  0.000  0.666-    73 1.84    31 2.02    69 2.02
   502  0.667  0.000  0.666-    74 1.84    70 2.02    32 2.02
   503  0.250  0.000  0.666-    75 1.84    71 2.02    69 2.02
   504  0.750  0.000  0.666-    76 1.84    72 2.02    70 2.02
   505  0.167  0.167  0.691-    65 1.89    39 2.10    77 2.10
   506  0.667  0.167  0.691-    66 1.89    78 2.10    40 2.10
   507  0.250  0.167  0.691-    67 1.89    77 2.10    79 2.10
   508  0.750  0.167  0.691-    68 1.89    80 2.10    78 2.10
   509  0.208  0.062  0.744-    75 1.96    73 1.96    77 2.06
   510  0.708  0.062  0.744-    74 1.96    76 1.96    78 2.06
   511  0.292  0.062  0.744-    75 1.96   113 1.96    79 2.06
   512  0.792  0.062  0.744-    76 1.96   114 1.96    80 2.06
   513  0.208  0.271  0.744-   195 1.96   193 1.96    77 2.06
   514  0.708  0.271  0.744-   194 1.96   196 1.96    78 2.06
   515  0.292  0.271  0.744-   195 1.96   233 1.96    79 2.06
   516  0.792  0.271  0.744-   196 1.96   234 1.96    80 2.06
   517  0.167  0.167  0.784-    39 1.85    77 1.85
   518  0.667  0.167  0.784-    78 1.85    40 1.85
   519  0.250  0.167  0.784-    77 1.85    79 1.85
   520  0.750  0.167  0.784-    80 1.85    78 1.85
   521  0.333  0.167  0.216-    85 1.85    47 1.85
   522  0.833  0.167  0.216-    86 1.85    48 1.85
   523  0.417  0.167  0.216-    85 1.85    87 1.85
   524  0.917  0.167  0.216-    88 1.85    86 1.85
   525  0.375  0.062  0.256-    81 1.96    83 1.96    85 2.06
   526  0.875  0.062  0.256-    82 1.96    84 1.96    86 2.06
   527  0.458  0.062  0.256-     2 1.96    83 1.96    87 2.06
   528  0.958  0.062  0.256-    84 1.96     1 1.96    88 2.06
   529  0.375  0.271  0.256-   201 1.96   203 1.96    85 2.06
   530  0.875  0.271  0.256-   202 1.96   204 1.96    86 2.06
   531  0.458  0.271  0.256-   122 1.96   203 1.96    87 2.06
   532  0.958  0.271  0.256-   204 1.96   121 1.96    88 2.06
   533  0.333  0.167  0.309-    89 1.89    85 2.10    47 2.10
   534  0.833  0.167  0.309-    90 1.89    86 2.10    48 2.10
   535  0.417  0.167  0.309-    91 1.89    85 2.10    87 2.10
   536  0.917  0.167  0.309-    92 1.89    88 2.10    86 2.10
   537  0.333  0.000  0.334-    81 1.84    93 2.02    55 2.02
   538  0.833  0.000  0.334-    82 1.84    94 2.02    56 2.02
   539  0.417  0.000  0.334-    83 1.84    93 2.02    95 2.02
   540  0.917  0.000  0.334-    84 1.84    96 2.02    94 2.02
   541  0.375  0.233  0.381-   213 1.98    91 1.99    89 1.99
   542  0.875  0.233  0.381-   214 1.98    90 1.99    92 1.99
   543  0.458  0.233  0.381-   215 1.98    10 1.99    91 1.99
   544  0.958  0.233  0.381-   216 1.98    92 1.99     9 1.99
   545  0.375  0.100  0.381-    93 1.98    91 1.99    89 1.99
   546  0.875  0.100  0.381-    94 1.98    90 1.99    92 1.99
   547  0.458  0.100  0.381-    95 1.98    10 1.99    91 1.99
   548  0.958  0.100  0.381-    96 1.98    92 1.99     9 1.99
   549  0.333  0.000  0.428-    93 1.92    55 1.92    97 2.01
   550  0.833  0.000  0.428-    94 1.92    56 1.92    98 2.01
   551  0.417  0.000  0.428-    93 1.92    95 1.92    99 2.01
   552  0.917  0.000  0.428-    96 1.92    94 1.92   100 2.01
   553  0.333  0.167  0.453-   101 1.97    63 1.97    89 2.10
   554  0.833  0.167  0.453-   102 1.97    64 1.97    90 2.10
   555  0.417  0.167  0.453-   101 1.97   103 1.97    91 2.10
   556  0.917  0.167  0.453-   104 1.97   102 1.97    92 2.10
   557  0.375  0.065  0.500-    97 1.97    99 1.97   101 2.00
   558  0.875  0.065  0.500-    98 1.97   100 1.97   102 2.00
   559  0.458  0.065  0.500-    18 1.97    99 1.97   103 2.00
   560  0.958  0.065  0.500-   100 1.97    17 1.97   104 2.00
   561  0.375  0.268  0.500-   217 1.97   219 1.97   101 2.00
   562  0.875  0.268  0.500-   218 1.97   220 1.97   102 2.00
   563  0.458  0.268  0.500-   138 1.97   219 1.97   103 2.00
   564  0.958  0.268  0.500-   220 1.97   137 1.97   104 2.00
   565  0.333  0.167  0.547-   101 1.97    63 1.97   105 2.10
   566  0.833  0.167  0.547-   102 1.97    64 1.97   106 2.10
   567  0.417  0.167  0.547-   101 1.97   103 1.97   107 2.10
   568  0.917  0.167  0.547-   104 1.97   102 1.97   108 2.10
   569  0.333  0.000  0.572-   109 1.92    71 1.92    97 2.01
   570  0.833  0.000  0.572-   110 1.92    72 1.92    98 2.01
   571  0.417  0.000  0.572-   109 1.92   111 1.92    99 2.01
   572  0.917  0.000  0.572-   112 1.92   110 1.92   100 2.01
   573  0.375  0.233  0.619-   229 1.98   107 1.99   105 1.99
   574  0.875  0.233  0.619-   230 1.98   106 1.99   108 1.99
   575  0.458  0.233  0.619-   231 1.98    26 1.99   107 1.99
   576  0.958  0.233  0.619-   232 1.98   108 1.99    25 1.99
   577  0.375  0.100  0.619-   109 1.98   107 1.99   105 1.99
   578  0.875  0.100  0.619-   110 1.98   106 1.99   108 1.99
   579  0.458  0.100  0.619-   111 1.98    26 1.99   107 1.99
   580  0.958  0.100  0.619-   112 1.98   108 1.99    25 1.99
   581  0.333  0.000  0.666-   113 1.84   109 2.02    71 2.02
   582  0.833  0.000  0.666-   114 1.84   110 2.02    72 2.02
   583  0.417  0.000  0.666-   115 1.84   109 2.02   111 2.02
   584  0.917  0.000  0.666-   116 1.84   112 2.02   110 2.02
   585  0.333  0.167  0.691-   105 1.89   117 2.10    79 2.10
   586  0.833  0.167  0.691-   106 1.89   118 2.10    80 2.10
   587  0.417  0.167  0.691-   107 1.89   117 2.10   119 2.10
   588  0.917  0.167  0.691-   108 1.89   120 2.10   118 2.10
   589  0.375  0.062  0.744-   113 1.96   115 1.96   117 2.06
   590  0.875  0.062  0.744-   114 1.96   116 1.96   118 2.06
   591  0.458  0.062  0.744-    34 1.96   115 1.96   119 2.06
   592  0.958  0.062  0.744-   116 1.96    33 1.96   120 2.06
   593  0.375  0.271  0.744-   233 1.96   235 1.96   117 2.06
   594  0.875  0.271  0.744-   234 1.96   236 1.96   118 2.06
   595  0.458  0.271  0.744-   154 1.96   235 1.96   119 2.06
   596  0.958  0.271  0.744-   236 1.96   153 1.96   120 2.06
   597  0.333  0.167  0.784-   117 1.85    79 1.85
   598  0.833  0.167  0.784-   118 1.85    80 1.85
   599  0.417  0.167  0.784-   117 1.85   119 1.85
   600  0.917  0.167  0.784-   120 1.85   118 1.85
   601  0.000  0.500  0.216-   125 1.85   208 1.85
   602  0.500  0.500  0.216-   207 1.85   126 1.85
   603  0.083  0.500  0.216-   127 1.85   125 1.85
   604  0.583  0.500  0.216-   128 1.85   126 1.85
   605  0.042  0.396  0.256-   121 1.96   123 1.96   125 2.06
   606  0.542  0.396  0.256-   122 1.96   124 1.96   126 2.06
   607  0.125  0.396  0.256-   123 1.96   161 1.96   127 2.06
   608  0.625  0.396  0.256-   124 1.96   162 1.96   128 2.06
   609  0.042  0.604  0.256-   241 1.96   243 1.96   125 2.06
   610  0.542  0.604  0.256-   242 1.96   244 1.96   126 2.06
   611  0.125  0.604  0.256-   243 1.96   281 1.96   127 2.06
   612  0.625  0.604  0.256-   244 1.96   282 1.96   128 2.06
   613  0.000  0.500  0.309-   129 1.89   125 2.10   208 2.10
   614  0.500  0.500  0.309-   130 1.89   207 2.10   126 2.10
   615  0.083  0.500  0.309-   131 1.89   127 2.10   125 2.10
   616  0.583  0.500  0.309-   132 1.89   128 2.10   126 2.10
   617  0.000  0.333  0.334-   121 1.84   133 2.02   216 2.02
   618  0.500  0.333  0.334-   122 1.84   215 2.02   134 2.02
   619  0.083  0.333  0.334-   123 1.84   135 2.02   133 2.02
   620  0.583  0.333  0.334-   124 1.84   136 2.02   134 2.02
   621  0.042  0.567  0.381-   253 1.98   129 1.99   131 1.99
   622  0.542  0.567  0.381-   254 1.98   130 1.99   132 1.99
   623  0.125  0.567  0.381-   255 1.98   169 1.99   131 1.99
   624  0.625  0.567  0.381-   256 1.98   132 1.99   170 1.99
   625  0.042  0.433  0.381-   133 1.98   129 1.99   131 1.99
   626  0.542  0.433  0.381-   134 1.98   130 1.99   132 1.99
   627  0.125  0.433  0.381-   135 1.98   131 1.99   169 1.99
   628  0.625  0.433  0.381-   136 1.98   132 1.99   170 1.99
   629  0.000  0.333  0.428-   133 1.92   216 1.92   137 2.01
   630  0.500  0.333  0.428-   215 1.92   134 1.92   138 2.01
   631  0.083  0.333  0.428-   135 1.92   133 1.92   139 2.01
   632  0.583  0.333  0.428-   136 1.92   134 1.92   140 2.01
   633  0.000  0.500  0.453-   141 1.97   224 1.97   129 2.10
   634  0.500  0.500  0.453-   223 1.97   142 1.97   130 2.10
   635  0.083  0.500  0.453-   143 1.97   141 1.97   131 2.10
   636  0.583  0.500  0.453-   144 1.97   142 1.97   132 2.10
   637  0.042  0.399  0.500-   137 1.97   139 1.97   141 2.00
   638  0.542  0.399  0.500-   138 1.97   140 1.97   142 2.00
   639  0.125  0.399  0.500-   139 1.97   177 1.97   143 2.00
   640  0.625  0.399  0.500-   140 1.97   178 1.97   144 2.00
   641  0.042  0.601  0.500-   257 1.97   259 1.97   141 2.00
   642  0.542  0.601  0.500-   258 1.97   260 1.97   142 2.00
   643  0.125  0.601  0.500-   259 1.97   297 1.97   143 2.00
   644  0.625  0.601  0.500-   260 1.97   298 1.97   144 2.00
   645  0.000  0.500  0.547-   141 1.97   224 1.97   145 2.10
   646  0.500  0.500  0.547-   223 1.97   142 1.97   146 2.10
   647  0.083  0.500  0.547-   143 1.97   141 1.97   147 2.10
   648  0.583  0.500  0.547-   144 1.97   142 1.97   148 2.10
   649  0.000  0.333  0.572-   149 1.92   232 1.92   137 2.01
   650  0.500  0.333  0.572-   231 1.92   150 1.92   138 2.01
   651  0.083  0.333  0.572-   151 1.92   149 1.92   139 2.01
   652  0.583  0.333  0.572-   152 1.92   150 1.92   140 2.01
   653  0.042  0.567  0.619-   269 1.98   145 1.99   147 1.99
   654  0.542  0.567  0.619-   270 1.98   146 1.99   148 1.99
   655  0.125  0.567  0.619-   271 1.98   185 1.99   147 1.99
   656  0.625  0.567  0.619-   272 1.98   148 1.99   186 1.99
   657  0.042  0.433  0.619-   149 1.98   145 1.99   147 1.99
   658  0.542  0.433  0.619-   150 1.98   146 1.99   148 1.99
   659  0.125  0.433  0.619-   151 1.98   147 1.99   185 1.99
   660  0.625  0.433  0.619-   152 1.98   148 1.99   186 1.99
   661  0.000  0.333  0.666-   153 1.84   149 2.02   232 2.02
   662  0.500  0.333  0.666-   154 1.84   231 2.02   150 2.02
   663  0.083  0.333  0.666-   155 1.84   151 2.02   149 2.02
   664  0.583  0.333  0.666-   156 1.84   152 2.02   150 2.02
   665  0.000  0.500  0.691-   145 1.89   157 2.10   240 2.10
   666  0.500  0.500  0.691-   146 1.89   239 2.10   158 2.10
   667  0.083  0.500  0.691-   147 1.89   159 2.10   157 2.10
   668  0.583  0.500  0.691-   148 1.89   160 2.10   158 2.10
   669  0.042  0.396  0.744-   153 1.96   155 1.96   157 2.06
   670  0.542  0.396  0.744-   154 1.96   156 1.96   158 2.06
   671  0.125  0.396  0.744-   155 1.96   193 1.96   159 2.06
   672  0.625  0.396  0.744-   156 1.96   194 1.96   160 2.06
   673  0.042  0.604  0.744-   273 1.96   275 1.96   157 2.06
   674  0.542  0.604  0.744-   274 1.96   276 1.96   158 2.06
   675  0.125  0.604  0.744-   275 1.96   313 1.96   159 2.06
   676  0.625  0.604  0.744-   276 1.96   314 1.96   160 2.06
   677  0.000  0.500  0.784-   157 1.85   240 1.85
   678  0.500  0.500  0.784-   239 1.85   158 1.85
   679  0.083  0.500  0.784-   159 1.85   157 1.85
   680  0.583  0.500  0.784-   160 1.85   158 1.85
   681  0.167  0.500  0.216-   127 1.85   165 1.85
   682  0.667  0.500  0.216-   166 1.85   128 1.85
   683  0.250  0.500  0.216-   165 1.85   167 1.85
   684  0.750  0.500  0.216-   168 1.85   166 1.85
   685  0.208  0.396  0.256-   163 1.96   161 1.96   165 2.06
   686  0.708  0.396  0.256-   162 1.96   164 1.96   166 2.06
   687  0.292  0.396  0.256-   163 1.96   201 1.96   167 2.06
   688  0.792  0.396  0.256-   164 1.96   202 1.96   168 2.06
   689  0.208  0.604  0.256-   283 1.96   281 1.96   165 2.06
   690  0.708  0.604  0.256-   282 1.96   284 1.96   166 2.06
   691  0.292  0.604  0.256-   283 1.96   321 1.96   167 2.06
   692  0.792  0.604  0.256-   284 1.96   322 1.96   168 2.06
   693  0.167  0.500  0.309-   169 1.89   127 2.10   165 2.10
   694  0.667  0.500  0.309-   170 1.89   166 2.10   128 2.10
   695  0.250  0.500  0.309-   171 1.89   167 2.10   165 2.10
   696  0.750  0.500  0.309-   172 1.89   168 2.10   166 2.10
   697  0.167  0.333  0.334-   161 1.84   135 2.02   173 2.02
   698  0.667  0.333  0.334-   162 1.84   174 2.02   136 2.02
   699  0.250  0.333  0.334-   163 1.84   173 2.02   175 2.02
   700  0.750  0.333  0.334-   164 1.84   176 2.02   174 2.02
   701  0.208  0.567  0.381-   293 1.98   171 1.99   169 1.99
   702  0.708  0.567  0.381-   294 1.98   170 1.99   172 1.99
   703  0.292  0.567  0.381-   295 1.98   171 1.99   209 1.99
   704  0.792  0.567  0.381-   296 1.98   172 1.99   210 1.99
   705  0.208  0.433  0.381-   173 1.98   171 1.99   169 1.99
   706  0.708  0.433  0.381-   174 1.98   170 1.99   172 1.99
   707  0.292  0.433  0.381-   175 1.98   171 1.99   209 1.99
   708  0.792  0.433  0.381-   176 1.98   172 1.99   210 1.99
   709  0.167  0.333  0.428-   135 1.92   173 1.92   177 2.01
   710  0.667  0.333  0.428-   174 1.92   136 1.92   178 2.01
   711  0.250  0.333  0.428-   173 1.92   175 1.92   179 2.01
   712  0.750  0.333  0.428-   176 1.92   174 1.92   180 2.01
   713  0.167  0.500  0.453-   143 1.97   181 1.97   169 2.10
   714  0.667  0.500  0.453-   182 1.97   144 1.97   170 2.10
   715  0.250  0.500  0.453-   181 1.97   183 1.97   171 2.10
   716  0.750  0.500  0.453-   184 1.97   182 1.97   172 2.10
   717  0.208  0.399  0.500-   179 1.97   177 1.97   181 2.00
   718  0.708  0.399  0.500-   178 1.97   180 1.97   182 2.00
   719  0.292  0.399  0.500-   179 1.97   217 1.97   183 2.00
   720  0.792  0.399  0.500-   180 1.97   218 1.97   184 2.00
   721  0.208  0.601  0.500-   299 1.97   297 1.97   181 2.00
   722  0.708  0.601  0.500-   298 1.97   300 1.97   182 2.00
   723  0.292  0.601  0.500-   299 1.97   337 1.97   183 2.00
   724  0.792  0.601  0.500-   300 1.97   338 1.97   184 2.00
   725  0.167  0.500  0.547-   143 1.97   181 1.97   185 2.10
   726  0.667  0.500  0.547-   182 1.97   144 1.97   186 2.10
   727  0.250  0.500  0.547-   181 1.97   183 1.97   187 2.10
   728  0.750  0.500  0.547-   184 1.97   182 1.97   188 2.10
   729  0.167  0.333  0.572-   151 1.92   189 1.92   177 2.01
   730  0.667  0.333  0.572-   190 1.92   152 1.92   178 2.01
   731  0.250  0.333  0.572-   189 1.92   191 1.92   179 2.01
   732  0.750  0.333  0.572-   192 1.92   190 1.92   180 2.01
   733  0.208  0.567  0.619-   309 1.98   187 1.99   185 1.99
   734  0.708  0.567  0.619-   310 1.98   186 1.99   188 1.99
   735  0.292  0.567  0.619-   311 1.98   187 1.99   225 1.99
   736  0.792  0.567  0.619-   312 1.98   188 1.99   226 1.99
   737  0.208  0.433  0.619-   189 1.98   187 1.99   185 1.99
   738  0.708  0.433  0.619-   190 1.98   186 1.99   188 1.99
   739  0.292  0.433  0.619-   191 1.98   187 1.99   225 1.99
   740  0.792  0.433  0.619-   192 1.98   188 1.99   226 1.99
   741  0.167  0.333  0.666-   193 1.84   151 2.02   189 2.02
   742  0.667  0.333  0.666-   194 1.84   190 2.02   152 2.02
   743  0.250  0.333  0.666-   195 1.84   191 2.02   189 2.02
   744  0.750  0.333  0.666-   196 1.84   192 2.02   190 2.02
   745  0.167  0.500  0.691-   185 1.89   159 2.10   197 2.10
   746  0.667  0.500  0.691-   186 1.89   198 2.10   160 2.10
   747  0.250  0.500  0.691-   187 1.89   197 2.10   199 2.10
   748  0.750  0.500  0.691-   188 1.89   200 2.10   198 2.10
   749  0.208  0.396  0.744-   195 1.96   193 1.96   197 2.06
   750  0.708  0.396  0.744-   194 1.96   196 1.96   198 2.06
   751  0.292  0.396  0.744-   195 1.96   233 1.96   199 2.06
   752  0.792  0.396  0.744-   196 1.96   234 1.96   200 2.06
   753  0.208  0.604  0.744-   315 1.96   313 1.96   197 2.06
   754  0.708  0.604  0.744-   314 1.96   316 1.96   198 2.06
   755  0.292  0.604  0.744-   315 1.96   353 1.96   199 2.06
   756  0.792  0.604  0.744-   316 1.96   354 1.96   200 2.06
   757  0.167  0.500  0.784-   159 1.85   197 1.85
   758  0.667  0.500  0.784-   198 1.85   160 1.85
   759  0.250  0.500  0.784-   197 1.85   199 1.85
   760  0.750  0.500  0.784-   200 1.85   198 1.85
   761  0.333  0.500  0.216-   205 1.85   167 1.85
   762  0.833  0.500  0.216-   206 1.85   168 1.85
   763  0.417  0.500  0.216-   205 1.85   207 1.85
   764  0.917  0.500  0.216-   208 1.85   206 1.85
   765  0.375  0.396  0.256-   201 1.96   203 1.96   205 2.06
   766  0.875  0.396  0.256-   202 1.96   204 1.96   206 2.06
   767  0.458  0.396  0.256-   122 1.96   203 1.96   207 2.06
   768  0.958  0.396  0.256-   204 1.96   121 1.96   208 2.06
   769  0.375  0.604  0.256-   321 1.96   323 1.96   205 2.06
   770  0.875  0.604  0.256-   322 1.96   324 1.96   206 2.06
   771  0.458  0.604  0.256-   242 1.96   323 1.96   207 2.06
   772  0.958  0.604  0.256-   324 1.96   241 1.96   208 2.06
   773  0.333  0.500  0.309-   209 1.89   205 2.10   167 2.10
   774  0.833  0.500  0.309-   210 1.89   206 2.10   168 2.10
   775  0.417  0.500  0.309-   211 1.89   205 2.10   207 2.10
   776  0.917  0.500  0.309-   212 1.89   208 2.10   206 2.10
   777  0.333  0.333  0.334-   201 1.84   213 2.02   175 2.02
   778  0.833  0.333  0.334-   202 1.84   214 2.02   176 2.02
   779  0.417  0.333  0.334-   203 1.84   213 2.02   215 2.02
   780  0.917  0.333  0.334-   204 1.84   216 2.02   214 2.02
   781  0.375  0.567  0.381-   333 1.98   211 1.99   209 1.99
   782  0.875  0.567  0.381-   334 1.98   210 1.99   212 1.99
   783  0.458  0.567  0.381-   335 1.98   130 1.99   211 1.99
   784  0.958  0.567  0.381-   336 1.98   212 1.99   129 1.99
   785  0.375  0.433  0.381-   213 1.98   211 1.99   209 1.99
   786  0.875  0.433  0.381-   214 1.98   210 1.99   212 1.99
   787  0.458  0.433  0.381-   215 1.98   130 1.99   211 1.99
   788  0.958  0.433  0.381-   216 1.98   212 1.99   129 1.99
   789  0.333  0.333  0.428-   213 1.92   175 1.92   217 2.01
   790  0.833  0.333  0.428-   214 1.92   176 1.92   218 2.01
   791  0.417  0.333  0.428-   213 1.92   215 1.92   219 2.01
   792  0.917  0.333  0.428-   216 1.92   214 1.92   220 2.01
   793  0.333  0.500  0.453-   221 1.97   183 1.97   209 2.10
   794  0.833  0.500  0.453-   222 1.97   184 1.97   210 2.10
   795  0.417  0.500  0.453-   221 1.97   223 1.97   211 2.10
   796  0.917  0.500  0.453-   224 1.97   222 1.97   212 2.10
   797  0.375  0.399  0.500-   217 1.97   219 1.97   221 2.00
   798  0.875  0.399  0.500-   218 1.97   220 1.97   222 2.00
   799  0.458  0.399  0.500-   138 1.97   219 1.97   223 2.00
   800  0.958  0.399  0.500-   220 1.97   137 1.97   224 2.00
   801  0.375  0.601  0.500-   337 1.97   339 1.97   221 2.00
   802  0.875  0.601  0.500-   338 1.97   340 1.97   222 2.00
   803  0.458  0.601  0.500-   258 1.97   339 1.97   223 2.00
   804  0.958  0.601  0.500-   340 1.97   257 1.97   224 2.00
   805  0.333  0.500  0.547-   221 1.97   183 1.97   225 2.10
   806  0.833  0.500  0.547-   222 1.97   184 1.97   226 2.10
   807  0.417  0.500  0.547-   221 1.97   223 1.97   227 2.10
   808  0.917  0.500  0.547-   224 1.97   222 1.97   228 2.10
   809  0.333  0.333  0.572-   229 1.92   191 1.92   217 2.01
   810  0.833  0.333  0.572-   230 1.92   192 1.92   218 2.01
   811  0.417  0.333  0.572-   229 1.92   231 1.92   219 2.01
   812  0.917  0.333  0.572-   232 1.92   230 1.92   220 2.01
   813  0.375  0.567  0.619-   349 1.98   227 1.99   225 1.99
   814  0.875  0.567  0.619-   350 1.98   226 1.99   228 1.99
   815  0.458  0.567  0.619-   351 1.98   146 1.99   227 1.99
   816  0.958  0.567  0.619-   352 1.98   228 1.99   145 1.99
   817  0.375  0.433  0.619-   229 1.98   227 1.99   225 1.99
   818  0.875  0.433  0.619-   230 1.98   226 1.99   228 1.99
   819  0.458  0.433  0.619-   231 1.98   146 1.99   227 1.99
   820  0.958  0.433  0.619-   232 1.98   228 1.99   145 1.99
   821  0.333  0.333  0.666-   233 1.84   229 2.02   191 2.02
   822  0.833  0.333  0.666-   234 1.84   230 2.02   192 2.02
   823  0.417  0.333  0.666-   235 1.84   229 2.02   231 2.02
   824  0.917  0.333  0.666-   236 1.84   232 2.02   230 2.02
   825  0.333  0.500  0.691-   225 1.89   237 2.10   199 2.10
   826  0.833  0.500  0.691-   226 1.89   238 2.10   200 2.10
   827  0.417  0.500  0.691-   227 1.89   237 2.10   239 2.10
   828  0.917  0.500  0.691-   228 1.89   240 2.10   238 2.10
   829  0.375  0.396  0.744-   233 1.96   235 1.96   237 2.06
   830  0.875  0.396  0.744-   234 1.96   236 1.96   238 2.06
   831  0.458  0.396  0.744-   154 1.96   235 1.96   239 2.06
   832  0.958  0.396  0.744-   236 1.96   153 1.96   240 2.06
   833  0.375  0.604  0.744-   353 1.96   355 1.96   237 2.06
   834  0.875  0.604  0.744-   354 1.96   356 1.96   238 2.06
   835  0.458  0.604  0.744-   274 1.96   355 1.96   239 2.06
   836  0.958  0.604  0.744-   356 1.96   273 1.96   240 2.06
   837  0.333  0.500  0.784-   237 1.85   199 1.85
   838  0.833  0.500  0.784-   238 1.85   200 1.85
   839  0.417  0.500  0.784-   237 1.85   239 1.85
   840  0.917  0.500  0.784-   240 1.85   238 1.85
   841  0.000  0.833  0.216-   245 1.85   328 1.85
   842  0.500  0.833  0.216-   327 1.85   246 1.85
   843  0.083  0.833  0.216-   247 1.85   245 1.85
   844  0.583  0.833  0.216-   248 1.85   246 1.85
   845  0.042  0.729  0.256-   241 1.96   243 1.96   245 2.06
   846  0.542  0.729  0.256-   242 1.96   244 1.96   246 2.06
   847  0.125  0.729  0.256-   243 1.96   281 1.96   247 2.06
   848  0.625  0.729  0.256-   244 1.96   282 1.96   248 2.06
   849  0.042  0.938  0.256-     1 1.96     3 1.96   245 2.06
   850  0.542  0.938  0.256-     2 1.96     4 1.96   246 2.06
   851  0.125  0.938  0.256-     3 1.96    41 1.96   247 2.06
   852  0.625  0.938  0.256-     4 1.96    42 1.96   248 2.06
   853  0.000  0.833  0.309-   249 1.89   245 2.10   328 2.10
   854  0.500  0.833  0.309-   250 1.89   327 2.10   246 2.10
   855  0.083  0.833  0.309-   251 1.89   247 2.10   245 2.10
   856  0.583  0.833  0.309-   252 1.89   248 2.10   246 2.10
   857  0.000  0.667  0.334-   241 1.84   253 2.02   336 2.02
   858  0.500  0.667  0.334-   242 1.84   335 2.02   254 2.02
   859  0.083  0.667  0.334-   243 1.84   255 2.02   253 2.02
   860  0.583  0.667  0.334-   244 1.84   256 2.02   254 2.02
   861  0.042  0.900  0.381-    13 1.98   249 1.99   251 1.99
   862  0.542  0.900  0.381-    14 1.98   250 1.99   252 1.99
   863  0.125  0.900  0.381-    15 1.98   251 1.99   289 1.99
   864  0.625  0.900  0.381-    16 1.98   252 1.99   290 1.99
   865  0.042  0.767  0.381-   253 1.98   249 1.99   251 1.99
   866  0.542  0.767  0.381-   254 1.98   250 1.99   252 1.99
   867  0.125  0.767  0.381-   255 1.98   251 1.99   289 1.99
   868  0.625  0.767  0.381-   256 1.98   252 1.99   290 1.99
   869  0.000  0.667  0.428-   253 1.92   336 1.92   257 2.01
   870  0.500  0.667  0.428-   335 1.92   254 1.92   258 2.01
   871  0.083  0.667  0.428-   255 1.92   253 1.92   259 2.01
   872  0.583  0.667  0.428-   256 1.92   254 1.92   260 2.01
   873  0.000  0.833  0.453-   261 1.97   344 1.97   249 2.10
   874  0.500  0.833  0.453-   343 1.97   262 1.97   250 2.10
   875  0.083  0.833  0.453-   263 1.97   261 1.97   251 2.10
   876  0.583  0.833  0.453-   264 1.97   262 1.97   252 2.10
   877  0.042  0.732  0.500-   257 1.97   259 1.97   261 2.00
   878  0.542  0.732  0.500-   258 1.97   260 1.97   262 2.00
   879  0.125  0.732  0.500-   259 1.97   297 1.97   263 2.00
   880  0.625  0.732  0.500-   260 1.97   298 1.97   264 2.00
   881  0.042  0.935  0.500-    17 1.97    19 1.97   261 2.00
   882  0.542  0.935  0.500-    18 1.97    20 1.97   262 2.00
   883  0.125  0.935  0.500-    19 1.97    57 1.97   263 2.00
   884  0.625  0.935  0.500-    20 1.97    58 1.97   264 2.00
   885  0.000  0.833  0.547-   261 1.97   344 1.97   265 2.10
   886  0.500  0.833  0.547-   343 1.97   262 1.97   266 2.10
   887  0.083  0.833  0.547-   263 1.97   261 1.97   267 2.10
   888  0.583  0.833  0.547-   264 1.97   262 1.97   268 2.10
   889  0.000  0.667  0.572-   269 1.92   352 1.92   257 2.01
   890  0.500  0.667  0.572-   351 1.92   270 1.92   258 2.01
   891  0.083  0.667  0.572-   271 1.92   269 1.92   259 2.01
   892  0.583  0.667  0.572-   272 1.92   270 1.92   260 2.01
   893  0.042  0.900  0.619-    29 1.98   265 1.99   267 1.99
   894  0.542  0.900  0.619-    30 1.98   266 1.99   268 1.99
   895  0.125  0.900  0.619-    31 1.98   267 1.99   305 1.99
   896  0.625  0.900  0.619-    32 1.98   268 1.99   306 1.99
   897  0.042  0.767  0.619-   269 1.98   265 1.99   267 1.99
   898  0.542  0.767  0.619-   270 1.98   266 1.99   268 1.99
   899  0.125  0.767  0.619-   271 1.98   267 1.99   305 1.99
   900  0.625  0.767  0.619-   272 1.98   268 1.99   306 1.99
   901  0.000  0.667  0.666-   273 1.84   269 2.02   352 2.02
   902  0.500  0.667  0.666-   274 1.84   351 2.02   270 2.02
   903  0.083  0.667  0.666-   275 1.84   271 2.02   269 2.02
   904  0.583  0.667  0.666-   276 1.84   272 2.02   270 2.02
   905  0.000  0.833  0.691-   265 1.89   277 2.10   360 2.10
   906  0.500  0.833  0.691-   266 1.89   359 2.10   278 2.10
   907  0.083  0.833  0.691-   267 1.89   279 2.10   277 2.10
   908  0.583  0.833  0.691-   268 1.89   280 2.10   278 2.10
   909  0.042  0.729  0.744-   273 1.96   275 1.96   277 2.06
   910  0.542  0.729  0.744-   274 1.96   276 1.96   278 2.06
   911  0.125  0.729  0.744-   275 1.96   313 1.96   279 2.06
   912  0.625  0.729  0.744-   276 1.96   314 1.96   280 2.06
   913  0.042  0.938  0.744-    33 1.96    35 1.96   277 2.06
   914  0.542  0.938  0.744-    34 1.96    36 1.96   278 2.06
   915  0.125  0.938  0.744-    35 1.96    73 1.96   279 2.06
   916  0.625  0.938  0.744-    36 1.96    74 1.96   280 2.06
   917  0.000  0.833  0.784-   277 1.85   360 1.85
   918  0.500  0.833  0.784-   359 1.85   278 1.85
   919  0.083  0.833  0.784-   279 1.85   277 1.85
   920  0.583  0.833  0.784-   280 1.85   278 1.85
   921  0.167  0.833  0.216-   247 1.85   285 1.85
   922  0.667  0.833  0.216-   286 1.85   248 1.85
   923  0.250  0.833  0.216-   285 1.85   287 1.85
   924  0.750  0.833  0.216-   288 1.85   286 1.85
   925  0.208  0.729  0.256-   283 1.96   281 1.96   285 2.06
   926  0.708  0.729  0.256-   282 1.96   284 1.96   286 2.06
   927  0.292  0.729  0.256-   283 1.96   321 1.96   287 2.06
   928  0.792  0.729  0.256-   284 1.96   322 1.96   288 2.06
   929  0.208  0.938  0.256-    43 1.96    41 1.96   285 2.06
   930  0.708  0.938  0.256-    42 1.96    44 1.96   286 2.06
   931  0.292  0.938  0.256-    43 1.96    81 1.96   287 2.06
   932  0.792  0.938  0.256-    44 1.96    82 1.96   288 2.06
   933  0.167  0.833  0.309-   289 1.89   247 2.10   285 2.10
   934  0.667  0.833  0.309-   290 1.89   286 2.10   248 2.10
   935  0.250  0.833  0.309-   291 1.89   287 2.10   285 2.10
   936  0.750  0.833  0.309-   292 1.89   288 2.10   286 2.10
   937  0.167  0.667  0.334-   281 1.84   255 2.02   293 2.02
   938  0.667  0.667  0.334-   282 1.84   294 2.02   256 2.02
   939  0.250  0.667  0.334-   283 1.84   293 2.02   295 2.02
   940  0.750  0.667  0.334-   284 1.84   296 2.02   294 2.02
   941  0.208  0.900  0.381-    53 1.98   291 1.99   289 1.99
   942  0.708  0.900  0.381-    54 1.98   290 1.99   292 1.99
   943  0.292  0.900  0.381-    55 1.98   291 1.99   329 1.99
   944  0.792  0.900  0.381-    56 1.98   292 1.99   330 1.99
   945  0.208  0.767  0.381-   293 1.98   291 1.99   289 1.99
   946  0.708  0.767  0.381-   294 1.98   290 1.99   292 1.99
   947  0.292  0.767  0.381-   295 1.98   291 1.99   329 1.99
   948  0.792  0.767  0.381-   296 1.98   292 1.99   330 1.99
   949  0.167  0.667  0.428-   255 1.92   293 1.92   297 2.01
   950  0.667  0.667  0.428-   294 1.92   256 1.92   298 2.01
   951  0.250  0.667  0.428-   293 1.92   295 1.92   299 2.01
   952  0.750  0.667  0.428-   296 1.92   294 1.92   300 2.01
   953  0.167  0.833  0.453-   263 1.97   301 1.97   289 2.10
   954  0.667  0.833  0.453-   302 1.97   264 1.97   290 2.10
   955  0.250  0.833  0.453-   301 1.97   303 1.97   291 2.10
   956  0.750  0.833  0.453-   304 1.97   302 1.97   292 2.10
   957  0.208  0.732  0.500-   299 1.97   297 1.97   301 2.00
   958  0.708  0.732  0.500-   298 1.97   300 1.97   302 2.00
   959  0.292  0.732  0.500-   299 1.97   337 1.97   303 2.00
   960  0.792  0.732  0.500-   300 1.97   338 1.97   304 2.00
   961  0.208  0.935  0.500-    59 1.97    57 1.97   301 2.00
   962  0.708  0.935  0.500-    58 1.97    60 1.97   302 2.00
   963  0.292  0.935  0.500-    59 1.97    97 1.97   303 2.00
   964  0.792  0.935  0.500-    60 1.97    98 1.97   304 2.00
   965  0.167  0.833  0.547-   263 1.97   301 1.97   305 2.10
   966  0.667  0.833  0.547-   302 1.97   264 1.97   306 2.10
   967  0.250  0.833  0.547-   301 1.97   303 1.97   307 2.10
   968  0.750  0.833  0.547-   304 1.97   302 1.97   308 2.10
   969  0.167  0.667  0.572-   271 1.92   309 1.92   297 2.01
   970  0.667  0.667  0.572-   310 1.92   272 1.92   298 2.01
   971  0.250  0.667  0.572-   309 1.92   311 1.92   299 2.01
   972  0.750  0.667  0.572-   312 1.92   310 1.92   300 2.01
   973  0.208  0.900  0.619-    69 1.98   307 1.99   305 1.99
   974  0.708  0.900  0.619-    70 1.98   306 1.99   308 1.99
   975  0.292  0.900  0.619-    71 1.98   307 1.99   345 1.99
   976  0.792  0.900  0.619-    72 1.98   308 1.99   346 1.99
   977  0.208  0.767  0.619-   309 1.98   307 1.99   305 1.99
   978  0.708  0.767  0.619-   310 1.98   306 1.99   308 1.99
   979  0.292  0.767  0.619-   311 1.98   307 1.99   345 1.99
   980  0.792  0.767  0.619-   312 1.98   308 1.99   346 1.99
   981  0.167  0.667  0.666-   313 1.84   271 2.02   309 2.02
   982  0.667  0.667  0.666-   314 1.84   310 2.02   272 2.02
   983  0.250  0.667  0.666-   315 1.84   311 2.02   309 2.02
   984  0.750  0.667  0.666-   316 1.84   312 2.02   310 2.02
   985  0.167  0.833  0.691-   305 1.89   279 2.10   317 2.10
   986  0.667  0.833  0.691-   306 1.89   318 2.10   280 2.10
   987  0.250  0.833  0.691-   307 1.89   317 2.10   319 2.10
   988  0.750  0.833  0.691-   308 1.89   320 2.10   318 2.10
   989  0.208  0.729  0.744-   315 1.96   313 1.96   317 2.06
   990  0.708  0.729  0.744-   314 1.96   316 1.96   318 2.06
   991  0.292  0.729  0.744-   315 1.96   353 1.96   319 2.06
   992  0.792  0.729  0.744-   316 1.96   354 1.96   320 2.06
   993  0.208  0.938  0.744-    75 1.96    73 1.96   317 2.06
   994  0.708  0.938  0.744-    74 1.96    76 1.96   318 2.06
   995  0.292  0.938  0.744-    75 1.96   113 1.96   319 2.06
   996  0.792  0.938  0.744-    76 1.96   114 1.96   320 2.06
   997  0.167  0.833  0.784-   279 1.85   317 1.85
   998  0.667  0.833  0.784-   318 1.85   280 1.85
   999  0.250  0.833  0.784-   317 1.85   319 1.85
  1000  0.750  0.833  0.784-   320 1.85   318 1.85
  1001  0.333  0.833  0.216-   325 1.85   287 1.85
  1002  0.833  0.833  0.216-   326 1.85   288 1.85
  1003  0.417  0.833  0.216-   325 1.85   327 1.85
  1004  0.917  0.833  0.216-   328 1.85   326 1.85
  1005  0.375  0.729  0.256-   321 1.96   323 1.96   325 2.06
  1006  0.875  0.729  0.256-   322 1.96   324 1.96   326 2.06
  1007  0.458  0.729  0.256-   242 1.96   323 1.96   327 2.06
  1008  0.958  0.729  0.256-   324 1.96   241 1.96   328 2.06
  1009  0.375  0.938  0.256-    81 1.96    83 1.96   325 2.06
  1010  0.875  0.938  0.256-    82 1.96    84 1.96   326 2.06
  1011  0.458  0.938  0.256-     2 1.96    83 1.96   327 2.06
  1012  0.958  0.938  0.256-    84 1.96     1 1.96   328 2.06
  1013  0.333  0.833  0.309-   329 1.89   325 2.10   287 2.10
  1014  0.833  0.833  0.309-   330 1.89   326 2.10   288 2.10
  1015  0.417  0.833  0.309-   331 1.89   325 2.10   327 2.10
  1016  0.917  0.833  0.309-   332 1.89   328 2.10   326 2.10
  1017  0.333  0.667  0.334-   321 1.84   333 2.02   295 2.02
  1018  0.833  0.667  0.334-   322 1.84   334 2.02   296 2.02
  1019  0.417  0.667  0.334-   323 1.84   333 2.02   335 2.02
  1020  0.917  0.667  0.334-   324 1.84   336 2.02   334 2.02
  1021  0.375  0.900  0.381-    93 1.98   329 1.99   331 1.99
  1022  0.875  0.900  0.381-    94 1.98   330 1.99   332 1.99
  1023  0.458  0.900  0.381-    95 1.98   250 1.99   331 1.99
  1024  0.958  0.900  0.381-    96 1.98   332 1.99   249 1.99
  1025  0.375  0.767  0.381-   333 1.98   331 1.99   329 1.99
  1026  0.875  0.767  0.381-   334 1.98   330 1.99   332 1.99
  1027  0.458  0.767  0.381-   335 1.98   250 1.99   331 1.99
  1028  0.958  0.767  0.381-   336 1.98   332 1.99   249 1.99
  1029  0.333  0.667  0.428-   333 1.92   295 1.92   337 2.01
  1030  0.833  0.667  0.428-   334 1.92   296 1.92   338 2.01
  1031  0.417  0.667  0.428-   333 1.92   335 1.92   339 2.01
  1032  0.917  0.667  0.428-   336 1.92   334 1.92   340 2.01
  1033  0.333  0.833  0.453-   341 1.97   303 1.97   329 2.10
  1034  0.833  0.833  0.453-   342 1.97   304 1.97   330 2.10
  1035  0.417  0.833  0.453-   341 1.97   343 1.97   331 2.10
  1036  0.917  0.833  0.453-   344 1.97   342 1.97   332 2.10
  1037  0.375  0.732  0.500-   337 1.97   339 1.97   341 2.00
  1038  0.875  0.732  0.500-   338 1.97   340 1.97   342 2.00
  1039  0.458  0.732  0.500-   258 1.97   339 1.97   343 2.00
  1040  0.958  0.732  0.500-   340 1.97   257 1.97   344 2.00
  1041  0.375  0.935  0.500-    97 1.97    99 1.97   341 2.00
  1042  0.875  0.935  0.500-    98 1.97   100 1.97   342 2.00
  1043  0.458  0.935  0.500-    18 1.97    99 1.97   343 2.00
  1044  0.958  0.935  0.500-   100 1.97    17 1.97   344 2.00
  1045  0.333  0.833  0.547-   341 1.97   303 1.97   345 2.10
  1046  0.833  0.833  0.547-   342 1.97   304 1.97   346 2.10
  1047  0.417  0.833  0.547-   341 1.97   343 1.97   347 2.10
  1048  0.917  0.833  0.547-   344 1.97   342 1.97   348 2.10
  1049  0.333  0.667  0.572-   349 1.92   311 1.92   337 2.01
  1050  0.833  0.667  0.572-   350 1.92   312 1.92   338 2.01
  1051  0.417  0.667  0.572-   349 1.92   351 1.92   339 2.01
  1052  0.917  0.667  0.572-   352 1.92   350 1.92   340 2.01
  1053  0.375  0.900  0.619-   109 1.98   345 1.99   347 1.99
  1054  0.875  0.900  0.619-   110 1.98   346 1.99   348 1.99
  1055  0.458  0.900  0.619-   111 1.98   266 1.99   347 1.99
  1056  0.958  0.900  0.619-   112 1.98   348 1.99   265 1.99
  1057  0.375  0.767  0.619-   349 1.98   347 1.99   345 1.99
  1058  0.875  0.767  0.619-   350 1.98   346 1.99   348 1.99
  1059  0.458  0.767  0.619-   351 1.98   266 1.99   347 1.99
  1060  0.958  0.767  0.619-   352 1.98   348 1.99   265 1.99
  1061  0.333  0.667  0.666-   353 1.84   349 2.02   311 2.02
  1062  0.833  0.667  0.666-   354 1.84   350 2.02   312 2.02
  1063  0.417  0.667  0.666-   355 1.84   349 2.02   351 2.02
  1064  0.917  0.667  0.666-   356 1.84   352 2.02   350 2.02
  1065  0.333  0.833  0.691-   345 1.89   357 2.10   319 2.10
  1066  0.833  0.833  0.691-   346 1.89   358 2.10   320 2.10
  1067  0.417  0.833  0.691-   347 1.89   357 2.10   359 2.10
  1068  0.917  0.833  0.691-   348 1.89   360 2.10   358 2.10
  1069  0.375  0.729  0.744-   353 1.96   355 1.96   357 2.06
  1070  0.875  0.729  0.744-   354 1.96   356 1.96   358 2.06
  1071  0.458  0.729  0.744-   274 1.96   355 1.96   359 2.06
  1072  0.958  0.729  0.744-   356 1.96   273 1.96   360 2.06
  1073  0.375  0.938  0.744-   113 1.96   115 1.96   357 2.06
  1074  0.875  0.938  0.744-   114 1.96   116 1.96   358 2.06
  1075  0.458  0.938  0.744-    34 1.96   115 1.96   359 2.06
  1076  0.958  0.938  0.744-   116 1.96    33 1.96   360 2.06
  1077  0.333  0.833  0.784-   357 1.85   319 1.85
  1078  0.833  0.833  0.784-   358 1.85   320 1.85
  1079  0.417  0.833  0.784-   357 1.85   359 1.85
  1080  0.917  0.833  0.784-   360 1.85   358 1.85
 

IMPORTANT INFORMATION: All symmetrisations will be switched off!
NOSYMM: (Re-)initialisation of all symmetry stuff for point group C_1.


----------------------------------------------------------------------------------------

                                     Primitive cell                                     

  volume of cell :   19527.7888

  direct lattice vectors                    reciprocal lattice vectors
    35.655696000  0.000000000  0.000000000     0.028046010  0.000000000  0.000000000
     0.000000000 19.745271000  0.000000000     0.000000000  0.050645038  0.000000000
     0.000000000  0.000000000 27.737100000     0.000000000  0.000000000  0.036052796

  length of vectors
    35.655696000 19.745271000 27.737100000     0.028046010  0.050645038  0.036052796

  position of ions in fractional coordinates (direct lattice)
     0.000000000  0.000000000  0.268034307
     0.499998654  0.000000000  0.268034307
     0.083333333  0.000000000  0.268034307
     0.583334567  0.000000000  0.268034307
     0.041666667  0.166666667  0.255754224
     0.541666611  0.166666667  0.255754224
     0.125000000  0.166666667  0.255754224
     0.624999720  0.166666667  0.255754224
     0.000000000  0.166666667  0.377426933
     0.499998654  0.166666667  0.377426933
     0.083333333  0.166666667  0.377426933
     0.583334567  0.166666667  0.377426933
     0.041666667  0.000000000  0.383704025
     0.541666611  0.000000000  0.383704025
     0.125000000  0.000000000  0.383704025
     0.624999720  0.000000000  0.383704025
     0.000000000  0.000000000  0.499999391
     0.499998654  0.000000000  0.499999391
     0.083333333  0.000000000  0.499999391
     0.583334567  0.000000000  0.499999391
     0.041666667  0.166666667  0.499999391
     0.541666611  0.166666667  0.499999391
     0.125000000  0.166666667  0.499999391
     0.624999720  0.166666667  0.499999391
     0.000000000  0.166666667  0.622571848
     0.499998654  0.166666667  0.622571848
     0.083333333  0.166666667  0.622571848
     0.583334567  0.166666667  0.622571848
     0.041666667  0.000000000  0.616294757
     0.541666611  0.000000000  0.616294757
     0.125000000  0.000000000  0.616294757
     0.624999720  0.000000000  0.616294757
     0.000000000  0.000000000  0.731964475
     0.499998654  0.000000000  0.731964475
     0.083333333  0.000000000  0.731964475
     0.583334567  0.000000000  0.731964475
     0.041666667  0.166666667  0.744244558
     0.541666611  0.166666667  0.744244558
     0.125000000  0.166666667  0.744244558
     0.624999720  0.166666667  0.744244558
     0.166666667  0.000000000  0.268034307
     0.666667676  0.000000000  0.268034307
     0.250000000  0.000000000  0.268034307
     0.750000785  0.000000000  0.268034307
     0.208333333  0.166666667  0.255754224
     0.708332829  0.166666667  0.255754224
     0.291666667  0.166666667  0.255754224
     0.791665937  0.166666667  0.255754224
     0.166666667  0.166666667  0.377426933
     0.666667676  0.166666667  0.377426933
     0.250000000  0.166666667  0.377426933
     0.750000785  0.166666667  0.377426933
     0.208333333  0.000000000  0.383704025
     0.708332829  0.000000000  0.383704025
     0.291666667  0.000000000  0.383704025
     0.791665937  0.000000000  0.383704025
     0.166666667  0.000000000  0.499999391
     0.666667676  0.000000000  0.499999391
     0.250000000  0.000000000  0.499999391
     0.750000785  0.000000000  0.499999391
     0.208333333  0.166666667  0.499999391
     0.708332829  0.166666667  0.499999391
     0.291666667  0.166666667  0.499999391
     0.791665937  0.166666667  0.499999391
     0.166666667  0.166666667  0.622571848
     0.666667676  0.166666667  0.622571848
     0.250000000  0.166666667  0.622571848
     0.750000785  0.166666667  0.622571848
     0.208333333  0.000000000  0.616294757
     0.708332829  0.000000000  0.616294757
     0.291666667  0.000000000  0.616294757
     0.791665937  0.000000000  0.616294757
     0.166666667  0.000000000  0.731964475
     0.666667676  0.000000000  0.731964475
     0.250000000  0.000000000  0.731964475
     0.750000785  0.000000000  0.731964475
     0.208333333  0.166666667  0.744244558
     0.708332829  0.166666667  0.744244558
     0.291666667  0.166666667  0.744244558
     0.791665937  0.166666667  0.744244558
     0.333333333  0.000000000  0.268034307
     0.833333894  0.000000000  0.268034307
     0.416666667  0.000000000  0.268034307
     0.916667003  0.000000000  0.268034307
     0.375000000  0.166666667  0.255754224
     0.874999046  0.166666667  0.255754224
     0.458333333  0.166666667  0.255754224
     0.958332155  0.166666667  0.255754224
     0.333333333  0.166666667  0.377426933
     0.833333894  0.166666667  0.377426933
     0.416666667  0.166666667  0.377426933
     0.916667003  0.166666667  0.377426933
     0.375000000  0.000000000  0.383704025
     0.874999046  0.000000000  0.383704025
     0.458333333  0.000000000  0.383704025
     0.958332155  0.000000000  0.383704025
     0.333333333  0.000000000  0.499999391
     0.833333894  0.000000000  0.499999391
     0.416666667  0.000000000  0.499999391
     0.916667003  0.000000000  0.499999391
     0.375000000  0.166666667  0.499999391
     0.874999046  0.166666667  0.499999391
     0.458333333  0.166666667  0.499999391
     0.958332155  0.166666667  0.499999391
     0.333333333  0.166666667  0.622571848
     0.833333894  0.166666667  0.622571848
     0.416666667  0.166666667  0.622571848
     0.916667003  0.166666667  0.622571848
     0.375000000  0.000000000  0.616294757
     0.874999046  0.000000000  0.616294757
     0.458333333  0.000000000  0.616294757
     0.958332155  0.000000000  0.616294757
     0.333333333  0.000000000  0.731964475
     0.833333894  0.000000000  0.731964475
     0.416666667  0.000000000  0.731964475
     0.916667003  0.000000000  0.731964475
     0.375000000  0.166666667  0.744244558
     0.874999046  0.166666667  0.744244558
     0.458333333  0.166666667  0.744244558
     0.958332155  0.166666667  0.744244558
     0.000000000  0.333333333  0.268034307
     0.499998654  0.333333333  0.268034307
     0.083333333  0.333333333  0.268034307
     0.583334567  0.333333333  0.268034307
     0.041666667  0.500000000  0.255754224
     0.541666611  0.500000000  0.255754224
     0.125000000  0.500000000  0.255754224
     0.624999720  0.500000000  0.255754224
     0.000000000  0.500000000  0.377426933
     0.499998654  0.500000000  0.377426933
     0.083333333  0.500000000  0.377426933
     0.583334567  0.500000000  0.377426933
     0.041666667  0.333333333  0.383704025
     0.541666611  0.333333333  0.383704025
     0.125000000  0.333333333  0.383704025
     0.624999720  0.333333333  0.383704025
     0.000000000  0.333333333  0.499999391
     0.499998654  0.333333333  0.499999391
     0.083333333  0.333333333  0.499999391
     0.583334567  0.333333333  0.499999391
     0.041666667  0.500000000  0.499999391
     0.541666611  0.500000000  0.499999391
     0.125000000  0.500000000  0.499999391
     0.624999720  0.500000000  0.499999391
     0.000000000  0.500000000  0.622571848
     0.499998654  0.500000000  0.622571848
     0.083333333  0.500000000  0.622571848
     0.583334567  0.500000000  0.622571848
     0.041666667  0.333333333  0.616294757
     0.541666611  0.333333333  0.616294757
     0.125000000  0.333333333  0.616294757
     0.624999720  0.333333333  0.616294757
     0.000000000  0.333333333  0.731964475
     0.499998654  0.333333333  0.731964475
     0.083333333  0.333333333  0.731964475
     0.583334567  0.333333333  0.731964475
     0.041666667  0.500000000  0.744244558
     0.541666611  0.500000000  0.744244558
     0.125000000  0.500000000  0.744244558
     0.624999720  0.500000000  0.744244558
     0.166666667  0.333333333  0.268034307
     0.666667676  0.333333333  0.268034307
     0.250000000  0.333333333  0.268034307
     0.750000785  0.333333333  0.268034307
     0.208333333  0.500000000  0.255754224
     0.708332829  0.500000000  0.255754224
     0.291666667  0.500000000  0.255754224
     0.791665937  0.500000000  0.255754224
     0.166666667  0.500000000  0.377426933
     0.666667676  0.500000000  0.377426933
     0.250000000  0.500000000  0.377426933
     0.750000785  0.500000000  0.377426933
     0.208333333  0.333333333  0.383704025
     0.708332829  0.333333333  0.383704025
     0.291666667  0.333333333  0.383704025
     0.791665937  0.333333333  0.383704025
     0.166666667  0.333333333  0.499999391
     0.666667676  0.333333333  0.499999391
     0.250000000  0.333333333  0.499999391
     0.750000785  0.333333333  0.499999391
     0.208333333  0.500000000  0.499999391
     0.708332829  0.500000000  0.499999391
     0.291666667  0.500000000  0.499999391
     0.791665937  0.500000000  0.499999391
     0.166666667  0.500000000  0.622571848
     0.666667676  0.500000000  0.622571848
     0.250000000  0.500000000  0.622571848
     0.750000785  0.500000000  0.622571848
     0.208333333  0.333333333  0.616294757
     0.708332829  0.333333333  0.616294757
     0.291666667  0.333333333  0.616294757
     0.791665937  0.333333333  0.616294757
     0.166666667  0.333333333  0.731964475
     0.666667676  0.333333333  0.731964475
     0.250000000  0.333333333  0.731964475
     0.750000785  0.333333333  0.731964475
     0.208333333  0.500000000  0.744244558
     0.708332829  0.500000000  0.744244558
     0.291666667  0.500000000  0.744244558
     0.791665937  0.500000000  0.744244558
     0.333333333  0.333333333  0.268034307
     0.833333894  0.333333333  0.268034307
     0.416666667  0.333333333  0.268034307
     0.916667003  0.333333333  0.268034307
     0.375000000  0.500000000  0.255754224
     0.874999046  0.500000000  0.255754224
     0.458333333  0.500000000  0.255754224
     0.958332155  0.500000000  0.255754224
     0.333333333  0.500000000  0.377426933
     0.833333894  0.500000000  0.377426933
     0.416666667  0.500000000  0.377426933
     0.916667003  0.500000000  0.377426933
     0.375000000  0.333333333  0.383704025
     0.874999046  0.333333333  0.383704025
     0.458333333  0.333333333  0.383704025
     0.958332155  0.333333333  0.383704025
     0.333333333  0.333333333  0.499999391
     0.833333894  0.333333333  0.499999391
     0.416666667  0.333333333  0.499999391
     0.916667003  0.333333333  0.499999391
     0.375000000  0.500000000  0.499999391
     0.874999046  0.500000000  0.499999391
     0.458333333  0.500000000  0.499999391
     0.958332155  0.500000000  0.499999391
     0.333333333  0.500000000  0.622571848
     0.833333894  0.500000000  0.622571848
     0.416666667  0.500000000  0.622571848
     0.916667003  0.500000000  0.622571848
     0.375000000  0.333333333  0.616294757
     0.874999046  0.333333333  0.616294757
     0.458333333  0.333333333  0.616294757
     0.958332155  0.333333333  0.616294757
     0.333333333  0.333333333  0.731964475
     0.833333894  0.333333333  0.731964475
     0.416666667  0.333333333  0.731964475
     0.916667003  0.333333333  0.731964475
     0.375000000  0.500000000  0.744244558
     0.874999046  0.500000000  0.744244558
     0.458333333  0.500000000  0.744244558
     0.958332155  0.500000000  0.744244558
     0.000000000  0.666666667  0.268034307
     0.499998654  0.666666667  0.268034307
     0.083333333  0.666666667  0.268034307
     0.583334567  0.666666667  0.268034307
     0.041666667  0.833333333  0.255754224
     0.541666611  0.833333333  0.255754224
     0.125000000  0.833333333  0.255754224
     0.624999720  0.833333333  0.255754224
     0.000000000  0.833333333  0.377426933
     0.499998654  0.833333333  0.377426933
     0.083333333  0.833333333  0.377426933
     0.583334567  0.833333333  0.377426933
     0.041666667  0.666666667  0.383704025
     0.541666611  0.666666667  0.383704025
     0.125000000  0.666666667  0.383704025
     0.624999720  0.666666667  0.383704025
     0.000000000  0.666666667  0.499999391
     0.499998654  0.666666667  0.499999391
     0.083333333  0.666666667  0.499999391
     0.583334567  0.666666667  0.499999391
     0.041666667  0.833333333  0.499999391
     0.541666611  0.833333333  0.499999391
     0.125000000  0.833333333  0.499999391
     0.624999720  0.833333333  0.499999391
     0.000000000  0.833333333  0.622571848
     0.499998654  0.833333333  0.622571848
     0.083333333  0.833333333  0.622571848
     0.583334567  0.833333333  0.622571848
     0.041666667  0.666666667  0.616294757
     0.541666611  0.666666667  0.616294757
     0.125000000  0.666666667  0.616294757
     0.624999720  0.666666667  0.616294757
     0.000000000  0.666666667  0.731964475
     0.499998654  0.666666667  0.731964475
     0.083333333  0.666666667  0.731964475
     0.583334567  0.666666667  0.731964475
     0.041666667  0.833333333  0.744244558
     0.541666611  0.833333333  0.744244558
     0.125000000  0.833333333  0.744244558
     0.624999720  0.833333333  0.744244558
     0.166666667  0.666666667  0.268034307
     0.666667676  0.666666667  0.268034307
     0.250000000  0.666666667  0.268034307
     0.750000785  0.666666667  0.268034307
     0.208333333  0.833333333  0.255754224
     0.708332829  0.833333333  0.255754224
     0.291666667  0.833333333  0.255754224
     0.791665937  0.833333333  0.255754224
     0.166666667  0.833333333  0.377426933
     0.666667676  0.833333333  0.377426933
     0.250000000  0.833333333  0.377426933
     0.750000785  0.833333333  0.377426933
     0.208333333  0.666666667  0.383704025
     0.708332829  0.666666667  0.383704025
     0.291666667  0.666666667  0.383704025
     0.791665937  0.666666667  0.383704025
     0.166666667  0.666666667  0.499999391
     0.666667676  0.666666667  0.499999391
     0.250000000  0.666666667  0.499999391
     0.750000785  0.666666667  0.499999391
     0.208333333  0.833333333  0.499999391
     0.708332829  0.833333333  0.499999391
     0.291666667  0.833333333  0.499999391
     0.791665937  0.833333333  0.499999391
     0.166666667  0.833333333  0.622571848
     0.666667676  0.833333333  0.622571848
     0.250000000  0.833333333  0.622571848
     0.750000785  0.833333333  0.622571848
     0.208333333  0.666666667  0.616294757
     0.708332829  0.666666667  0.616294757
     0.291666667  0.666666667  0.616294757
     0.791665937  0.666666667  0.616294757
     0.166666667  0.666666667  0.731964475
     0.666667676  0.666666667  0.731964475
     0.250000000  0.666666667  0.731964475
     0.750000785  0.666666667  0.731964475
     0.208333333  0.833333333  0.744244558
     0.708332829  0.833333333  0.744244558
     0.291666667  0.833333333  0.744244558
     0.791665937  0.833333333  0.744244558
     0.333333333  0.666666667  0.268034307
     0.833333894  0.666666667  0.268034307
     0.416666667  0.666666667  0.268034307
     0.916667003  0.666666667  0.268034307
     0.375000000  0.833333333  0.255754224
     0.874999046  0.833333333  0.255754224
     0.458333333  0.833333333  0.255754224
     0.958332155  0.833333333  0.255754224
     0.333333333  0.833333333  0.377426933
     0.833333894  0.833333333  0.377426933
     0.416666667  0.833333333  0.377426933
     0.916667003  0.833333333  0.377426933
     0.375000000  0.666666667  0.383704025
     0.874999046  0.666666667  0.383704025
     0.458333333  0.666666667  0.383704025
     0.958332155  0.666666667  0.383704025
     0.333333333  0.666666667  0.499999391
     0.833333894  0.666666667  0.499999391
     0.416666667  0.666666667  0.499999391
     0.916667003  0.666666667  0.499999391
     0.375000000  0.833333333  0.499999391
     0.874999046  0.833333333  0.499999391
     0.458333333  0.833333333  0.499999391
     0.958332155  0.833333333  0.499999391
     0.333333333  0.833333333  0.622571848
     0.833333894  0.833333333  0.622571848
     0.416666667  0.833333333  0.622571848
     0.916667003  0.833333333  0.622571848
     0.375000000  0.666666667  0.616294757
     0.874999046  0.666666667  0.616294757
     0.458333333  0.666666667  0.616294757
     0.958332155  0.666666667  0.616294757
     0.333333333  0.666666667  0.731964475
     0.833333894  0.666666667  0.731964475
     0.416666667  0.666666667  0.731964475
     0.916667003  0.666666667  0.731964475
     0.375000000  0.833333333  0.744244558
     0.874999046  0.833333333  0.744244558
     0.458333333  0.833333333  0.744244558
     0.958332155  0.833333333  0.744244558
     0.000000000  0.166666667  0.216094601
     0.499998654  0.166666667  0.216094601
     0.083333333  0.166666667  0.216094601
     0.583334567  0.166666667  0.216094601
     0.041666667  0.062458111  0.256340397
     0.541666611  0.062458111  0.256340397
     0.125000000  0.062458111  0.256340397
     0.624999720  0.062458111  0.256340397
     0.041666667  0.270875222  0.256340397
     0.541666611  0.270875222  0.256340397
     0.125000000  0.270875222  0.256340397
     0.624999720  0.270875222  0.256340397
     0.000000000  0.166666667  0.309183199
     0.499998654  0.166666667  0.309183199
     0.083333333  0.166666667  0.309183199
     0.583334567  0.166666667  0.309183199
     0.000000000  0.000000000  0.334447401
     0.499998654  0.000000000  0.334447401
     0.083333333  0.000000000  0.334447401
     0.583334567  0.000000000  0.334447401
     0.041666667  0.233373700  0.380895943
     0.541666611  0.233373700  0.380895943
     0.125000000  0.233373700  0.380895943
     0.624999720  0.233373700  0.380895943
     0.041666667  0.099959633  0.380895943
     0.541666611  0.099959633  0.380895943
     0.125000000  0.099959633  0.380895943
     0.624999720  0.099959633  0.380895943
     0.000000000  0.000000000  0.427533879
     0.499998654  0.000000000  0.427533879
     0.083333333  0.000000000  0.427533879
     0.583334567  0.000000000  0.427533879
     0.000000000  0.166666667  0.453310542
     0.499998654  0.166666667  0.453310542
     0.083333333  0.166666667  0.453310542
     0.583334567  0.166666667  0.453310542
     0.041666667  0.065168825  0.499999391
     0.541666611  0.065168825  0.499999391
     0.125000000  0.065168825  0.499999391
     0.624999720  0.065168825  0.499999391
     0.041666667  0.268164508  0.499999391
     0.541666611  0.268164508  0.499999391
     0.125000000  0.268164508  0.499999391
     0.624999720  0.268164508  0.499999391
     0.000000000  0.166666667  0.546688240
     0.499998654  0.166666667  0.546688240
     0.083333333  0.166666667  0.546688240
     0.583334567  0.166666667  0.546688240
     0.000000000  0.000000000  0.572464903
     0.499998654  0.000000000  0.572464903
     0.083333333  0.000000000  0.572464903
     0.583334567  0.000000000  0.572464903
     0.041666667  0.233373700  0.619102838
     0.541666611  0.233373700  0.619102838
     0.125000000  0.233373700  0.619102838
     0.624999720  0.233373700  0.619102838
     0.041666667  0.099959633  0.619102838
     0.541666611  0.099959633  0.619102838
     0.125000000  0.099959633  0.619102838
     0.624999720  0.099959633  0.619102838
     0.000000000  0.000000000  0.665551381
     0.499998654  0.000000000  0.665551381
     0.083333333  0.000000000  0.665551381
     0.583334567  0.000000000  0.665551381
     0.000000000  0.166666667  0.690815583
     0.499998654  0.166666667  0.690815583
     0.083333333  0.166666667  0.690815583
     0.583334567  0.166666667  0.690815583
     0.041666667  0.062458111  0.743658385
     0.541666611  0.062458111  0.743658385
     0.125000000  0.062458111  0.743658385
     0.624999720  0.062458111  0.743658385
     0.041666667  0.270875222  0.743658385
     0.541666611  0.270875222  0.743658385
     0.125000000  0.270875222  0.743658385
     0.624999720  0.270875222  0.743658385
     0.000000000  0.166666667  0.783904181
     0.499998654  0.166666667  0.783904181
     0.083333333  0.166666667  0.783904181
     0.583334567  0.166666667  0.783904181
     0.166666667  0.166666667  0.216094601
     0.666667676  0.166666667  0.216094601
     0.250000000  0.166666667  0.216094601
     0.750000785  0.166666667  0.216094601
     0.208333333  0.062458111  0.256340397
     0.708332829  0.062458111  0.256340397
     0.291666667  0.062458111  0.256340397
     0.791665937  0.062458111  0.256340397
     0.208333333  0.270875222  0.256340397
     0.708332829  0.270875222  0.256340397
     0.291666667  0.270875222  0.256340397
     0.791665937  0.270875222  0.256340397
     0.166666667  0.166666667  0.309183199
     0.666667676  0.166666667  0.309183199
     0.250000000  0.166666667  0.309183199
     0.750000785  0.166666667  0.309183199
     0.166666667  0.000000000  0.334447401
     0.666667676  0.000000000  0.334447401
     0.250000000  0.000000000  0.334447401
     0.750000785  0.000000000  0.334447401
     0.208333333  0.233373700  0.380895943
     0.708332829  0.233373700  0.380895943
     0.291666667  0.233373700  0.380895943
     0.791665937  0.233373700  0.380895943
     0.208333333  0.099959633  0.380895943
     0.708332829  0.099959633  0.380895943
     0.291666667  0.099959633  0.380895943
     0.791665937  0.099959633  0.380895943
     0.166666667  0.000000000  0.427533879
     0.666667676  0.000000000  0.427533879
     0.250000000  0.000000000  0.427533879
     0.750000785  0.000000000  0.427533879
     0.166666667  0.166666667  0.453310542
     0.666667676  0.166666667  0.453310542
     0.250000000  0.166666667  0.453310542
     0.750000785  0.166666667  0.453310542
     0.208333333  0.065168825  0.499999391
     0.708332829  0.065168825  0.499999391
     0.291666667  0.065168825  0.499999391
     0.791665937  0.065168825  0.499999391
     0.208333333  0.268164508  0.499999391
     0.708332829  0.268164508  0.499999391
     0.291666667  0.268164508  0.499999391
     0.791665937  0.268164508  0.499999391
     0.166666667  0.166666667  0.546688240
     0.666667676  0.166666667  0.546688240
     0.250000000  0.166666667  0.546688240
     0.750000785  0.166666667  0.546688240
     0.166666667  0.000000000  0.572464903
     0.666667676  0.000000000  0.572464903
     0.250000000  0.000000000  0.572464903
     0.750000785  0.000000000  0.572464903
     0.208333333  0.233373700  0.619102838
     0.708332829  0.233373700  0.619102838
     0.291666667  0.233373700  0.619102838
     0.791665937  0.233373700  0.619102838
     0.208333333  0.099959633  0.619102838
     0.708332829  0.099959633  0.619102838
     0.291666667  0.099959633  0.619102838
     0.791665937  0.099959633  0.619102838
     0.166666667  0.000000000  0.665551381
     0.666667676  0.000000000  0.665551381
     0.250000000  0.000000000  0.665551381
     0.750000785  0.000000000  0.665551381
     0.166666667  0.166666667  0.690815583
     0.666667676  0.166666667  0.690815583
     0.250000000  0.166666667  0.690815583
     0.750000785  0.166666667  0.690815583
     0.208333333  0.062458111  0.743658385
     0.708332829  0.062458111  0.743658385
     0.291666667  0.062458111  0.743658385
     0.791665937  0.062458111  0.743658385
     0.208333333  0.270875222  0.743658385
     0.708332829  0.270875222  0.743658385
     0.291666667  0.270875222  0.743658385
     0.791665937  0.270875222  0.743658385
     0.166666667  0.166666667  0.783904181
     0.666667676  0.166666667  0.783904181
     0.250000000  0.166666667  0.783904181
     0.750000785  0.166666667  0.783904181
     0.333333333  0.166666667  0.216094601
     0.833333894  0.166666667  0.216094601
     0.416666667  0.166666667  0.216094601
     0.916667003  0.166666667  0.216094601
     0.375000000  0.062458111  0.256340397
     0.874999046  0.062458111  0.256340397
     0.458333333  0.062458111  0.256340397
     0.958332155  0.062458111  0.256340397
     0.375000000  0.270875222  0.256340397
     0.874999046  0.270875222  0.256340397
     0.458333333  0.270875222  0.256340397
     0.958332155  0.270875222  0.256340397
     0.333333333  0.166666667  0.309183199
     0.833333894  0.166666667  0.309183199
     0.416666667  0.166666667  0.309183199
     0.916667003  0.166666667  0.309183199
     0.333333333  0.000000000  0.334447401
     0.833333894  0.000000000  0.334447401
     0.416666667  0.000000000  0.334447401
     0.916667003  0.000000000  0.334447401
     0.375000000  0.233373700  0.380895943
     0.874999046  0.233373700  0.380895943
     0.458333333  0.233373700  0.380895943
     0.958332155  0.233373700  0.380895943
     0.375000000  0.099959633  0.380895943
     0.874999046  0.099959633  0.380895943
     0.458333333  0.099959633  0.380895943
     0.958332155  0.099959633  0.380895943
     0.333333333  0.000000000  0.427533879
     0.833333894  0.000000000  0.427533879
     0.416666667  0.000000000  0.427533879
     0.916667003  0.000000000  0.427533879
     0.333333333  0.166666667  0.453310542
     0.833333894  0.166666667  0.453310542
     0.416666667  0.166666667  0.453310542
     0.916667003  0.166666667  0.453310542
     0.375000000  0.065168825  0.499999391
     0.874999046  0.065168825  0.499999391
     0.458333333  0.065168825  0.499999391
     0.958332155  0.065168825  0.499999391
     0.375000000  0.268164508  0.499999391
     0.874999046  0.268164508  0.499999391
     0.458333333  0.268164508  0.499999391
     0.958332155  0.268164508  0.499999391
     0.333333333  0.166666667  0.546688240
     0.833333894  0.166666667  0.546688240
     0.416666667  0.166666667  0.546688240
     0.916667003  0.166666667  0.546688240
     0.333333333  0.000000000  0.572464903
     0.833333894  0.000000000  0.572464903
     0.416666667  0.000000000  0.572464903
     0.916667003  0.000000000  0.572464903
     0.375000000  0.233373700  0.619102838
     0.874999046  0.233373700  0.619102838
     0.458333333  0.233373700  0.619102838
     0.958332155  0.233373700  0.619102838
     0.375000000  0.099959633  0.619102838
     0.874999046  0.099959633  0.619102838
     0.458333333  0.099959633  0.619102838
     0.958332155  0.099959633  0.619102838
     0.333333333  0.000000000  0.665551381
     0.833333894  0.000000000  0.665551381
     0.416666667  0.000000000  0.665551381
     0.916667003  0.000000000  0.665551381
     0.333333333  0.166666667  0.690815583
     0.833333894  0.166666667  0.690815583
     0.416666667  0.166666667  0.690815583
     0.916667003  0.166666667  0.690815583
     0.375000000  0.062458111  0.743658385
     0.874999046  0.062458111  0.743658385
     0.458333333  0.062458111  0.743658385
     0.958332155  0.062458111  0.743658385
     0.375000000  0.270875222  0.743658385
     0.874999046  0.270875222  0.743658385
     0.458333333  0.270875222  0.743658385
     0.958332155  0.270875222  0.743658385
     0.333333333  0.166666667  0.783904181
     0.833333894  0.166666667  0.783904181
     0.416666667  0.166666667  0.783904181
     0.916667003  0.166666667  0.783904181
     0.000000000  0.500000000  0.216094601
     0.499998654  0.500000000  0.216094601
     0.083333333  0.500000000  0.216094601
     0.583334567  0.500000000  0.216094601
     0.041666667  0.395791444  0.256340397
     0.541666611  0.395791444  0.256340397
     0.125000000  0.395791444  0.256340397
     0.624999720  0.395791444  0.256340397
     0.041666667  0.604208556  0.256340397
     0.541666611  0.604208556  0.256340397
     0.125000000  0.604208556  0.256340397
     0.624999720  0.604208556  0.256340397
     0.000000000  0.500000000  0.309183199
     0.499998654  0.500000000  0.309183199
     0.083333333  0.500000000  0.309183199
     0.583334567  0.500000000  0.309183199
     0.000000000  0.333333333  0.334447401
     0.499998654  0.333333333  0.334447401
     0.083333333  0.333333333  0.334447401
     0.583334567  0.333333333  0.334447401
     0.041666667  0.566707033  0.380895943
     0.541666611  0.566707033  0.380895943
     0.125000000  0.566707033  0.380895943
     0.624999720  0.566707033  0.380895943
     0.041666667  0.433292967  0.380895943
     0.541666611  0.433292967  0.380895943
     0.125000000  0.433292967  0.380895943
     0.624999720  0.433292967  0.380895943
     0.000000000  0.333333333  0.427533879
     0.499998654  0.333333333  0.427533879
     0.083333333  0.333333333  0.427533879
     0.583334567  0.333333333  0.427533879
     0.000000000  0.500000000  0.453310542
     0.499998654  0.500000000  0.453310542
     0.083333333  0.500000000  0.453310542
     0.583334567  0.500000000  0.453310542
     0.041666667  0.398502159  0.499999391
     0.541666611  0.398502159  0.499999391
     0.125000000  0.398502159  0.499999391
     0.624999720  0.398502159  0.499999391
     0.041666667  0.601497841  0.499999391
     0.541666611  0.601497841  0.499999391
     0.125000000  0.601497841  0.499999391
     0.624999720  0.601497841  0.499999391
     0.000000000  0.500000000  0.546688240
     0.499998654  0.500000000  0.546688240
     0.083333333  0.500000000  0.546688240
     0.583334567  0.500000000  0.546688240
     0.000000000  0.333333333  0.572464903
     0.499998654  0.333333333  0.572464903
     0.083333333  0.333333333  0.572464903
     0.583334567  0.333333333  0.572464903
     0.041666667  0.566707033  0.619102838
     0.541666611  0.566707033  0.619102838
     0.125000000  0.566707033  0.619102838
     0.624999720  0.566707033  0.619102838
     0.041666667  0.433292967  0.619102838
     0.541666611  0.433292967  0.619102838
     0.125000000  0.433292967  0.619102838
     0.624999720  0.433292967  0.619102838
     0.000000000  0.333333333  0.665551381
     0.499998654  0.333333333  0.665551381
     0.083333333  0.333333333  0.665551381
     0.583334567  0.333333333  0.665551381
     0.000000000  0.500000000  0.690815583
     0.499998654  0.500000000  0.690815583
     0.083333333  0.500000000  0.690815583
     0.583334567  0.500000000  0.690815583
     0.041666667  0.395791444  0.743658385
     0.541666611  0.395791444  0.743658385
     0.125000000  0.395791444  0.743658385
     0.624999720  0.395791444  0.743658385
     0.041666667  0.604208556  0.743658385
     0.541666611  0.604208556  0.743658385
     0.125000000  0.604208556  0.743658385
     0.624999720  0.604208556  0.743658385
     0.000000000  0.500000000  0.783904181
     0.499998654  0.500000000  0.783904181
     0.083333333  0.500000000  0.783904181
     0.583334567  0.500000000  0.783904181
     0.166666667  0.500000000  0.216094601
     0.666667676  0.500000000  0.216094601
     0.250000000  0.500000000  0.216094601
     0.750000785  0.500000000  0.216094601
     0.208333333  0.395791444  0.256340397
     0.708332829  0.395791444  0.256340397
     0.291666667  0.395791444  0.256340397
     0.791665937  0.395791444  0.256340397
     0.208333333  0.604208556  0.256340397
     0.708332829  0.604208556  0.256340397
     0.291666667  0.604208556  0.256340397
     0.791665937  0.604208556  0.256340397
     0.166666667  0.500000000  0.309183199
     0.666667676  0.500000000  0.309183199
     0.250000000  0.500000000  0.309183199
     0.750000785  0.500000000  0.309183199
     0.166666667  0.333333333  0.334447401
     0.666667676  0.333333333  0.334447401
     0.250000000  0.333333333  0.334447401
     0.750000785  0.333333333  0.334447401
     0.208333333  0.566707033  0.380895943
     0.708332829  0.566707033  0.380895943
     0.291666667  0.566707033  0.380895943
     0.791665937  0.566707033  0.380895943
     0.208333333  0.433292967  0.380895943
     0.708332829  0.433292967  0.380895943
     0.291666667  0.433292967  0.380895943
     0.791665937  0.433292967  0.380895943
     0.166666667  0.333333333  0.427533879
     0.666667676  0.333333333  0.427533879
     0.250000000  0.333333333  0.427533879
     0.750000785  0.333333333  0.427533879
     0.166666667  0.500000000  0.453310542
     0.666667676  0.500000000  0.453310542
     0.250000000  0.500000000  0.453310542
     0.750000785  0.500000000  0.453310542
     0.208333333  0.398502159  0.499999391
     0.708332829  0.398502159  0.499999391
     0.291666667  0.398502159  0.499999391
     0.791665937  0.398502159  0.499999391
     0.208333333  0.601497841  0.499999391
     0.708332829  0.601497841  0.499999391
     0.291666667  0.601497841  0.499999391
     0.791665937  0.601497841  0.499999391
     0.166666667  0.500000000  0.546688240
     0.666667676  0.500000000  0.546688240
     0.250000000  0.500000000  0.546688240
     0.750000785  0.500000000  0.546688240
     0.166666667  0.333333333  0.572464903
     0.666667676  0.333333333  0.572464903
     0.250000000  0.333333333  0.572464903
     0.750000785  0.333333333  0.572464903
     0.208333333  0.566707033  0.619102838
     0.708332829  0.566707033  0.619102838
     0.291666667  0.566707033  0.619102838
     0.791665937  0.566707033  0.619102838
     0.208333333  0.433292967  0.619102838
     0.708332829  0.433292967  0.619102838
     0.291666667  0.433292967  0.619102838
     0.791665937  0.433292967  0.619102838
     0.166666667  0.333333333  0.665551381
     0.666667676  0.333333333  0.665551381
     0.250000000  0.333333333  0.665551381
     0.750000785  0.333333333  0.665551381
     0.166666667  0.500000000  0.690815583
     0.666667676  0.500000000  0.690815583
     0.250000000  0.500000000  0.690815583
     0.750000785  0.500000000  0.690815583
     0.208333333  0.395791444  0.743658385
     0.708332829  0.395791444  0.743658385
     0.291666667  0.395791444  0.743658385
     0.791665937  0.395791444  0.743658385
     0.208333333  0.604208556  0.743658385
     0.708332829  0.604208556  0.743658385
     0.291666667  0.604208556  0.743658385
     0.791665937  0.604208556  0.743658385
     0.166666667  0.500000000  0.783904181
     0.666667676  0.500000000  0.783904181
     0.250000000  0.500000000  0.783904181
     0.750000785  0.500000000  0.783904181
     0.333333333  0.500000000  0.216094601
     0.833333894  0.500000000  0.216094601
     0.416666667  0.500000000  0.216094601
     0.916667003  0.500000000  0.216094601
     0.375000000  0.395791444  0.256340397
     0.874999046  0.395791444  0.256340397
     0.458333333  0.395791444  0.256340397
     0.958332155  0.395791444  0.256340397
     0.375000000  0.604208556  0.256340397
     0.874999046  0.604208556  0.256340397
     0.458333333  0.604208556  0.256340397
     0.958332155  0.604208556  0.256340397
     0.333333333  0.500000000  0.309183199
     0.833333894  0.500000000  0.309183199
     0.416666667  0.500000000  0.309183199
     0.916667003  0.500000000  0.309183199
     0.333333333  0.333333333  0.334447401
     0.833333894  0.333333333  0.334447401
     0.416666667  0.333333333  0.334447401
     0.916667003  0.333333333  0.334447401
     0.375000000  0.566707033  0.380895943
     0.874999046  0.566707033  0.380895943
     0.458333333  0.566707033  0.380895943
     0.958332155  0.566707033  0.380895943
     0.375000000  0.433292967  0.380895943
     0.874999046  0.433292967  0.380895943
     0.458333333  0.433292967  0.380895943
     0.958332155  0.433292967  0.380895943
     0.333333333  0.333333333  0.427533879
     0.833333894  0.333333333  0.427533879
     0.416666667  0.333333333  0.427533879
     0.916667003  0.333333333  0.427533879
     0.333333333  0.500000000  0.453310542
     0.833333894  0.500000000  0.453310542
     0.416666667  0.500000000  0.453310542
     0.916667003  0.500000000  0.453310542
     0.375000000  0.398502159  0.499999391
     0.874999046  0.398502159  0.499999391
     0.458333333  0.398502159  0.499999391
     0.958332155  0.398502159  0.499999391
     0.375000000  0.601497841  0.499999391
     0.874999046  0.601497841  0.499999391
     0.458333333  0.601497841  0.499999391
     0.958332155  0.601497841  0.499999391
     0.333333333  0.500000000  0.546688240
     0.833333894  0.500000000  0.546688240
     0.416666667  0.500000000  0.546688240
     0.916667003  0.500000000  0.546688240
     0.333333333  0.333333333  0.572464903
     0.833333894  0.333333333  0.572464903
     0.416666667  0.333333333  0.572464903
     0.916667003  0.333333333  0.572464903
     0.375000000  0.566707033  0.619102838
     0.874999046  0.566707033  0.619102838
     0.458333333  0.566707033  0.619102838
     0.958332155  0.566707033  0.619102838
     0.375000000  0.433292967  0.619102838
     0.874999046  0.433292967  0.619102838
     0.458333333  0.433292967  0.619102838
     0.958332155  0.433292967  0.619102838
     0.333333333  0.333333333  0.665551381
     0.833333894  0.333333333  0.665551381
     0.416666667  0.333333333  0.665551381
     0.916667003  0.333333333  0.665551381
     0.333333333  0.500000000  0.690815583
     0.833333894  0.500000000  0.690815583
     0.416666667  0.500000000  0.690815583
     0.916667003  0.500000000  0.690815583
     0.375000000  0.395791444  0.743658385
     0.874999046  0.395791444  0.743658385
     0.458333333  0.395791444  0.743658385
     0.958332155  0.395791444  0.743658385
     0.375000000  0.604208556  0.743658385
     0.874999046  0.604208556  0.743658385
     0.458333333  0.604208556  0.743658385
     0.958332155  0.604208556  0.743658385
     0.333333333  0.500000000  0.783904181
     0.833333894  0.500000000  0.783904181
     0.416666667  0.500000000  0.783904181
     0.916667003  0.500000000  0.783904181
     0.000000000  0.833333333  0.216094601
     0.499998654  0.833333333  0.216094601
     0.083333333  0.833333333  0.216094601
     0.583334567  0.833333333  0.216094601
     0.041666667  0.729124778  0.256340397
     0.541666611  0.729124778  0.256340397
     0.125000000  0.729124778  0.256340397
     0.624999720  0.729124778  0.256340397
     0.041666667  0.937541889  0.256340397
     0.541666611  0.937541889  0.256340397
     0.125000000  0.937541889  0.256340397
     0.624999720  0.937541889  0.256340397
     0.000000000  0.833333333  0.309183199
     0.499998654  0.833333333  0.309183199
     0.083333333  0.833333333  0.309183199
     0.583334567  0.833333333  0.309183199
     0.000000000  0.666666667  0.334447401
     0.499998654  0.666666667  0.334447401
     0.083333333  0.666666667  0.334447401
     0.583334567  0.666666667  0.334447401
     0.041666667  0.900040367  0.380895943
     0.541666611  0.900040367  0.380895943
     0.125000000  0.900040367  0.380895943
     0.624999720  0.900040367  0.380895943
     0.041666667  0.766626300  0.380895943
     0.541666611  0.766626300  0.380895943
     0.125000000  0.766626300  0.380895943
     0.624999720  0.766626300  0.380895943
     0.000000000  0.666666667  0.427533879
     0.499998654  0.666666667  0.427533879
     0.083333333  0.666666667  0.427533879
     0.583334567  0.666666667  0.427533879
     0.000000000  0.833333333  0.453310542
     0.499998654  0.833333333  0.453310542
     0.083333333  0.833333333  0.453310542
     0.583334567  0.833333333  0.453310542
     0.041666667  0.731835492  0.499999391
     0.541666611  0.731835492  0.499999391
     0.125000000  0.731835492  0.499999391
     0.624999720  0.731835492  0.499999391
     0.041666667  0.934831175  0.499999391
     0.541666611  0.934831175  0.499999391
     0.125000000  0.934831175  0.499999391
     0.624999720  0.934831175  0.499999391
     0.000000000  0.833333333  0.546688240
     0.499998654  0.833333333  0.546688240
     0.083333333  0.833333333  0.546688240
     0.583334567  0.833333333  0.546688240
     0.000000000  0.666666667  0.572464903
     0.499998654  0.666666667  0.572464903
     0.083333333  0.666666667  0.572464903
     0.583334567  0.666666667  0.572464903
     0.041666667  0.900040367  0.619102838
     0.541666611  0.900040367  0.619102838
     0.125000000  0.900040367  0.619102838
     0.624999720  0.900040367  0.619102838
     0.041666667  0.766626300  0.619102838
     0.541666611  0.766626300  0.619102838
     0.125000000  0.766626300  0.619102838
     0.624999720  0.766626300  0.619102838
     0.000000000  0.666666667  0.665551381
     0.499998654  0.666666667  0.665551381
     0.083333333  0.666666667  0.665551381
     0.583334567  0.666666667  0.665551381
     0.000000000  0.833333333  0.690815583
     0.499998654  0.833333333  0.690815583
     0.083333333  0.833333333  0.690815583
     0.583334567  0.833333333  0.690815583
     0.041666667  0.729124778  0.743658385
     0.541666611  0.729124778  0.743658385
     0.125000000  0.729124778  0.743658385
     0.624999720  0.729124778  0.743658385
     0.041666667  0.937541889  0.743658385
     0.541666611  0.937541889  0.743658385
     0.125000000  0.937541889  0.743658385
     0.624999720  0.937541889  0.743658385
     0.000000000  0.833333333  0.783904181
     0.499998654  0.833333333  0.783904181
     0.083333333  0.833333333  0.783904181
     0.583334567  0.833333333  0.783904181
     0.166666667  0.833333333  0.216094601
     0.666667676  0.833333333  0.216094601
     0.250000000  0.833333333  0.216094601
     0.750000785  0.833333333  0.216094601
     0.208333333  0.729124778  0.256340397
     0.708332829  0.729124778  0.256340397
     0.291666667  0.729124778  0.256340397
     0.791665937  0.729124778  0.256340397
     0.208333333  0.937541889  0.256340397
     0.708332829  0.937541889  0.256340397
     0.291666667  0.937541889  0.256340397
     0.791665937  0.937541889  0.256340397
     0.166666667  0.833333333  0.309183199
     0.666667676  0.833333333  0.309183199
     0.250000000  0.833333333  0.309183199
     0.750000785  0.833333333  0.309183199
     0.166666667  0.666666667  0.334447401
     0.666667676  0.666666667  0.334447401
     0.250000000  0.666666667  0.334447401
     0.750000785  0.666666667  0.334447401
     0.208333333  0.900040367  0.380895943
     0.708332829  0.900040367  0.380895943
     0.291666667  0.900040367  0.380895943
     0.791665937  0.900040367  0.380895943
     0.208333333  0.766626300  0.380895943
     0.708332829  0.766626300  0.380895943
     0.291666667  0.766626300  0.380895943
     0.791665937  0.766626300  0.380895943
     0.166666667  0.666666667  0.427533879
     0.666667676  0.666666667  0.427533879
     0.250000000  0.666666667  0.427533879
     0.750000785  0.666666667  0.427533879
     0.166666667  0.833333333  0.453310542
     0.666667676  0.833333333  0.453310542
     0.250000000  0.833333333  0.453310542
     0.750000785  0.833333333  0.453310542
     0.208333333  0.731835492  0.499999391
     0.708332829  0.731835492  0.499999391
     0.291666667  0.731835492  0.499999391
     0.791665937  0.731835492  0.499999391
     0.208333333  0.934831175  0.499999391
     0.708332829  0.934831175  0.499999391
     0.291666667  0.934831175  0.499999391
     0.791665937  0.934831175  0.499999391
     0.166666667  0.833333333  0.546688240
     0.666667676  0.833333333  0.546688240
     0.250000000  0.833333333  0.546688240
     0.750000785  0.833333333  0.546688240
     0.166666667  0.666666667  0.572464903
     0.666667676  0.666666667  0.572464903
     0.250000000  0.666666667  0.572464903
     0.750000785  0.666666667  0.572464903
     0.208333333  0.900040367  0.619102838
     0.708332829  0.900040367  0.619102838
     0.291666667  0.900040367  0.619102838
     0.791665937  0.900040367  0.619102838
     0.208333333  0.766626300  0.619102838
     0.708332829  0.766626300  0.619102838
     0.291666667  0.766626300  0.619102838
     0.791665937  0.766626300  0.619102838
     0.166666667  0.666666667  0.665551381
     0.666667676  0.666666667  0.665551381
     0.250000000  0.666666667  0.665551381
     0.750000785  0.666666667  0.665551381
     0.166666667  0.833333333  0.690815583
     0.666667676  0.833333333  0.690815583
     0.250000000  0.833333333  0.690815583
     0.750000785  0.833333333  0.690815583
     0.208333333  0.729124778  0.743658385
     0.708332829  0.729124778  0.743658385
     0.291666667  0.729124778  0.743658385
     0.791665937  0.729124778  0.743658385
     0.208333333  0.937541889  0.743658385
     0.708332829  0.937541889  0.743658385
     0.291666667  0.937541889  0.743658385
     0.791665937  0.937541889  0.743658385
     0.166666667  0.833333333  0.783904181
     0.666667676  0.833333333  0.783904181
     0.250000000  0.833333333  0.783904181
     0.750000785  0.833333333  0.783904181
     0.333333333  0.833333333  0.216094601
     0.833333894  0.833333333  0.216094601
     0.416666667  0.833333333  0.216094601
     0.916667003  0.833333333  0.216094601
     0.375000000  0.729124778  0.256340397
     0.874999046  0.729124778  0.256340397
     0.458333333  0.729124778  0.256340397
     0.958332155  0.729124778  0.256340397
     0.375000000  0.937541889  0.256340397
     0.874999046  0.937541889  0.256340397
     0.458333333  0.937541889  0.256340397
     0.958332155  0.937541889  0.256340397
     0.333333333  0.833333333  0.309183199
     0.833333894  0.833333333  0.309183199
     0.416666667  0.833333333  0.309183199
     0.916667003  0.833333333  0.309183199
     0.333333333  0.666666667  0.334447401
     0.833333894  0.666666667  0.334447401
     0.416666667  0.666666667  0.334447401
     0.916667003  0.666666667  0.334447401
     0.375000000  0.900040367  0.380895943
     0.874999046  0.900040367  0.380895943
     0.458333333  0.900040367  0.380895943
     0.958332155  0.900040367  0.380895943
     0.375000000  0.766626300  0.380895943
     0.874999046  0.766626300  0.380895943
     0.458333333  0.766626300  0.380895943
     0.958332155  0.766626300  0.380895943
     0.333333333  0.666666667  0.427533879
     0.833333894  0.666666667  0.427533879
     0.416666667  0.666666667  0.427533879
     0.916667003  0.666666667  0.427533879
     0.333333333  0.833333333  0.453310542
     0.833333894  0.833333333  0.453310542
     0.416666667  0.833333333  0.453310542
     0.916667003  0.833333333  0.453310542
     0.375000000  0.731835492  0.499999391
     0.874999046  0.731835492  0.499999391
     0.458333333  0.731835492  0.499999391
     0.958332155  0.731835492  0.499999391
     0.375000000  0.934831175  0.499999391
     0.874999046  0.934831175  0.499999391
     0.458333333  0.934831175  0.499999391
     0.958332155  0.934831175  0.499999391
     0.333333333  0.833333333  0.546688240
     0.833333894  0.833333333  0.546688240
     0.416666667  0.833333333  0.546688240
     0.916667003  0.833333333  0.546688240
     0.333333333  0.666666667  0.572464903
     0.833333894  0.666666667  0.572464903
     0.416666667  0.666666667  0.572464903
     0.916667003  0.666666667  0.572464903
     0.375000000  0.900040367  0.619102838
     0.874999046  0.900040367  0.619102838
     0.458333333  0.900040367  0.619102838
     0.958332155  0.900040367  0.619102838
     0.375000000  0.766626300  0.619102838
     0.874999046  0.766626300  0.619102838
     0.458333333  0.766626300  0.619102838
     0.958332155  0.766626300  0.619102838
     0.333333333  0.666666667  0.665551381
     0.833333894  0.666666667  0.665551381
     0.416666667  0.666666667  0.665551381
     0.916667003  0.666666667  0.665551381
     0.333333333  0.833333333  0.690815583
     0.833333894  0.833333333  0.690815583
     0.416666667  0.833333333  0.690815583
     0.916667003  0.833333333  0.690815583
     0.375000000  0.729124778  0.743658385
     0.874999046  0.729124778  0.743658385
     0.458333333  0.729124778  0.743658385
     0.958332155  0.729124778  0.743658385
     0.375000000  0.937541889  0.743658385
     0.874999046  0.937541889  0.743658385
     0.458333333  0.937541889  0.743658385
     0.958332155  0.937541889  0.743658385
     0.333333333  0.833333333  0.783904181
     0.833333894  0.833333333  0.783904181
     0.416666667  0.833333333  0.783904181
     0.916667003  0.833333333  0.783904181

  ion indices of the primitive-cell ions
   primitive index   ion index
                 1           1
                 2           2
                 3           3
                 4           4
                 5           5
                 6           6
                 7           7
                 8           8
                 9           9
                10          10
                11          11
                12          12
                13          13
                14          14
                15          15
                16          16
                17          17
                18          18
                19          19
                20          20
                21          21
                22          22
                23          23
                24          24
                25          25
                26          26
                27          27
                28          28
                29          29
                30          30
                31          31
                32          32
                33          33
                34          34
                35          35
                36          36
                37          37
                38          38
                39          39
                40          40
                41          41
                42          42
                43          43
                44          44
                45          45
                46          46
                47          47
                48          48
                49          49
                50          50
                51          51
                52          52
                53          53
                54          54
                55          55
                56          56
                57          57
                58          58
                59          59
                60          60
                61          61
                62          62
                63          63
                64          64
                65          65
                66          66
                67          67
                68          68
                69          69
                70          70
                71          71
                72          72
                73          73
                74          74
                75          75
                76          76
                77          77
                78          78
                79          79
                80          80
                81          81
                82          82
                83          83
                84          84
                85          85
                86          86
                87          87
                88          88
                89          89
                90          90
                91          91
                92          92
                93          93
                94          94
                95          95
                96          96
                97          97
                98          98
                99          99
               100         100
               101         101
               102         102
               103         103
               104         104
               105         105
               106         106
               107         107
               108         108
               109         109
               110         110
               111         111
               112         112
               113         113
               114         114
               115         115
               116         116
               117         117
               118         118
               119         119
               120         120
               121         121
               122         122
               123         123
               124         124
               125         125
               126         126
               127         127
               128         128
               129         129
               130         130
               131         131
               132         132
               133         133
               134         134
               135         135
               136         136
               137         137
               138         138
               139         139
               140         140
               141         141
               142         142
               143         143
               144         144
               145         145
               146         146
               147         147
               148         148
               149         149
               150         150
               151         151
               152         152
               153         153
               154         154
               155         155
               156         156
               157         157
               158         158
               159         159
               160         160
               161         161
               162         162
               163         163
               164         164
               165         165
               166         166
               167         167
               168         168
               169         169
               170         170
               171         171
               172         172
               173         173
               174         174
               175         175
               176         176
               177         177
               178         178
               179         179
               180         180
               181         181
               182         182
               183         183
               184         184
               185         185
               186         186
               187         187
               188         188
               189         189
               190         190
               191         191
               192         192
               193         193
               194         194
               195         195
               196         196
               197         197
               198         198
               199         199
               200         200
               201         201
               202         202
               203         203
               204         204
               205         205
               206         206
               207         207
               208         208
               209         209
               210         210
               211         211
               212         212
               213         213
               214         214
               215         215
               216         216
               217         217
               218         218
               219         219
               220         220
               221         221
               222         222
               223         223
               224         224
               225         225
               226         226
               227         227
               228         228
               229         229
               230         230
               231         231
               232         232
               233         233
               234         234
               235         235
               236         236
               237         237
               238         238
               239         239
               240         240
               241         241
               242         242
               243         243
               244         244
               245         245
               246         246
               247         247
               248         248
               249         249
               250         250
               251         251
               252         252
               253         253
               254         254
               255         255
               256         256
               257         257
               258         258
               259         259
               260         260
               261         261
               262         262
               263         263
               264         264
               265         265
               266         266
               267         267
               268         268
               269         269
               270         270
               271         271
               272         272
               273         273
               274         274
               275         275
               276         276
               277         277
               278         278
               279         279
               280         280
               281         281
               282         282
               283         283
               284         284
               285         285
               286         286
               287         287
               288         288
               289         289
               290         290
               291         291
               292         292
               293         293
               294         294
               295         295
               296         296
               297         297
               298         298
               299         299
               300         300
               301         301
               302         302
               303         303
               304         304
               305         305
               306         306
               307         307
               308         308
               309         309
               310         310
               311         311
               312         312
               313         313
               314         314
               315         315
               316         316
               317         317
               318         318
               319         319
               320         320
               321         321
               322         322
               323         323
               324         324
               325         325
               326         326
               327         327
               328         328
               329         329
               330         330
               331         331
               332         332
               333         333
               334         334
               335         335
               336         336
               337         337
               338         338
               339         339
               340         340
               341         341
               342         342
               343         343
               344         344
               345         345
               346         346
               347         347
               348         348
               349         349
               350         350
               351         351
               352         352
               353         353
               354         354
               355         355
               356         356
               357         357
               358         358
               359         359
               360         360
               361         361
               362         362
               363         363
               364         364
               365         365
               366         366
               367         367
               368         368
               369         369
               370         370
               371         371
               372         372
               373         373
               374         374
               375         375
               376         376
               377         377
               378         378
               379         379
               380         380
               381         381
               382         382
               383         383
               384         384
               385         385
               386         386
               387         387
               388         388
               389         389
               390         390
               391         391
               392         392
               393         393
               394         394
               395         395
               396         396
               397         397
               398         398
               399         399
               400         400
               401         401
               402         402
               403         403
               404         404
               405         405
               406         406
               407         407
               408         408
               409         409
               410         410
               411         411
               412         412
               413         413
               414         414
               415         415
               416         416
               417         417
               418         418
               419         419
               420         420
               421         421
               422         422
               423         423
               424         424
               425         425
               426         426
               427         427
               428         428
               429         429
               430         430
               431         431
               432         432
               433         433
               434         434
               435         435
               436         436
               437         437
               438         438
               439         439
               440         440
               441         441
               442         442
               443         443
               444         444
               445         445
               446         446
               447         447
               448         448
               449         449
               450         450
               451         451
               452         452
               453         453
               454         454
               455         455
               456         456
               457         457
               458         458
               459         459
               460         460
               461         461
               462         462
               463         463
               464         464
               465         465
               466         466
               467         467
               468         468
               469         469
               470         470
               471         471
               472         472
               473         473
               474         474
               475         475
               476         476
               477         477
               478         478
               479         479
               480         480
               481         481
               482         482
               483         483
               484         484
               485         485
               486         486
               487         487
               488         488
               489         489
               490         490
               491         491
               492         492
               493         493
               494         494
               495         495
               496         496
               497         497
               498         498
               499         499
               500         500
               501         501
               502         502
               503         503
               504         504
               505         505
               506         506
               507         507
               508         508
               509         509
               510         510
               511         511
               512         512
               513         513
               514         514
               515         515
               516         516
               517         517
               518         518
               519         519
               520         520
               521         521
               522         522
               523         523
               524         524
               525         525
               526         526
               527         527
               528         528
               529         529
               530         530
               531         531
               532         532
               533         533
               534         534
               535         535
               536         536
               537         537
               538         538
               539         539
               540         540
               541         541
               542         542
               543         543
               544         544
               545         545
               546         546
               547         547
               548         548
               549         549
               550         550
               551         551
               552         552
               553         553
               554         554
               555         555
               556         556
               557         557
               558         558
               559         559
               560         560
               561         561
               562         562
               563         563
               564         564
               565         565
               566         566
               567         567
               568         568
               569         569
               570         570
               571         571
               572         572
               573         573
               574         574
               575         575
               576         576
               577         577
               578         578
               579         579
               580         580
               581         581
               582         582
               583         583
               584         584
               585         585
               586         586
               587         587
               588         588
               589         589
               590         590
               591         591
               592         592
               593         593
               594         594
               595         595
               596         596
               597         597
               598         598
               599         599
               600         600
               601         601
               602         602
               603         603
               604         604
               605         605
               606         606
               607         607
               608         608
               609         609
               610         610
               611         611
               612         612
               613         613
               614         614
               615         615
               616         616
               617         617
               618         618
               619         619
               620         620
               621         621
               622         622
               623         623
               624         624
               625         625
               626         626
               627         627
               628         628
               629         629
               630         630
               631         631
               632         632
               633         633
               634         634
               635         635
               636         636
               637         637
               638         638
               639         639
               640         640
               641         641
               642         642
               643         643
               644         644
               645         645
               646         646
               647         647
               648         648
               649         649
               650         650
               651         651
               652         652
               653         653
               654         654
               655         655
               656         656
               657         657
               658         658
               659         659
               660         660
               661         661
               662         662
               663         663
               664         664
               665         665
               666         666
               667         667
               668         668
               669         669
               670         670
               671         671
               672         672
               673         673
               674         674
               675         675
               676         676
               677         677
               678         678
               679         679
               680         680
               681         681
               682         682
               683         683
               684         684
               685         685
               686         686
               687         687
               688         688
               689         689
               690         690
               691         691
               692         692
               693         693
               694         694
               695         695
               696         696
               697         697
               698         698
               699         699
               700         700
               701         701
               702         702
               703         703
               704         704
               705         705
               706         706
               707         707
               708         708
               709         709
               710         710
               711         711
               712         712
               713         713
               714         714
               715         715
               716         716
               717         717
               718         718
               719         719
               720         720
               721         721
               722         722
               723         723
               724         724
               725         725
               726         726
               727         727
               728         728
               729         729
               730         730
               731         731
               732         732
               733         733
               734         734
               735         735
               736         736
               737         737
               738         738
               739         739
               740         740
               741         741
               742         742
               743         743
               744         744
               745         745
               746         746
               747         747
               748         748
               749         749
               750         750
               751         751
               752         752
               753         753
               754         754
               755         755
               756         756
               757         757
               758         758
               759         759
               760         760
               761         761
               762         762
               763         763
               764         764
               765         765
               766         766
               767         767
               768         768
               769         769
               770         770
               771         771
               772         772
               773         773
               774         774
               775         775
               776         776
               777         777
               778         778
               779         779
               780         780
               781         781
               782         782
               783         783
               784         784
               785         785
               786         786
               787         787
               788         788
               789         789
               790         790
               791         791
               792         792
               793         793
               794         794
               795         795
               796         796
               797         797
               798         798
               799         799
               800         800
               801         801
               802         802
               803         803
               804         804
               805         805
               806         806
               807         807
               808         808
               809         809
               810         810
               811         811
               812         812
               813         813
               814         814
               815         815
               816         816
               817         817
               818         818
               819         819
               820         820
               821         821
               822         822
               823         823
               824         824
               825         825
               826         826
               827         827
               828         828
               829         829
               830         830
               831         831
               832         832
               833         833
               834         834
               835         835
               836         836
               837         837
               838         838
               839         839
               840         840
               841         841
               842         842
               843         843
               844         844
               845         845
               846         846
               847         847
               848         848
               849         849
               850         850
               851         851
               852         852
               853         853
               854         854
               855         855
               856         856
               857         857
               858         858
               859         859
               860         860
               861         861
               862         862
               863         863
               864         864
               865         865
               866         866
               867         867
               868         868
               869         869
               870         870
               871         871
               872         872
               873         873
               874         874
               875         875
               876         876
               877         877
               878         878
               879         879
               880         880
               881         881
               882         882
               883         883
               884         884
               885         885
               886         886
               887         887
               888         888
               889         889
               890         890
               891         891
               892         892
               893         893
               894         894
               895         895
               896         896
               897         897
               898         898
               899         899
               900         900
               901         901
               902         902
               903         903
               904         904
               905         905
               906         906
               907         907
               908         908
               909         909
               910         910
               911         911
               912         912
               913         913
               914         914
               915         915
               916         916
               917         917
               918         918
               919         919
               920         920
               921         921
               922         922
               923         923
               924         924
               925         925
               926         926
               927         927
               928         928
               929         929
               930         930
               931         931
               932         932
               933         933
               934         934
               935         935
               936         936
               937         937
               938         938
               939         939
               940         940
               941         941
               942         942
               943         943
               944         944
               945         945
               946         946
               947         947
               948         948
               949         949
               950         950
               951         951
               952         952
               953         953
               954         954
               955         955
               956         956
               957         957
               958         958
               959         959
               960         960
               961         961
               962         962
               963         963
               964         964
               965         965
               966         966
               967         967
               968         968
               969         969
               970         970
               971         971
               972         972
               973         973
               974         974
               975         975
               976         976
               977         977
               978         978
               979         979
               980         980
               981         981
               982         982
               983         983
               984         984
               985         985
               986         986
               987         987
               988         988
               989         989
               990         990
               991         991
               992         992
               993         993
               994         994
               995         995
               996         996
               997         997
               998         998
               999         999
              1000        1000
              1001        1001
              1002        1002
              1003        1003
              1004        1004
              1005        1005
              1006        1006
              1007        1007
              1008        1008
              1009        1009
              1010        1010
              1011        1011
              1012        1012
              1013        1013
              1014        1014
              1015        1015
              1016        1016
              1017        1017
              1018        1018
              1019        1019
              1020        1020
              1021        1021
              1022        1022
              1023        1023
              1024        1024
              1025        1025
              1026        1026
              1027        1027
              1028        1028
              1029        1029
              1030        1030
              1031        1031
              1032        1032
              1033        1033
              1034        1034
              1035        1035
              1036        1036
              1037        1037
              1038        1038
              1039        1039
              1040        1040
              1041        1041
              1042        1042
              1043        1043
              1044        1044
              1045        1045
              1046        1046
              1047        1047
              1048        1048
              1049        1049
              1050        1050
              1051        1051
              1052        1052
              1053        1053
              1054        1054
              1055        1055
              1056        1056
              1057        1057
              1058        1058
              1059        1059
              1060        1060
              1061        1061
              1062        1062
              1063        1063
              1064        1064
              1065        1065
              1066        1066
              1067        1067
              1068        1068
              1069        1069
              1070        1070
              1071        1071
              1072        1072
              1073        1073
              1074        1074
              1075        1075
              1076        1076
              1077        1077
              1078        1078
              1079        1079
              1080        1080

----------------------------------------------------------------------------------------

 
 
 KPOINTS: TiO2 slab Gamma                         

Automatic generation of k-mesh.
 Grid dimensions read from file:
 generate k-points for:    1    1    1

 Generating k-lattice:

  Cartesian coordinates                     Fractional coordinates (reciprocal lattice)
     0.028046010  0.000000000  0.000000000     1.000000000  0.000000000  0.000000000
     0.000000000  0.050645038  0.000000000     0.000000000  1.000000000  0.000000000
     0.000000000  0.000000000  0.036052796     0.000000000  0.000000000  1.000000000

  Length of vectors
     0.028046010  0.050645038  0.036052796

  Shift w.r.t. Gamma in fractional coordinates (k-lattice)
     0.000000000  0.000000000  0.000000000

 
 Subroutine IBZKPT returns following result:
 ===========================================
 
 Found      1 irreducible k-points:
 
 Following reciprocal coordinates:
            Coordinates               Weight
  0.000000  0.000000  0.000000      1.000000
 
 Following cartesian coordinates:
            Coordinates               Weight
  0.000000  0.000000  0.000000      1.000000
 


--------------------------------------------------------------------------------------------------------




 Dimension of arrays:
   k-points           NKPTS =      1   k-points in BZ     NKDIM =      1   number of bands    NBANDS=   5184
   number of dos      NEDOS =    301   number of ions     NIONS =   1080
   non local maximal  LDIM  =      6   non local SUM 2l+1 LMDIM =     18
   total plane-waves  NPLWV = ******
   max r-space proj   IRMAX =   9908   max aug-charges    IRDMAX=  28826
   dimension x,y,z NGX =   320 NGY =  180 NGZ =  250
   dimension x,y,z NGXF=   640 NGYF=  360 NGZF=  500
   support grid    NGXF=   640 NGYF=  360 NGZF=  500
   ions per type =             360 720
   NGX,Y,Z   is equivalent  to a cutoff of  14.92, 15.16, 14.98 a.u.
   NGXF,Y,Z  is equivalent  to a cutoff of  29.84, 30.31, 29.97 a.u.

 SYSTEM =  TiO2                                    
 POSCAR =  TeraGrid TiO2 Benchmark, Doubled in X di

 Startparameter for this run:
   NWRITE =      1    write-flag & timer
   PREC   = accura    normal or accurate (medium, high low for compatibility)
   ISTART =      0    job   : 0-new  1-cont  2-samecut
   ICHARG =      2    charge: 1-file 2-atom 10-const
   ISPIN  =      1    spin polarized calculation?
   LNONCOLLINEAR =      F non collinear calculations
   LSORBIT =      F    spin-orbit coupling
   INIWAV =      1    electr: 0-lowe 1-rand  2-diag
   LASPH  =      F    aspherical Exc in radial PAW
 Electronic Relaxation 1
   ENCUT  =  750.0 eV  55.12 Ry    7.42 a.u.  79.62 44.09 61.94*2*pi/ulx,y,z
   ENINI  =  750.0     initial cutoff
   ENAUG  =  605.4 eV  augmentation charge cutoff
   NELM   =     10;   NELMIN=  2; NELMDL=-12     # of ELM steps 
   EDIFF  = 0.1E-06   stopping-criterion for ELM
   LREAL  =      T    real-space projection
   NLSPLINE    = F    spline interpolate recip. space projectors
   LCOMPAT=      F    compatible to vasp.4.4
   GGA_COMPAT  = T    GGA compatible to vasp.4.4-vasp.4.6
   LMAXPAW     = -100 max onsite density
   LMAXMIX     =    2 max onsite mixed and CHGCAR
   VOSKOWN=      0    Vosko Wilk Nusair interpolation
   ROPT   =    0.00000   0.00000
 Ionic relaxation
   EDIFFG = 0.1E-05   stopping-criterion for IOM
   NSW    =      0    number of steps for IOM
   NBLOCK =      1;   KBLOCK =      1    inner block; outer block 
   IBRION =     -1    ionic relax: 0-MD 1-quasi-New 2-CG
   NFREE  =      0    steps in history (QN), initial steepest desc. (CG)
   ISIF   =      2    stress and relaxation
   IWAVPR =     10    prediction:  0-non 1-charg 2-wave 3-comb
   ISYM   =      0    0-nonsym 1-usesym 2-fastsym
   LCORR  =      T    Harris-Foulkes like correction to forces

   POTIM  = 0.5000    time-step for ionic-motion
   TEIN   =    0.0    initial temperature
   TEBEG  =    0.0;   TEEND  =   0.0 temperature during run
   SMASS  =  -3.00    Nose mass-parameter (am)
   estimated Nose-frequenzy (Omega)   =  0.10E-29 period in steps = 0.13E+47 mass=  -0.291E-25a.u.
   SCALEE = 1.0000    scale energy and forces
   NPACO  =    256;   APACO  = 10.0  distance and # of slots for P.C.
   PSTRESS=    0.0 pullay stress

  Mass of Ions in am
   POMASS =  47.88 16.00
  Ionic Valenz
   ZVAL   =  12.00  6.00
  Atomic Wigner-Seitz radii
   RWIGS  =  -1.00 -1.00
  virtual crystal weights 
   VCA    =   1.00  1.00
   NELECT =    8640.0000    total number of electrons
   NUPDOWN=      -1.0000    fix difference up-down

 DOS related values:
   EMIN   =  10.00;   EMAX   =-10.00  energy-range for DOS
   EFERMI =   0.00;   METHOD = LEGACY      
   ISMEAR =     0;   SIGMA  =   0.10  broadening in eV -4-tet -1-fermi 0-gaus
   EFERMI_NEDOS =   21; number of points for ismear=-14 and -15

 Electronic relaxation 2 (details)
   IALGO  =     48    algorithm
   LDIAG  =      T    sub-space diagonalisation (order eigenvalues)
   LSUBROT=      F    optimize rotation matrix (better conditioning)
   LROBUST=      F    robust break criterion during scf (extrapolated energy error)
   ISEARCH=      0    line search for conjugate gradient (0, 1=use gradient)
   TURBO    =      0    0=normal 1=particle mesh
   IRESTART =      0    0=no restart 2=restart with 2 vectors
   NREBOOT  =      0    no. of reboots
   NMIN     =      0    reboot dimension
   EREF     =   0.00    reference energy to select bands
   IMIX   =      4    mixing-type and parameters
     AMIX     =   0.40;   BMIX     =  1.00
     AMIX_MAG =   1.60;   BMIX_MAG =  1.00
     AMIN     =   0.10
     WC   =   100.;   INIMIX=   1;  MIXPRE=   1;  MAXMIX= -45

 Intra band minimization:
   WEIMIN = 0.0000     energy-eigenvalue tresh-hold
   EBREAK =  0.48E-11  absolut break condition
   DEPER  =   0.30     relativ break condition  

   TIME   =   0.40     timestep for ELM

  volume/ion in A,a.u.               =      18.08       122.02
  Fermi-wavevector in a.u.,A,eV,Ry     =   1.247465  2.357367 21.172966  1.556169
  Thomas-Fermi vector in A             =   2.381596
 
 Write flags
   LWAVE        =      F    write WAVECAR
   LDOWNSAMPLE  =      F    k-point downsampling of WAVECAR
   LCHARG       =      F    write CHGCAR
   LVTOT        =      F    write LOCPOT, total local potential
   LVHAR        =      F    write LOCPOT, Hartree potential only
   WRT_POTENTIAL= false  ! write potential to hdf5 file
   LELF         =      F    write electronic localiz. function (ELF)
   LORBIT       =      0    0 simple, 1 ext, 2 COOP (PROOUT), +10 PAW based schemes


 Python interface
   PLUGINS active      =      F    recompile with -DPLUGINS to activate
 
 Dipole corrections
   LMONO      =      F    monopole corrections only (constant potential shift)
   LDIPOL     =      F    correct potential (dipole corrections)
   IDIPOL     =      0    1-x, 2-y, 3-z, 4-all directions 
   EPSILON    =  1.0000000 bulk dielectric constant
   LVACPOTAV  =      F  vacuum potentials using an averaging scheme for the charge density
   VACPOTFLAT =  0.1000000 required flatness to determine vacuum potential
 
Coulomb truncation method
  LTRUNCATE          =      F  Coulomb kernel truncation to be used

 
 Exchange correlation treatment:
   GGA     = 91    functional components
   XC_C    = 1    coefficients multiplying the functional components
   LIBXC   =     F    Libxc                    
   VOSKOWN =     0    Vosko Wilk Nusair interpolation
   LHFCALC =     F    Hartree Fock is set to
   LHFONE  =     F    Hartree Fock one center treatment
   AEXX    =    0.0000 exact exchange contribution

 Parameters of functionals:
   91:
     No parameter
 
 Van der Waals corrections
   IVDW    =     0    specifies the selected vdW correction

 Linear response parameters
   LEPSILON=     F    determine dielectric tensor
   LRPA    =     F    only Hartree local field effects (RPA)
   LNABLA  =     F    use nabla operator in PAW spheres
   LVEL    =     F    velocity operator in full k-point grid
   CSHIFT  =0.1000    complex shift for real part using Kramers Kronig
   OMEGAMAX=  -1.0    maximum frequency
   DEG_THRESHOLD= 0.2000000E-02 threshold for treating states as degnerate
   RTIME   =   -0.100 relaxation time in fs
  (WPLASMAI=    0.000 imaginary part of plasma frequency in eV, 0.658/RTIME)
   DFIELD  = 0.0000000 0.0000000 0.0000000 field for delta impulse in time
 
  Optional k-point grid parameters
   LKPOINTS_OPT  =     F    use optional k-point grid
   KPOINTS_OPT_MODE=     1    mode for optional k-point grid
 
 Orbital magnetization related:
   ORBITALMAG=     F  switch on orbital magnetization
   LCHIMAG   =     F  perturbation theory with respect to B field
   DQ        =  0.001000  dq finite difference perturbation B field
   LLRAUG    =     F  two centre corrections for induced B field
   LBONE     =     F  B-component reconstruction in AE one-centre
   LVGVCALC  =     T  calculate vGv susceptibility
   LVGVAPPL  =     F  apply vGv susceptibility instead of pGv for G=0

 Random number generation:
   RANDOM_GENERATOR = DEFAULT
   PCG_SEED         = not used


--------------------------------------------------------------------------------------------------------


 Static calculation
 charge density and potential will be updated during run
 non-spin polarized calculation
 RMM-DIIS sequential band-by-band
 perform sub-space diagonalisation
    before iterative eigenvector-optimisation
 modified Broyden-mixing scheme, WC =      100.0
 initial mixing is a Kerker type mixing with AMIX =  0.4000 and BMIX =      1.0000
 Hartree-type preconditioning will be used
 using additional bands           864
 real space projection scheme for non local part
 use partial core corrections
 calculate Harris-corrections to forces 
   (improved forces if not selfconsistent)
 use gradient corrections 
 use of overlap-Matrix (Vanderbilt PP)
 Gauss-broadening in eV      SIGMA  =   0.10


--------------------------------------------------------------------------------------------------------


  energy-cutoff  :      750.00
  volume of cell :    19527.79
      direct lattice vectors                 reciprocal lattice vectors
    35.655696000  0.000000000  0.000000000     0.028046010  0.000000000  0.000000000
     0.000000000 19.745271000  0.000000000     0.000000000  0.050645038  0.000000000
     0.000000000  0.000000000 27.737100000     0.000000000  0.000000000  0.036052796

  length of vectors
    35.655696000 19.745271000 27.737100000     0.028046010  0.050645038  0.036052796


 
 k-points in units of 2pi/SCALE and weight: TiO2 slab Gamma                         
   0.00000000  0.00000000  0.00000000       1.000
 
 k-points in reciprocal lattice and weights: TiO2 slab Gamma                         
   0.00000000  0.00000000  0.00000000       1.000
 
 position of ions in fractional coordinates (direct lattice) 
   0.00000000  0.00000000  0.26803431
   0.49999865  0.00000000  0.26803431
   0.08333333  0.00000000  0.26803431
   0.58333457  0.00000000  0.26803431
   0.04166667  0.16666667  0.25575422
   0.54166661  0.16666667  0.25575422
   0.12500000  0.16666667  0.25575422
   0.62499972  0.16666667  0.25575422
   0.00000000  0.16666667  0.37742693
   0.49999865  0.16666667  0.37742693
   0.08333333  0.16666667  0.37742693
   0.58333457  0.16666667  0.37742693
   0.04166667  0.00000000  0.38370403
   0.54166661  0.00000000  0.38370403
   0.12500000  0.00000000  0.38370403
   0.62499972  0.00000000  0.38370403
   0.00000000  0.00000000  0.49999939
   0.49999865  0.00000000  0.49999939
   0.08333333  0.00000000  0.49999939
   0.58333457  0.00000000  0.49999939
   0.04166667  0.16666667  0.49999939
   0.54166661  0.16666667  0.49999939
   0.12500000  0.16666667  0.49999939
   0.62499972  0.16666667  0.49999939
   0.00000000  0.16666667  0.62257185
   0.49999865  0.16666667  0.62257185
   0.08333333  0.16666667  0.62257185
   0.58333457  0.16666667  0.62257185
   0.04166667  0.00000000  0.61629476
   0.54166661  0.00000000  0.61629476
   0.12500000  0.00000000  0.61629476
   0.62499972  0.00000000  0.61629476
   0.00000000  0.00000000  0.73196447
   0.49999865  0.00000000  0.73196447
   0.08333333  0.00000000  0.73196447
   0.58333457  0.00000000  0.73196447
   0.04166667  0.16666667  0.74424456
   0.54166661  0.16666667  0.74424456
   0.12500000  0.16666667  0.74424456
   0.62499972  0.16666667  0.74424456
   0.16666667  0.00000000  0.26803431
   0.66666768  0.00000000  0.26803431
   0.25000000  0.00000000  0.26803431
   0.75000079  0.00000000  0.26803431
   0.20833333  0.16666667  0.25575422
   0.70833283  0.16666667  0.25575422
   0.29166667  0.16666667  0.25575422
   0.79166594  0.16666667  0.25575422
   0.16666667  0.16666667  0.37742693
   0.66666768  0.16666667  0.37742693
   0.25000000  0.16666667  0.37742693
   0.75000079  0.16666667  0.37742693
   0.20833333  0.00000000  0.38370403
   0.70833283  0.00000000  0.38370403
   0.29166667  0.00000000  0.38370403
   0.79166594  0.00000000  0.38370403
   0.16666667  0.00000000  0.49999939
   0.66666768  0.00000000  0.49999939
   0.25000000  0.00000000  0.49999939
   0.75000079  0.00000000  0.49999939
   0.20833333  0.16666667  0.49999939
   0.70833283  0.16666667  0.49999939
   0.29166667  0.16666667  0.49999939
   0.79166594  0.16666667  0.49999939
   0.16666667  0.16666667  0.62257185
   0.66666768  0.16666667  0.62257185
   0.25000000  0.16666667  0.62257185
   0.75000079  0.16666667  0.62257185
   0.20833333  0.00000000  0.61629476
   0.70833283  0.00000000  0.61629476
   0.29166667  0.00000000  0.61629476
   0.79166594  0.00000000  0.61629476
   0.16666667  0.00000000  0.73196447
   0.66666768  0.00000000  0.73196447
   0.25000000  0.00000000  0.73196447
   0.75000079  0.00000000  0.73196447
   0.20833333  0.16666667  0.74424456
   0.70833283  0.16666667  0.74424456
   0.29166667  0.16666667  0.74424456
   0.79166594  0.16666667  0.74424456
   0.33333333  0.00000000  0.26803431
   0.83333389  0.00000000  0.26803431
   0.41666667  0.00000000  0.26803431
   0.91666700  0.00000000  0.26803431
   0.37500000  0.16666667  0.25575422
   0.87499905  0.16666667  0.25575422
   0.45833333  0.16666667  0.25575422
   0.95833216  0.16666667  0.25575422
   0.33333333  0.16666667  0.37742693
   0.83333389  0.16666667  0.37742693
   0.41666667  0.16666667  0.37742693
   0.91666700  0.16666667  0.37742693
   0.37500000  0.00000000  0.38370403
   0.87499905  0.00000000  0.38370403
   0.45833333  0.00000000  0.38370403
   0.95833216  0.00000000  0.38370403
   0.33333333  0.00000000  0.49999939
   0.83333389  0.00000000  0.49999939
   0.41666667  0.00000000  0.49999939
   0.91666700  0.00000000  0.49999939
   0.37500000  0.16666667  0.49999939
   0.87499905  0.16666667  0.49999939
   0.45833333  0.16666667  0.49999939
   0.95833216  0.16666667  0.49999939
   0.33333333  0.16666667  0.62257185
   0.83333389  0.16666667  0.62257185
   0.41666667  0.16666667  0.62257185
   0.91666700  0.16666667  0.62257185
   0.37500000  0.00000000  0.61629476
   0.87499905  0.00000000  0.61629476
   0.45833333  0.00000000  0.61629476
   0.95833216  0.00000000  0.61629476
   0.33333333  0.00000000  0.73196447
   0.83333389  0.00000000  0.73196447
   0.41666667  0.00000000  0.73196447
   0.91666700  0.00000000  0.73196447
   0.37500000  0.16666667  0.74424456
   0.87499905  0.16666667  0.74424456
   0.45833333  0.16666667  0.74424456
   0.95833216  0.16666667  0.74424456
   0.00000000  0.33333333  0.26803431
   0.49999865  0.33333333  0.26803431
   0.08333333  0.33333333  0.26803431
   0.58333457  0.33333333  0.26803431
   0.04166667  0.50000000  0.25575422
   0.54166661  0.50000000  0.25575422
   0.12500000  0.50000000  0.25575422
   0.62499972  0.50000000  0.25575422
   0.00000000  0.50000000  0.37742693
   0.49999865  0.50000000  0.37742693
   0.08333333  0.50000000  0.37742693
   0.58333457  0.50000000  0.37742693
   0.04166667  0.33333333  0.38370403
   0.54166661  0.33333333  0.38370403
   0.12500000  0.33333333  0.38370403
   0.62499972  0.33333333  0.38370403
   0.00000000  0.33333333  0.49999939
   0.49999865  0.33333333  0.49999939
   0.08333333  0.33333333  0.49999939
   0.58333457  0.33333333  0.49999939
   0.04166667  0.50000000  0.49999939
   0.54166661  0.50000000  0.49999939
   0.12500000  0.50000000  0.49999939
   0.62499972  0.50000000  0.49999939
   0.00000000  0.50000000  0.62257185
   0.49999865  0.50000000  0.62257185
   0.08333333  0.50000000  0.62257185
   0.58333457  0.50000000  0.62257185
   0.04166667  0.33333333  0.61629476
   0.54166661  0.33333333  0.61629476
   0.12500000  0.33333333  0.61629476
   0.62499972  0.33333333  0.61629476
   0.00000000  0.33333333  0.73196447
   0.49999865  0.33333333  0.73196447
   0.08333333  0.33333333  0.73196447
   0.58333457  0.33333333  0.73196447
   0.04166667  0.50000000  0.74424456
   0.54166661  0.50000000  0.74424456
   0.12500000  0.50000000  0.74424456
   0.62499972  0.50000000  0.74424456
   0.16666667  0.33333333  0.26803431
   0.66666768  0.33333333  0.26803431
   0.25000000  0.33333333  0.26803431
   0.75000079  0.33333333  0.26803431
   0.20833333  0.50000000  0.25575422
   0.70833283  0.50000000  0.25575422
   0.29166667  0.50000000  0.25575422
   0.79166594  0.50000000  0.25575422
   0.16666667  0.50000000  0.37742693
   0.66666768  0.50000000  0.37742693
   0.25000000  0.50000000  0.37742693
   0.75000079  0.50000000  0.37742693
   0.20833333  0.33333333  0.38370403
   0.70833283  0.33333333  0.38370403
   0.29166667  0.33333333  0.38370403
   0.79166594  0.33333333  0.38370403
   0.16666667  0.33333333  0.49999939
   0.66666768  0.33333333  0.49999939
   0.25000000  0.33333333  0.49999939
   0.75000079  0.33333333  0.49999939
   0.20833333  0.50000000  0.49999939
   0.70833283  0.50000000  0.49999939
   0.29166667  0.50000000  0.49999939
   0.79166594  0.50000000  0.49999939
   0.16666667  0.50000000  0.62257185
   0.66666768  0.50000000  0.62257185
   0.25000000  0.50000000  0.62257185
   0.75000079  0.50000000  0.62257185
   0.20833333  0.33333333  0.61629476
   0.70833283  0.33333333  0.61629476
   0.29166667  0.33333333  0.61629476
   0.79166594  0.33333333  0.61629476
   0.16666667  0.33333333  0.73196447
   0.66666768  0.33333333  0.73196447
   0.25000000  0.33333333  0.73196447
   0.75000079  0.33333333  0.73196447
   0.20833333  0.50000000  0.74424456
   0.70833283  0.50000000  0.74424456
   0.29166667  0.50000000  0.74424456
   0.79166594  0.50000000  0.74424456
   0.33333333  0.33333333  0.26803431
   0.83333389  0.33333333  0.26803431
   0.41666667  0.33333333  0.26803431
   0.91666700  0.33333333  0.26803431
   0.37500000  0.50000000  0.25575422
   0.87499905  0.50000000  0.25575422
   0.45833333  0.50000000  0.25575422
   0.95833216  0.50000000  0.25575422
   0.33333333  0.50000000  0.37742693
   0.83333389  0.50000000  0.37742693
   0.41666667  0.50000000  0.37742693
   0.91666700  0.50000000  0.37742693
   0.37500000  0.33333333  0.38370403
   0.87499905  0.33333333  0.38370403
   0.45833333  0.33333333  0.38370403
   0.95833216  0.33333333  0.38370403
   0.33333333  0.33333333  0.49999939
   0.83333389  0.33333333  0.49999939
   0.41666667  0.33333333  0.49999939
   0.91666700  0.33333333  0.49999939
   0.37500000  0.50000000  0.49999939
   0.87499905  0.50000000  0.49999939
   0.45833333  0.50000000  0.49999939
   0.95833216  0.50000000  0.49999939
   0.33333333  0.50000000  0.62257185
   0.83333389  0.50000000  0.62257185
   0.41666667  0.50000000  0.62257185
   0.91666700  0.50000000  0.62257185
   0.37500000  0.33333333  0.61629476
   0.87499905  0.33333333  0.61629476
   0.45833333  0.33333333  0.61629476
   0.95833216  0.33333333  0.61629476
   0.33333333  0.33333333  0.73196447
   0.83333389  0.33333333  0.73196447
   0.41666667  0.33333333  0.73196447
   0.91666700  0.33333333  0.73196447
   0.37500000  0.50000000  0.74424456
   0.87499905  0.50000000  0.74424456
   0.45833333  0.50000000  0.74424456
   0.95833216  0.50000000  0.74424456
   0.00000000  0.66666667  0.26803431
   0.49999865  0.66666667  0.26803431
   0.08333333  0.66666667  0.26803431
   0.58333457  0.66666667  0.26803431
   0.04166667  0.83333333  0.25575422
   0.54166661  0.83333333  0.25575422
   0.12500000  0.83333333  0.25575422
   0.62499972  0.83333333  0.25575422
   0.00000000  0.83333333  0.37742693
   0.49999865  0.83333333  0.37742693
   0.08333333  0.83333333  0.37742693
   0.58333457  0.83333333  0.37742693
   0.04166667  0.66666667  0.38370403
   0.54166661  0.66666667  0.38370403
   0.12500000  0.66666667  0.38370403
   0.62499972  0.66666667  0.38370403
   0.00000000  0.66666667  0.49999939
   0.49999865  0.66666667  0.49999939
   0.08333333  0.66666667  0.49999939
   0.58333457  0.66666667  0.49999939
   0.04166667  0.83333333  0.49999939
   0.54166661  0.83333333  0.49999939
   0.12500000  0.83333333  0.49999939
   0.62499972  0.83333333  0.49999939
   0.00000000  0.83333333  0.62257185
   0.49999865  0.83333333  0.62257185
   0.08333333  0.83333333  0.62257185
   0.58333457  0.83333333  0.62257185
   0.04166667  0.66666667  0.61629476
   0.54166661  0.66666667  0.61629476
   0.12500000  0.66666667  0.61629476
   0.62499972  0.66666667  0.61629476
   0.00000000  0.66666667  0.73196447
   0.49999865  0.66666667  0.73196447
   0.08333333  0.66666667  0.73196447
   0.58333457  0.66666667  0.73196447
   0.04166667  0.83333333  0.74424456
   0.54166661  0.83333333  0.74424456
   0.12500000  0.83333333  0.74424456
   0.62499972  0.83333333  0.74424456
   0.16666667  0.66666667  0.26803431
   0.66666768  0.66666667  0.26803431
   0.25000000  0.66666667  0.26803431
   0.75000079  0.66666667  0.26803431
   0.20833333  0.83333333  0.25575422
   0.70833283  0.83333333  0.25575422
   0.29166667  0.83333333  0.25575422
   0.79166594  0.83333333  0.25575422
   0.16666667  0.83333333  0.37742693
   0.66666768  0.83333333  0.37742693
   0.25000000  0.83333333  0.37742693
   0.75000079  0.83333333  0.37742693
   0.20833333  0.66666667  0.38370403
   0.70833283  0.66666667  0.38370403
   0.29166667  0.66666667  0.38370403
   0.79166594  0.66666667  0.38370403
   0.16666667  0.66666667  0.49999939
   0.66666768  0.66666667  0.49999939
   0.25000000  0.66666667  0.49999939
   0.75000079  0.66666667  0.49999939
   0.20833333  0.83333333  0.49999939
   0.70833283  0.83333333  0.49999939
   0.29166667  0.83333333  0.49999939
   0.79166594  0.83333333  0.49999939
   0.16666667  0.83333333  0.62257185
   0.66666768  0.83333333  0.62257185
   0.25000000  0.83333333  0.62257185
   0.75000079  0.83333333  0.62257185
   0.20833333  0.66666667  0.61629476
   0.70833283  0.66666667  0.61629476
   0.29166667  0.66666667  0.61629476
   0.79166594  0.66666667  0.61629476
   0.16666667  0.66666667  0.73196447
   0.66666768  0.66666667  0.73196447
   0.25000000  0.66666667  0.73196447
   0.75000079  0.66666667  0.73196447
   0.20833333  0.83333333  0.74424456
   0.70833283  0.83333333  0.74424456
   0.29166667  0.83333333  0.74424456
   0.79166594  0.83333333  0.74424456
   0.33333333  0.66666667  0.26803431
   0.83333389  0.66666667  0.26803431
   0.41666667  0.66666667  0.26803431
   0.91666700  0.66666667  0.26803431
   0.37500000  0.83333333  0.25575422
   0.87499905  0.83333333  0.25575422
   0.45833333  0.83333333  0.25575422
   0.95833216  0.83333333  0.25575422
   0.33333333  0.83333333  0.37742693
   0.83333389  0.83333333  0.37742693
   0.41666667  0.83333333  0.37742693
   0.91666700  0.83333333  0.37742693
   0.37500000  0.66666667  0.38370403
   0.87499905  0.66666667  0.38370403
   0.45833333  0.66666667  0.38370403
   0.95833216  0.66666667  0.38370403
   0.33333333  0.66666667  0.49999939
   0.83333389  0.66666667  0.49999939
   0.41666667  0.66666667  0.49999939
   0.91666700  0.66666667  0.49999939
   0.37500000  0.83333333  0.49999939
   0.87499905  0.83333333  0.49999939
   0.45833333  0.83333333  0.49999939
   0.95833216  0.83333333  0.49999939
   0.33333333  0.83333333  0.62257185
   0.83333389  0.83333333  0.62257185
   0.41666667  0.83333333  0.62257185
   0.91666700  0.83333333  0.62257185
   0.37500000  0.66666667  0.61629476
   0.87499905  0.66666667  0.61629476
   0.45833333  0.66666667  0.61629476
   0.95833216  0.66666667  0.61629476
   0.33333333  0.66666667  0.73196447
   0.83333389  0.66666667  0.73196447
   0.41666667  0.66666667  0.73196447
   0.91666700  0.66666667  0.73196447
   0.37500000  0.83333333  0.74424456
   0.87499905  0.83333333  0.74424456
   0.45833333  0.83333333  0.74424456
   0.95833216  0.83333333  0.74424456
   0.00000000  0.16666667  0.21609460
   0.49999865  0.16666667  0.21609460
   0.08333333  0.16666667  0.21609460
   0.58333457  0.16666667  0.21609460
   0.04166667  0.06245811  0.25634040
   0.54166661  0.06245811  0.25634040
   0.12500000  0.06245811  0.25634040
   0.62499972  0.06245811  0.25634040
   0.04166667  0.27087522  0.25634040
   0.54166661  0.27087522  0.25634040
   0.12500000  0.27087522  0.25634040
   0.62499972  0.27087522  0.25634040
   0.00000000  0.16666667  0.30918320
   0.49999865  0.16666667  0.30918320
   0.08333333  0.16666667  0.30918320
   0.58333457  0.16666667  0.30918320
   0.00000000  0.00000000  0.33444740
   0.49999865  0.00000000  0.33444740
   0.08333333  0.00000000  0.33444740
   0.58333457  0.00000000  0.33444740
   0.04166667  0.23337370  0.38089594
   0.54166661  0.23337370  0.38089594
   0.12500000  0.23337370  0.38089594
   0.62499972  0.23337370  0.38089594
   0.04166667  0.09995963  0.38089594
   0.54166661  0.09995963  0.38089594
   0.12500000  0.09995963  0.38089594
   0.62499972  0.09995963  0.38089594
   0.00000000  0.00000000  0.42753388
   0.49999865  0.00000000  0.42753388
   0.08333333  0.00000000  0.42753388
   0.58333457  0.00000000  0.42753388
   0.00000000  0.16666667  0.45331054
   0.49999865  0.16666667  0.45331054
   0.08333333  0.16666667  0.45331054
   0.58333457  0.16666667  0.45331054
   0.04166667  0.06516883  0.49999939
   0.54166661  0.06516883  0.49999939
   0.12500000  0.06516883  0.49999939
   0.62499972  0.06516883  0.49999939
   0.04166667  0.26816451  0.49999939
   0.54166661  0.26816451  0.49999939
   0.12500000  0.26816451  0.49999939
   0.62499972  0.26816451  0.49999939
   0.00000000  0.16666667  0.54668824
   0.49999865  0.16666667  0.54668824
   0.08333333  0.16666667  0.54668824
   0.58333457  0.16666667  0.54668824
   0.00000000  0.00000000  0.57246490
   0.49999865  0.00000000  0.57246490
   0.08333333  0.00000000  0.57246490
   0.58333457  0.00000000  0.57246490
   0.04166667  0.23337370  0.61910284
   0.54166661  0.23337370  0.61910284
   0.12500000  0.23337370  0.61910284
   0.62499972  0.23337370  0.61910284
   0.04166667  0.09995963  0.61910284
   0.54166661  0.09995963  0.61910284
   0.12500000  0.09995963  0.61910284
   0.62499972  0.09995963  0.61910284
   0.00000000  0.00000000  0.66555138
   0.49999865  0.00000000  0.66555138
   0.08333333  0.00000000  0.66555138
   0.58333457  0.00000000  0.66555138
   0.00000000  0.16666667  0.69081558
   0.49999865  0.16666667  0.69081558
   0.08333333  0.16666667  0.69081558
   0.58333457  0.16666667  0.69081558
   0.04166667  0.06245811  0.74365838
   0.54166661  0.06245811  0.74365838
   0.12500000  0.06245811  0.74365838
   0.62499972  0.06245811  0.74365838
   0.04166667  0.27087522  0.74365838
   0.54166661  0.27087522  0.74365838
   0.12500000  0.27087522  0.74365838
   0.62499972  0.27087522  0.74365838
   0.00000000  0.16666667  0.78390418
   0.49999865  0.16666667  0.78390418
   0.08333333  0.16666667  0.78390418
   0.58333457  0.16666667  0.78390418
   0.16666667  0.16666667  0.21609460
   0.66666768  0.16666667  0.21609460
   0.25000000  0.16666667  0.21609460
   0.75000079  0.16666667  0.21609460
   0.20833333  0.06245811  0.25634040
   0.70833283  0.06245811  0.25634040
   0.29166667  0.06245811  0.25634040
   0.79166594  0.06245811  0.25634040
   0.20833333  0.27087522  0.25634040
   0.70833283  0.27087522  0.25634040
   0.29166667  0.27087522  0.25634040
   0.79166594  0.27087522  0.25634040
   0.16666667  0.16666667  0.30918320
   0.66666768  0.16666667  0.30918320
   0.25000000  0.16666667  0.30918320
   0.75000079  0.16666667  0.30918320
   0.16666667  0.00000000  0.33444740
   0.66666768  0.00000000  0.33444740
   0.25000000  0.00000000  0.33444740
   0.75000079  0.00000000  0.33444740
   0.20833333  0.23337370  0.38089594
   0.70833283  0.23337370  0.38089594
   0.29166667  0.23337370  0.38089594
   0.79166594  0.23337370  0.38089594
   0.20833333  0.09995963  0.38089594
   0.70833283  0.09995963  0.38089594
   0.29166667  0.09995963  0.38089594
   0.79166594  0.09995963  0.38089594
   0.16666667  0.00000000  0.42753388
   0.66666768  0.00000000  0.42753388
   0.25000000  0.00000000  0.42753388
   0.75000079  0.00000000  0.42753388
   0.16666667  0.16666667  0.45331054
   0.66666768  0.16666667  0.45331054
   0.25000000  0.16666667  0.45331054
   0.75000079  0.16666667  0.45331054
   0.20833333  0.06516883  0.49999939
   0.70833283  0.06516883  0.49999939
   0.29166667  0.06516883  0.49999939
   0.79166594  0.06516883  0.49999939
   0.20833333  0.26816451  0.49999939
   0.70833283  0.26816451  0.49999939
   0.29166667  0.26816451  0.49999939
   0.79166594  0.26816451  0.49999939
   0.16666667  0.16666667  0.54668824
   0.66666768  0.16666667  0.54668824
   0.25000000  0.16666667  0.54668824
   0.75000079  0.16666667  0.54668824
   0.16666667  0.00000000  0.57246490
   0.66666768  0.00000000  0.57246490
   0.25000000  0.00000000  0.57246490
   0.75000079  0.00000000  0.57246490
   0.20833333  0.23337370  0.61910284
   0.70833283  0.23337370  0.61910284
   0.29166667  0.23337370  0.61910284
   0.79166594  0.23337370  0.61910284
   0.20833333  0.09995963  0.61910284
   0.70833283  0.09995963  0.61910284
   0.29166667  0.09995963  0.61910284
   0.79166594  0.09995963  0.61910284
   0.16666667  0.00000000  0.66555138
   0.66666768  0.00000000  0.66555138
   0.25000000  0.00000000  0.66555138
   0.75000079  0.00000000  0.66555138
   0.16666667  0.16666667  0.69081558
   0.66666768  0.16666667  0.69081558
   0.25000000  0.16666667  0.69081558
   0.75000079  0.16666667  0.69081558
   0.20833333  0.06245811  0.74365838
   0.70833283  0.06245811  0.74365838
   0.29166667  0.06245811  0.74365838
   0.79166594  0.06245811  0.74365838
   0.20833333  0.27087522  0.74365838
   0.70833283  0.27087522  0.74365838
   0.29166667  0.27087522  0.74365838
   0.79166594  0.27087522  0.74365838
   0.16666667  0.16666667  0.78390418
   0.66666768  0.16666667  0.78390418
   0.25000000  0.16666667  0.78390418
   0.75000079  0.16666667  0.78390418
   0.33333333  0.16666667  0.21609460
   0.83333389  0.16666667  0.21609460
   0.41666667  0.16666667  0.21609460
   0.91666700  0.16666667  0.21609460
   0.37500000  0.06245811  0.25634040
   0.87499905  0.06245811  0.25634040
   0.45833333  0.06245811  0.25634040
   0.95833216  0.06245811  0.25634040
   0.37500000  0.27087522  0.25634040
   0.87499905  0.27087522  0.25634040
   0.45833333  0.27087522  0.25634040
   0.95833216  0.27087522  0.25634040
   0.33333333  0.16666667  0.30918320
   0.83333389  0.16666667  0.30918320
   0.41666667  0.16666667  0.30918320
   0.91666700  0.16666667  0.30918320
   0.33333333  0.00000000  0.33444740
   0.83333389  0.00000000  0.33444740
   0.41666667  0.00000000  0.33444740
   0.91666700  0.00000000  0.33444740
   0.37500000  0.23337370  0.38089594
   0.87499905  0.23337370  0.38089594
   0.45833333  0.23337370  0.38089594
   0.95833216  0.23337370  0.38089594
   0.37500000  0.09995963  0.38089594
   0.87499905  0.09995963  0.38089594
   0.45833333  0.09995963  0.38089594
   0.95833216  0.09995963  0.38089594
   0.33333333  0.00000000  0.42753388
   0.83333389  0.00000000  0.42753388
   0.41666667  0.00000000  0.42753388
   0.91666700  0.00000000  0.42753388
   0.33333333  0.16666667  0.45331054
   0.83333389  0.16666667  0.45331054
   0.41666667  0.16666667  0.45331054
   0.91666700  0.16666667  0.45331054
   0.37500000  0.06516883  0.49999939
   0.87499905  0.06516883  0.49999939
   0.45833333  0.06516883  0.49999939
   0.95833216  0.06516883  0.49999939
   0.37500000  0.26816451  0.49999939
   0.87499905  0.26816451  0.49999939
   0.45833333  0.26816451  0.49999939
   0.95833216  0.26816451  0.49999939
   0.33333333  0.16666667  0.54668824
   0.83333389  0.16666667  0.54668824
   0.41666667  0.16666667  0.54668824
   0.91666700  0.16666667  0.54668824
   0.33333333  0.00000000  0.57246490
   0.83333389  0.00000000  0.57246490
   0.41666667  0.00000000  0.57246490
   0.91666700  0.00000000  0.57246490
   0.37500000  0.23337370  0.61910284
   0.87499905  0.23337370  0.61910284
   0.45833333  0.23337370  0.61910284
   0.95833216  0.23337370  0.61910284
   0.37500000  0.09995963  0.61910284
   0.87499905  0.09995963  0.61910284
   0.45833333  0.09995963  0.61910284
   0.95833216  0.09995963  0.61910284
   0.33333333  0.00000000  0.66555138
   0.83333389  0.00000000  0.66555138
   0.41666667  0.00000000  0.66555138
   0.91666700  0.00000000  0.66555138
   0.33333333  0.16666667  0.69081558
   0.83333389  0.16666667  0.69081558
   0.41666667  0.16666667  0.69081558
   0.91666700  0.16666667  0.69081558
   0.37500000  0.06245811  0.74365838
   0.87499905  0.06245811  0.74365838
   0.45833333  0.06245811  0.74365838
   0.95833216  0.06245811  0.74365838
   0.37500000  0.27087522  0.74365838
   0.87499905  0.27087522  0.74365838
   0.45833333  0.27087522  0.74365838
   0.95833216  0.27087522  0.74365838
   0.33333333  0.16666667  0.78390418
   0.83333389  0.16666667  0.78390418
   0.41666667  0.16666667  0.78390418
   0.91666700  0.16666667  0.78390418
   0.00000000  0.50000000  0.21609460
   0.49999865  0.50000000  0.21609460
   0.08333333  0.50000000  0.21609460
   0.58333457  0.50000000  0.21609460
   0.04166667  0.39579144  0.25634040
   0.54166661  0.39579144  0.25634040
   0.12500000  0.39579144  0.25634040
   0.62499972  0.39579144  0.25634040
   0.04166667  0.60420856  0.25634040
   0.54166661  0.60420856  0.25634040
   0.12500000  0.60420856  0.25634040
   0.62499972  0.60420856  0.25634040
   0.00000000  0.50000000  0.30918320
   0.49999865  0.50000000  0.30918320
   0.08333333  0.50000000  0.30918320
   0.58333457  0.50000000  0.30918320
   0.00000000  0.33333333  0.33444740
   0.49999865  0.33333333  0.33444740
   0.08333333  0.33333333  0.33444740
   0.58333457  0.33333333  0.33444740
   0.04166667  0.56670703  0.38089594
   0.54166661  0.56670703  0.38089594
   0.12500000  0.56670703  0.38089594
   0.62499972  0.56670703  0.38089594
   0.04166667  0.43329297  0.38089594
   0.54166661  0.43329297  0.38089594
   0.12500000  0.43329297  0.38089594
   0.62499972  0.43329297  0.38089594
   0.00000000  0.33333333  0.42753388
   0.49999865  0.33333333  0.42753388
   0.08333333  0.33333333  0.42753388
   0.58333457  0.33333333  0.42753388
   0.00000000  0.50000000  0.45331054
   0.49999865  0.50000000  0.45331054
   0.08333333  0.50000000  0.45331054
   0.58333457  0.50000000  0.45331054
   0.04166667  0.39850216  0.49999939
   0.54166661  0.39850216  0.49999939
   0.12500000  0.39850216  0.49999939
   0.62499972  0.39850216  0.49999939
   0.04166667  0.60149784  0.49999939
   0.54166661  0.60149784  0.49999939
   0.12500000  0.60149784  0.49999939
   0.62499972  0.60149784  0.49999939
   0.00000000  0.50000000  0.54668824
   0.49999865  0.50000000  0.54668824
   0.08333333  0.50000000  0.54668824
   0.58333457  0.50000000  0.54668824
   0.00000000  0.33333333  0.57246490
   0.49999865  0.33333333  0.57246490
   0.08333333  0.33333333  0.57246490
   0.58333457  0.33333333  0.57246490
   0.04166667  0.56670703  0.61910284
   0.54166661  0.56670703  0.61910284
   0.12500000  0.56670703  0.61910284
   0.62499972  0.56670703  0.61910284
   0.04166667  0.43329297  0.61910284
   0.54166661  0.43329297  0.61910284
   0.12500000  0.43329297  0.61910284
   0.62499972  0.43329297  0.61910284
   0.00000000  0.33333333  0.66555138
   0.49999865  0.33333333  0.66555138
   0.08333333  0.33333333  0.66555138
   0.58333457  0.33333333  0.66555138
   0.00000000  0.50000000  0.69081558
   0.49999865  0.50000000  0.69081558
   0.08333333  0.50000000  0.69081558
   0.58333457  0.50000000  0.69081558
   0.04166667  0.39579144  0.74365838
   0.54166661  0.39579144  0.74365838
   0.12500000  0.39579144  0.74365838
   0.62499972  0.39579144  0.74365838
   0.04166667  0.60420856  0.74365838
   0.54166661  0.60420856  0.74365838
   0.12500000  0.60420856  0.74365838
   0.62499972  0.60420856  0.74365838
   0.00000000  0.50000000  0.78390418
   0.49999865  0.50000000  0.78390418
   0.08333333  0.50000000  0.78390418
   0.58333457  0.50000000  0.78390418
   0.16666667  0.50000000  0.21609460
   0.66666768  0.50000000  0.21609460
   0.25000000  0.50000000  0.21609460
   0.75000079  0.50000000  0.21609460
   0.20833333  0.39579144  0.25634040
   0.70833283  0.39579144  0.25634040
   0.29166667  0.39579144  0.25634040
   0.79166594  0.39579144  0.25634040
   0.20833333  0.60420856  0.25634040
   0.70833283  0.60420856  0.25634040
   0.29166667  0.60420856  0.25634040
   0.79166594  0.60420856  0.25634040
   0.16666667  0.50000000  0.30918320
   0.66666768  0.50000000  0.30918320
   0.25000000  0.50000000  0.30918320
   0.75000079  0.50000000  0.30918320
   0.16666667  0.33333333  0.33444740
   0.66666768  0.33333333  0.33444740
   0.25000000  0.33333333  0.33444740
   0.75000079  0.33333333  0.33444740
   0.20833333  0.56670703  0.38089594
   0.70833283  0.56670703  0.38089594
   0.29166667  0.56670703  0.38089594
   0.79166594  0.56670703  0.38089594
   0.20833333  0.43329297  0.38089594
   0.70833283  0.43329297  0.38089594
   0.29166667  0.43329297  0.38089594
   0.79166594  0.43329297  0.38089594
   0.16666667  0.33333333  0.42753388
   0.66666768  0.33333333  0.42753388
   0.25000000  0.33333333  0.42753388
   0.75000079  0.33333333  0.42753388
   0.16666667  0.50000000  0.45331054
   0.66666768  0.50000000  0.45331054
   0.25000000  0.50000000  0.45331054
   0.75000079  0.50000000  0.45331054
   0.20833333  0.39850216  0.49999939
   0.70833283  0.39850216  0.49999939
   0.29166667  0.39850216  0.49999939
   0.79166594  0.39850216  0.49999939
   0.20833333  0.60149784  0.49999939
   0.70833283  0.60149784  0.49999939
   0.29166667  0.60149784  0.49999939
   0.79166594  0.60149784  0.49999939
   0.16666667  0.50000000  0.54668824
   0.66666768  0.50000000  0.54668824
   0.25000000  0.50000000  0.54668824
   0.75000079  0.50000000  0.54668824
   0.16666667  0.33333333  0.57246490
   0.66666768  0.33333333  0.57246490
   0.25000000  0.33333333  0.57246490
   0.75000079  0.33333333  0.57246490
   0.20833333  0.56670703  0.61910284
   0.70833283  0.56670703  0.61910284
   0.29166667  0.56670703  0.61910284
   0.79166594  0.56670703  0.61910284
   0.20833333  0.43329297  0.61910284
   0.70833283  0.43329297  0.61910284
   0.29166667  0.43329297  0.61910284
   0.79166594  0.43329297  0.61910284
   0.16666667  0.33333333  0.66555138
   0.66666768  0.33333333  0.66555138
   0.25000000  0.33333333  0.66555138
   0.75000079  0.33333333  0.66555138
   0.16666667  0.50000000  0.69081558
   0.66666768  0.50000000  0.69081558
   0.25000000  0.50000000  0.69081558
   0.75000079  0.50000000  0.69081558
   0.20833333  0.39579144  0.74365838
   0.70833283  0.39579144  0.74365838
   0.29166667  0.39579144  0.74365838
   0.79166594  0.39579144  0.74365838
   0.20833333  0.60420856  0.74365838
   0.70833283  0.60420856  0.74365838
   0.29166667  0.60420856  0.74365838
   0.79166594  0.60420856  0.74365838
   0.16666667  0.50000000  0.78390418
   0.66666768  0.50000000  0.78390418
   0.25000000  0.50000000  0.78390418
   0.75000079  0.50000000  0.78390418
   0.33333333  0.50000000  0.21609460
   0.83333389  0.50000000  0.21609460
   0.41666667  0.50000000  0.21609460
   0.91666700  0.50000000  0.21609460
   0.37500000  0.39579144  0.25634040
   0.87499905  0.39579144  0.25634040
   0.45833333  0.39579144  0.25634040
   0.95833216  0.39579144  0.25634040
   0.37500000  0.60420856  0.25634040
   0.87499905  0.60420856  0.25634040
   0.45833333  0.60420856  0.25634040
   0.95833216  0.60420856  0.25634040
   0.33333333  0.50000000  0.30918320
   0.83333389  0.50000000  0.30918320
   0.41666667  0.50000000  0.30918320
   0.91666700  0.50000000  0.30918320
   0.33333333  0.33333333  0.33444740
   0.83333389  0.33333333  0.33444740
   0.41666667  0.33333333  0.33444740
   0.91666700  0.33333333  0.33444740
   0.37500000  0.56670703  0.38089594
   0.87499905  0.56670703  0.38089594
   0.45833333  0.56670703  0.38089594
   0.95833216  0.56670703  0.38089594
   0.37500000  0.43329297  0.38089594
   0.87499905  0.43329297  0.38089594
   0.45833333  0.43329297  0.38089594
   0.95833216  0.43329297  0.38089594
   0.33333333  0.33333333  0.42753388
   0.83333389  0.33333333  0.42753388
   0.41666667  0.33333333  0.42753388
   0.91666700  0.33333333  0.42753388
   0.33333333  0.50000000  0.45331054
   0.83333389  0.50000000  0.45331054
   0.41666667  0.50000000  0.45331054
   0.91666700  0.50000000  0.45331054
   0.37500000  0.39850216  0.49999939
   0.87499905  0.39850216  0.49999939
   0.45833333  0.39850216  0.49999939
   0.95833216  0.39850216  0.49999939
   0.37500000  0.60149784  0.49999939
   0.87499905  0.60149784  0.49999939
   0.45833333  0.60149784  0.49999939
   0.95833216  0.60149784  0.49999939
   0.33333333  0.50000000  0.54668824
   0.83333389  0.50000000  0.54668824
   0.41666667  0.50000000  0.54668824
   0.91666700  0.50000000  0.54668824
   0.33333333  0.33333333  0.57246490
   0.83333389  0.33333333  0.57246490
   0.41666667  0.33333333  0.57246490
   0.91666700  0.33333333  0.57246490
   0.37500000  0.56670703  0.61910284
   0.87499905  0.56670703  0.61910284
   0.45833333  0.56670703  0.61910284
   0.95833216  0.56670703  0.61910284
   0.37500000  0.43329297  0.61910284
   0.87499905  0.43329297  0.61910284
   0.45833333  0.43329297  0.61910284
   0.95833216  0.43329297  0.61910284
   0.33333333  0.33333333  0.66555138
   0.83333389  0.33333333  0.66555138
   0.41666667  0.33333333  0.66555138
   0.91666700  0.33333333  0.66555138
   0.33333333  0.50000000  0.69081558
   0.83333389  0.50000000  0.69081558
   0.41666667  0.50000000  0.69081558
   0.91666700  0.50000000  0.69081558
   0.37500000  0.39579144  0.74365838
   0.87499905  0.39579144  0.74365838
   0.45833333  0.39579144  0.74365838
   0.95833216  0.39579144  0.74365838
   0.37500000  0.60420856  0.74365838
   0.87499905  0.60420856  0.74365838
   0.45833333  0.60420856  0.74365838
   0.95833216  0.60420856  0.74365838
   0.33333333  0.50000000  0.78390418
   0.83333389  0.50000000  0.78390418
   0.41666667  0.50000000  0.78390418
   0.91666700  0.50000000  0.78390418
   0.00000000  0.83333333  0.21609460
   0.49999865  0.83333333  0.21609460
   0.08333333  0.83333333  0.21609460
   0.58333457  0.83333333  0.21609460
   0.04166667  0.72912478  0.25634040
   0.54166661  0.72912478  0.25634040
   0.12500000  0.72912478  0.25634040
   0.62499972  0.72912478  0.25634040
   0.04166667  0.93754189  0.25634040
   0.54166661  0.93754189  0.25634040
   0.12500000  0.93754189  0.25634040
   0.62499972  0.93754189  0.25634040
   0.00000000  0.83333333  0.30918320
   0.49999865  0.83333333  0.30918320
   0.08333333  0.83333333  0.30918320
   0.58333457  0.83333333  0.30918320
   0.00000000  0.66666667  0.33444740
   0.49999865  0.66666667  0.33444740
   0.08333333  0.66666667  0.33444740
   0.58333457  0.66666667  0.33444740
   0.04166667  0.90004037  0.38089594
   0.54166661  0.90004037  0.38089594
   0.12500000  0.90004037  0.38089594
   0.62499972  0.90004037  0.38089594
   0.04166667  0.76662630  0.38089594
   0.54166661  0.76662630  0.38089594
   0.12500000  0.76662630  0.38089594
   0.62499972  0.76662630  0.38089594
   0.00000000  0.66666667  0.42753388
   0.49999865  0.66666667  0.42753388
   0.08333333  0.66666667  0.42753388
   0.58333457  0.66666667  0.42753388
   0.00000000  0.83333333  0.45331054
   0.49999865  0.83333333  0.45331054
   0.08333333  0.83333333  0.45331054
   0.58333457  0.83333333  0.45331054
   0.04166667  0.73183549  0.49999939
   0.54166661  0.73183549  0.49999939
   0.12500000  0.73183549  0.49999939
   0.62499972  0.73183549  0.49999939
   0.04166667  0.93483117  0.49999939
   0.54166661  0.93483117  0.49999939
   0.12500000  0.93483117  0.49999939
   0.62499972  0.93483117  0.49999939
   0.00000000  0.83333333  0.54668824
   0.49999865  0.83333333  0.54668824
   0.08333333  0.83333333  0.54668824
   0.58333457  0.83333333  0.54668824
   0.00000000  0.66666667  0.57246490
   0.49999865  0.66666667  0.57246490
   0.08333333  0.66666667  0.57246490
   0.58333457  0.66666667  0.57246490
   0.04166667  0.90004037  0.61910284
   0.54166661  0.90004037  0.61910284
   0.12500000  0.90004037  0.61910284
   0.62499972  0.90004037  0.61910284
   0.04166667  0.76662630  0.61910284
   0.54166661  0.76662630  0.61910284
   0.12500000  0.76662630  0.61910284
   0.62499972  0.76662630  0.61910284
   0.00000000  0.66666667  0.66555138
   0.49999865  0.66666667  0.66555138
   0.08333333  0.66666667  0.66555138
   0.58333457  0.66666667  0.66555138
   0.00000000  0.83333333  0.69081558
   0.49999865  0.83333333  0.69081558
   0.08333333  0.83333333  0.69081558
   0.58333457  0.83333333  0.69081558
   0.04166667  0.72912478  0.74365838
   0.54166661  0.72912478  0.74365838
   0.12500000  0.72912478  0.74365838
   0.62499972  0.72912478  0.74365838
   0.04166667  0.93754189  0.74365838
   0.54166661  0.93754189  0.74365838
   0.12500000  0.93754189  0.74365838
   0.62499972  0.93754189  0.74365838
   0.00000000  0.83333333  0.78390418
   0.49999865  0.83333333  0.78390418
   0.08333333  0.83333333  0.78390418
   0.58333457  0.83333333  0.78390418
   0.16666667  0.83333333  0.21609460
   0.66666768  0.83333333  0.21609460
   0.25000000  0.83333333  0.21609460
   0.75000079  0.83333333  0.21609460
   0.20833333  0.72912478  0.25634040
   0.70833283  0.72912478  0.25634040
   0.29166667  0.72912478  0.25634040
   0.79166594  0.72912478  0.25634040
   0.20833333  0.93754189  0.25634040
   0.70833283  0.93754189  0.25634040
   0.29166667  0.93754189  0.25634040
   0.79166594  0.93754189  0.25634040
   0.16666667  0.83333333  0.30918320
   0.66666768  0.83333333  0.30918320
   0.25000000  0.83333333  0.30918320
   0.75000079  0.83333333  0.30918320
   0.16666667  0.66666667  0.33444740
   0.66666768  0.66666667  0.33444740
   0.25000000  0.66666667  0.33444740
   0.75000079  0.66666667  0.33444740
   0.20833333  0.90004037  0.38089594
   0.70833283  0.90004037  0.38089594
   0.29166667  0.90004037  0.38089594
   0.79166594  0.90004037  0.38089594
   0.20833333  0.76662630  0.38089594
   0.70833283  0.76662630  0.38089594
   0.29166667  0.76662630  0.38089594
   0.79166594  0.76662630  0.38089594
   0.16666667  0.66666667  0.42753388
   0.66666768  0.66666667  0.42753388
   0.25000000  0.66666667  0.42753388
   0.75000079  0.66666667  0.42753388
   0.16666667  0.83333333  0.45331054
   0.66666768  0.83333333  0.45331054
   0.25000000  0.83333333  0.45331054
   0.75000079  0.83333333  0.45331054
   0.20833333  0.73183549  0.49999939
   0.70833283  0.73183549  0.49999939
   0.29166667  0.73183549  0.49999939
   0.79166594  0.73183549  0.49999939
   0.20833333  0.93483117  0.49999939
   0.70833283  0.93483117  0.49999939
   0.29166667  0.93483117  0.49999939
   0.79166594  0.93483117  0.49999939
   0.16666667  0.83333333  0.54668824
   0.66666768  0.83333333  0.54668824
   0.25000000  0.83333333  0.54668824
   0.75000079  0.83333333  0.54668824
   0.16666667  0.66666667  0.57246490
   0.66666768  0.66666667  0.57246490
   0.25000000  0.66666667  0.57246490
   0.75000079  0.66666667  0.57246490
   0.20833333  0.90004037  0.61910284
   0.70833283  0.90004037  0.61910284
   0.29166667  0.90004037  0.61910284
   0.79166594  0.90004037  0.61910284
   0.20833333  0.76662630  0.61910284
   0.70833283  0.76662630  0.61910284
   0.29166667  0.76662630  0.61910284
   0.79166594  0.76662630  0.61910284
   0.16666667  0.66666667  0.66555138
   0.66666768  0.66666667  0.66555138
   0.25000000  0.66666667  0.66555138
   0.75000079  0.66666667  0.66555138
   0.16666667  0.83333333  0.69081558
   0.66666768  0.83333333  0.69081558
   0.25000000  0.83333333  0.69081558
   0.75000079  0.83333333  0.69081558
   0.20833333  0.72912478  0.74365838
   0.70833283  0.72912478  0.74365838
   0.29166667  0.72912478  0.74365838
   0.79166594  0.72912478  0.74365838
   0.20833333  0.93754189  0.74365838
   0.70833283  0.93754189  0.74365838
   0.29166667  0.93754189  0.74365838
   0.79166594  0.93754189  0.74365838
   0.16666667  0.83333333  0.78390418
   0.66666768  0.83333333  0.78390418
   0.25000000  0.83333333  0.78390418
   0.75000079  0.83333333  0.78390418
   0.33333333  0.83333333  0.21609460
   0.83333389  0.83333333  0.21609460
   0.41666667  0.83333333  0.21609460
   0.91666700  0.83333333  0.21609460
   0.37500000  0.72912478  0.25634040
   0.87499905  0.72912478  0.25634040
   0.45833333  0.72912478  0.25634040
   0.95833216  0.72912478  0.25634040
   0.37500000  0.93754189  0.25634040
   0.87499905  0.93754189  0.25634040
   0.45833333  0.93754189  0.25634040
   0.95833216  0.93754189  0.25634040
   0.33333333  0.83333333  0.30918320
   0.83333389  0.83333333  0.30918320
   0.41666667  0.83333333  0.30918320
   0.91666700  0.83333333  0.30918320
   0.33333333  0.66666667  0.33444740
   0.83333389  0.66666667  0.33444740
   0.41666667  0.66666667  0.33444740
   0.91666700  0.66666667  0.33444740
   0.37500000  0.90004037  0.38089594
   0.87499905  0.90004037  0.38089594
   0.45833333  0.90004037  0.38089594
   0.95833216  0.90004037  0.38089594
   0.37500000  0.76662630  0.38089594
   0.87499905  0.76662630  0.38089594
   0.45833333  0.76662630  0.38089594
   0.95833216  0.76662630  0.38089594
   0.33333333  0.66666667  0.42753388
   0.83333389  0.66666667  0.42753388
   0.41666667  0.66666667  0.42753388
   0.91666700  0.66666667  0.42753388
   0.33333333  0.83333333  0.45331054
   0.83333389  0.83333333  0.45331054
   0.41666667  0.83333333  0.45331054
   0.91666700  0.83333333  0.45331054
   0.37500000  0.73183549  0.49999939
   0.87499905  0.73183549  0.49999939
   0.45833333  0.73183549  0.49999939
   0.95833216  0.73183549  0.49999939
   0.37500000  0.93483117  0.49999939
   0.87499905  0.93483117  0.49999939
   0.45833333  0.93483117  0.49999939
   0.95833216  0.93483117  0.49999939
   0.33333333  0.83333333  0.54668824
   0.83333389  0.83333333  0.54668824
   0.41666667  0.83333333  0.54668824
   0.91666700  0.83333333  0.54668824
   0.33333333  0.66666667  0.57246490
   0.83333389  0.66666667  0.57246490
   0.41666667  0.66666667  0.57246490
   0.91666700  0.66666667  0.57246490
   0.37500000  0.90004037  0.61910284
   0.87499905  0.90004037  0.61910284
   0.45833333  0.90004037  0.61910284
   0.95833216  0.90004037  0.61910284
   0.37500000  0.76662630  0.61910284
   0.87499905  0.76662630  0.61910284
   0.45833333  0.76662630  0.61910284
   0.95833216  0.76662630  0.61910284
   0.33333333  0.66666667  0.66555138
   0.83333389  0.66666667  0.66555138
   0.41666667  0.66666667  0.66555138
   0.91666700  0.66666667  0.66555138
   0.33333333  0.83333333  0.69081558
   0.83333389  0.83333333  0.69081558
   0.41666667  0.83333333  0.69081558
   0.91666700  0.83333333  0.69081558
   0.37500000  0.72912478  0.74365838
   0.87499905  0.72912478  0.74365838
   0.45833333  0.72912478  0.74365838
   0.95833216  0.72912478  0.74365838
   0.37500000  0.93754189  0.74365838
   0.87499905  0.93754189  0.74365838
   0.45833333  0.93754189  0.74365838
   0.95833216  0.93754189  0.74365838
   0.33333333  0.83333333  0.78390418
   0.83333389  0.83333333  0.78390418
   0.41666667  0.83333333  0.78390418
   0.91666700  0.83333333  0.78390418
 
 position of ions in cartesian coordinates  (Angst):
   0.00000000  0.00000000  7.43449438
  17.82780000  0.00000000  7.43449438
   2.97130800  0.00000000  7.43449438
  20.79920000  0.00000000  7.43449438
   1.48565400  3.29087850  7.09388047
  19.31350000  3.29087850  7.09388047
   4.45696200  3.29087850  7.09388047
  22.28480000  3.29087850  7.09388047
   0.00000000  3.29087850 10.46872860
  17.82780000  3.29087850 10.46872860
   2.97130800  3.29087850 10.46872860
  20.79920000  3.29087850 10.46872860
   1.48565400  0.00000000 10.64283691
  19.31350000  0.00000000 10.64283691
   4.45696200  0.00000000 10.64283691
  22.28480000  0.00000000 10.64283691
   0.00000000  0.00000000 13.86853311
  17.82780000  0.00000000 13.86853311
   2.97130800  0.00000000 13.86853311
  20.79920000  0.00000000 13.86853311
   1.48565400  3.29087850 13.86853311
  19.31350000  3.29087850 13.86853311
   4.45696200  3.29087850 13.86853311
  22.28480000  3.29087850 13.86853311
   0.00000000  3.29087850 17.26833762
  17.82780000  3.29087850 17.26833762
   2.97130800  3.29087850 17.26833762
  20.79920000  3.29087850 17.26833762
   1.48565400  0.00000000 17.09422930
  19.31350000  0.00000000 17.09422930
   4.45696200  0.00000000 17.09422930
  22.28480000  0.00000000 17.09422930
   0.00000000  0.00000000 20.30257183
  17.82780000  0.00000000 20.30257183
   2.97130800  0.00000000 20.30257183
  20.79920000  0.00000000 20.30257183
   1.48565400  3.29087850 20.64318574
  19.31350000  3.29087850 20.64318574
   4.45696200  3.29087850 20.64318574
  22.28480000  3.29087850 20.64318574
   5.94261600  0.00000000  7.43449438
  23.77050000  0.00000000  7.43449438
   8.91392400  0.00000000  7.43449438
  26.74180000  0.00000000  7.43449438
   7.42827000  3.29087850  7.09388047
  25.25610000  3.29087850  7.09388047
  10.39957800  3.29087850  7.09388047
  28.22740000  3.29087850  7.09388047
   5.94261600  3.29087850 10.46872860
  23.77050000  3.29087850 10.46872860
   8.91392400  3.29087850 10.46872860
  26.74180000  3.29087850 10.46872860
   7.42827000  0.00000000 10.64283691
  25.25610000  0.00000000 10.64283691
  10.39957800  0.00000000 10.64283691
  28.22740000  0.00000000 10.64283691
   5.94261600  0.00000000 13.86853311
  23.77050000  0.00000000 13.86853311
   8.91392400  0.00000000 13.86853311
  26.74180000  0.00000000 13.86853311
   7.42827000  3.29087850 13.86853311
  25.25610000  3.29087850 13.86853311
  10.39957800  3.29087850 13.86853311
  28.22740000  3.29087850 13.86853311
   5.94261600  3.29087850 17.26833762
  23.77050000  3.29087850 17.26833762
   8.91392400  3.29087850 17.26833762
  26.74180000  3.29087850 17.26833762
   7.42827000  0.00000000 17.09422930
  25.25610000  0.00000000 17.09422930
  10.39957800  0.00000000 17.09422930
  28.22740000  0.00000000 17.09422930
   5.94261600  0.00000000 20.30257183
  23.77050000  0.00000000 20.30257183
   8.91392400  0.00000000 20.30257183
  26.74180000  0.00000000 20.30257183
   7.42827000  3.29087850 20.64318574
  25.25610000  3.29087850 20.64318574
  10.39957800  3.29087850 20.64318574
  28.22740000  3.29087850 20.64318574
  11.88523200  0.00000000  7.43449438
  29.71310000  0.00000000  7.43449438
  14.85654000  0.00000000  7.43449438
  32.68440000  0.00000000  7.43449438
  13.37088600  3.29087850  7.09388047
  31.19870000  3.29087850  7.09388047
  16.34219400  3.29087850  7.09388047
  34.17000000  3.29087850  7.09388047
  11.88523200  3.29087850 10.46872860
  29.71310000  3.29087850 10.46872860
  14.85654000  3.29087850 10.46872860
  32.68440000  3.29087850 10.46872860
  13.37088600  0.00000000 10.64283691
  31.19870000  0.00000000 10.64283691
  16.34219400  0.00000000 10.64283691
  34.17000000  0.00000000 10.64283691
  11.88523200  0.00000000 13.86853311
  29.71310000  0.00000000 13.86853311
  14.85654000  0.00000000 13.86853311
  32.68440000  0.00000000 13.86853311
  13.37088600  3.29087850 13.86853311
  31.19870000  3.29087850 13.86853311
  16.34219400  3.29087850 13.86853311
  34.17000000  3.29087850 13.86853311
  11.88523200  3.29087850 17.26833762
  29.71310000  3.29087850 17.26833762
  14.85654000  3.29087850 17.26833762
  32.68440000  3.29087850 17.26833762
  13.37088600  0.00000000 17.09422930
  31.19870000  0.00000000 17.09422930
  16.34219400  0.00000000 17.09422930
  34.17000000  0.00000000 17.09422930
  11.88523200  0.00000000 20.30257183
  29.71310000  0.00000000 20.30257183
  14.85654000  0.00000000 20.30257183
  32.68440000  0.00000000 20.30257183
  13.37088600  3.29087850 20.64318574
  31.19870000  3.29087850 20.64318574
  16.34219400  3.29087850 20.64318574
  34.17000000  3.29087850 20.64318574
   0.00000000  6.58175700  7.43449438
  17.82780000  6.58175700  7.43449438
   2.97130800  6.58175700  7.43449438
  20.79920000  6.58175700  7.43449438
   1.48565400  9.87263550  7.09388047
  19.31350000  9.87263550  7.09388047
   4.45696200  9.87263550  7.09388047
  22.28480000  9.87263550  7.09388047
   0.00000000  9.87263550 10.46872860
  17.82780000  9.87263550 10.46872860
   2.97130800  9.87263550 10.46872860
  20.79920000  9.87263550 10.46872860
   1.48565400  6.58175700 10.64283691
  19.31350000  6.58175700 10.64283691
   4.45696200  6.58175700 10.64283691
  22.28480000  6.58175700 10.64283691
   0.00000000  6.58175700 13.86853311
  17.82780000  6.58175700 13.86853311
   2.97130800  6.58175700 13.86853311
  20.79920000  6.58175700 13.86853311
   1.48565400  9.87263550 13.86853311
  19.31350000  9.87263550 13.86853311
   4.45696200  9.87263550 13.86853311
  22.28480000  9.87263550 13.86853311
   0.00000000  9.87263550 17.26833762
  17.82780000  9.87263550 17.26833762
   2.97130800  9.87263550 17.26833762
  20.79920000  9.87263550 17.26833762
   1.48565400  6.58175700 17.09422930
  19.31350000  6.58175700 17.09422930
   4.45696200  6.58175700 17.09422930
  22.28480000  6.58175700 17.09422930
   0.00000000  6.58175700 20.30257183
  17.82780000  6.58175700 20.30257183
   2.97130800  6.58175700 20.30257183
  20.79920000  6.58175700 20.30257183
   1.48565400  9.87263550 20.64318574
  19.31350000  9.87263550 20.64318574
   4.45696200  9.87263550 20.64318574
  22.28480000  9.87263550 20.64318574
   5.94261600  6.58175700  7.43449438
  23.77050000  6.58175700  7.43449438
   8.91392400  6.58175700  7.43449438
  26.74180000  6.58175700  7.43449438
   7.42827000  9.87263550  7.09388047
  25.25610000  9.87263550  7.09388047
  10.39957800  9.87263550  7.09388047
  28.22740000  9.87263550  7.09388047
   5.94261600  9.87263550 10.46872860
  23.77050000  9.87263550 10.46872860
   8.91392400  9.87263550 10.46872860
  26.74180000  9.87263550 10.46872860
   7.42827000  6.58175700 10.64283691
  25.25610000  6.58175700 10.64283691
  10.39957800  6.58175700 10.64283691
  28.22740000  6.58175700 10.64283691
   5.94261600  6.58175700 13.86853311
  23.77050000  6.58175700 13.86853311
   8.91392400  6.58175700 13.86853311
  26.74180000  6.58175700 13.86853311
   7.42827000  9.87263550 13.86853311
  25.25610000  9.87263550 13.86853311
  10.39957800  9.87263550 13.86853311
  28.22740000  9.87263550 13.86853311
   5.94261600  9.87263550 17.26833762
  23.77050000  9.87263550 17.26833762
   8.91392400  9.87263550 17.26833762
  26.74180000  9.87263550 17.26833762
   7.42827000  6.58175700 17.09422930
  25.25610000  6.58175700 17.09422930
  10.39957800  6.58175700 17.09422930
  28.22740000  6.58175700 17.09422930
   5.94261600  6.58175700 20.30257183
  23.77050000  6.58175700 20.30257183
   8.91392400  6.58175700 20.30257183
  26.74180000  6.58175700 20.30257183
   7.42827000  9.87263550 20.64318574
  25.25610000  9.87263550 20.64318574
  10.39957800  9.87263550 20.64318574
  28.22740000  9.87263550 20.64318574
  11.88523200  6.58175700  7.43449438
  29.71310000  6.58175700  7.43449438
  14.85654000  6.58175700  7.43449438
  32.68440000  6.58175700  7.43449438
  13.37088600  9.87263550  7.09388047
  31.19870000  9.87263550  7.09388047
  16.34219400  9.87263550  7.09388047
  34.17000000  9.87263550  7.09388047
  11.88523200  9.87263550 10.46872860
  29.71310000  9.87263550 10.46872860
  14.85654000  9.87263550 10.46872860
  32.68440000  9.87263550 10.46872860
  13.37088600  6.58175700 10.64283691
  31.19870000  6.58175700 10.64283691
  16.34219400  6.58175700 10.64283691
  34.17000000  6.58175700 10.64283691
  11.88523200  6.58175700 13.86853311
  29.71310000  6.58175700 13.86853311
  14.85654000  6.58175700 13.86853311
  32.68440000  6.58175700 13.86853311
  13.37088600  9.87263550 13.86853311
  31.19870000  9.87263550 13.86853311
  16.34219400  9.87263550 13.86853311
  34.17000000  9.87263550 13.86853311
  11.88523200  9.87263550 17.26833762
  29.71310000  9.87263550 17.26833762
  14.85654000  9.87263550 17.26833762
  32.68440000  9.87263550 17.26833762
  13.37088600  6.58175700 17.09422930
  31.19870000  6.58175700 17.09422930
  16.34219400  6.58175700 17.09422930
  34.17000000  6.58175700 17.09422930
  11.88523200  6.58175700 20.30257183
  29.71310000  6.58175700 20.30257183
  14.85654000  6.58175700 20.30257183
  32.68440000  6.58175700 20.30257183
  13.37088600  9.87263550 20.64318574
  31.19870000  9.87263550 20.64318574
  16.34219400  9.87263550 20.64318574
  34.17000000  9.87263550 20.64318574
   0.00000000 13.16351400  7.43449438
  17.82780000 13.16351400  7.43449438
   2.97130800 13.16351400  7.43449438
  20.79920000 13.16351400  7.43449438
   1.48565400 16.45439250  7.09388047
  19.31350000 16.45439250  7.09388047
   4.45696200 16.45439250  7.09388047
  22.28480000 16.45439250  7.09388047
   0.00000000 16.45439250 10.46872860
  17.82780000 16.45439250 10.46872860
   2.97130800 16.45439250 10.46872860
  20.79920000 16.45439250 10.46872860
   1.48565400 13.16351400 10.64283691
  19.31350000 13.16351400 10.64283691
   4.45696200 13.16351400 10.64283691
  22.28480000 13.16351400 10.64283691
   0.00000000 13.16351400 13.86853311
  17.82780000 13.16351400 13.86853311
   2.97130800 13.16351400 13.86853311
  20.79920000 13.16351400 13.86853311
   1.48565400 16.45439250 13.86853311
  19.31350000 16.45439250 13.86853311
   4.45696200 16.45439250 13.86853311
  22.28480000 16.45439250 13.86853311
   0.00000000 16.45439250 17.26833762
  17.82780000 16.45439250 17.26833762
   2.97130800 16.45439250 17.26833762
  20.79920000 16.45439250 17.26833762
   1.48565400 13.16351400 17.09422930
  19.31350000 13.16351400 17.09422930
   4.45696200 13.16351400 17.09422930
  22.28480000 13.16351400 17.09422930
   0.00000000 13.16351400 20.30257183
  17.82780000 13.16351400 20.30257183
   2.97130800 13.16351400 20.30257183
  20.79920000 13.16351400 20.30257183
   1.48565400 16.45439250 20.64318574
  19.31350000 16.45439250 20.64318574
   4.45696200 16.45439250 20.64318574
  22.28480000 16.45439250 20.64318574
   5.94261600 13.16351400  7.43449438
  23.77050000 13.16351400  7.43449438
   8.91392400 13.16351400  7.43449438
  26.74180000 13.16351400  7.43449438
   7.42827000 16.45439250  7.09388047
  25.25610000 16.45439250  7.09388047
  10.39957800 16.45439250  7.09388047
  28.22740000 16.45439250  7.09388047
   5.94261600 16.45439250 10.46872860
  23.77050000 16.45439250 10.46872860
   8.91392400 16.45439250 10.46872860
  26.74180000 16.45439250 10.46872860
   7.42827000 13.16351400 10.64283691
  25.25610000 13.16351400 10.64283691
  10.39957800 13.16351400 10.64283691
  28.22740000 13.16351400 10.64283691
   5.94261600 13.16351400 13.86853311
  23.77050000 13.16351400 13.86853311
   8.91392400 13.16351400 13.86853311
  26.74180000 13.16351400 13.86853311
   7.42827000 16.45439250 13.86853311
  25.25610000 16.45439250 13.86853311
  10.39957800 16.45439250 13.86853311
  28.22740000 16.45439250 13.86853311
   5.94261600 16.45439250 17.26833762
  23.77050000 16.45439250 17.26833762
   8.91392400 16.45439250 17.26833762
  26.74180000 16.45439250 17.26833762
   7.42827000 13.16351400 17.09422930
  25.25610000 13.16351400 17.09422930
  10.39957800 13.16351400 17.09422930
  28.22740000 13.16351400 17.09422930
   5.94261600 13.16351400 20.30257183
  23.77050000 13.16351400 20.30257183
   8.91392400 13.16351400 20.30257183
  26.74180000 13.16351400 20.30257183
   7.42827000 16.45439250 20.64318574
  25.25610000 16.45439250 20.64318574
  10.39957800 16.45439250 20.64318574
  28.22740000 16.45439250 20.64318574
  11.88523200 13.16351400  7.43449438
  29.71310000 13.16351400  7.43449438
  14.85654000 13.16351400  7.43449438
  32.68440000 13.16351400  7.43449438
  13.37088600 16.45439250  7.09388047
  31.19870000 16.45439250  7.09388047
  16.34219400 16.45439250  7.09388047
  34.17000000 16.45439250  7.09388047
  11.88523200 16.45439250 10.46872860
  29.71310000 16.45439250 10.46872860
  14.85654000 16.45439250 10.46872860
  32.68440000 16.45439250 10.46872860
  13.37088600 13.16351400 10.64283691
  31.19870000 13.16351400 10.64283691
  16.34219400 13.16351400 10.64283691
  34.17000000 13.16351400 10.64283691
  11.88523200 13.16351400 13.86853311
  29.71310000 13.16351400 13.86853311
  14.85654000 13.16351400 13.86853311
  32.68440000 13.16351400 13.86853311
  13.37088600 16.45439250 13.86853311
  31.19870000 16.45439250 13.86853311
  16.34219400 16.45439250 13.86853311
  34.17000000 16.45439250 13.86853311
  11.88523200 16.45439250 17.26833762
  29.71310000 16.45439250 17.26833762
  14.85654000 16.45439250 17.26833762
  32.68440000 16.45439250 17.26833762
  13.37088600 13.16351400 17.09422930
  31.19870000 13.16351400 17.09422930
  16.34219400 13.16351400 17.09422930
  34.17000000 13.16351400 17.09422930
  11.88523200 13.16351400 20.30257183
  29.71310000 13.16351400 20.30257183
  14.85654000 13.16351400 20.30257183
  32.68440000 13.16351400 20.30257183
  13.37088600 16.45439250 20.64318574
  31.19870000 16.45439250 20.64318574
  16.34219400 16.45439250 20.64318574
  34.17000000 16.45439250 20.64318574
   0.00000000  3.29087850  5.99383754
  17.82780000  3.29087850  5.99383754
   2.97130800  3.29087850  5.99383754
  20.79920000  3.29087850  5.99383754
   1.48565400  1.23325233  7.11013923
  19.31350000  1.23325233  7.11013923
   4.45696200  1.23325233  7.11013923
  22.28480000  1.23325233  7.11013923
   1.48565400  5.34850467  7.11013923
  19.31350000  5.34850467  7.11013923
   4.45696200  5.34850467  7.11013923
  22.28480000  5.34850467  7.11013923
   0.00000000  3.29087850  8.57584531
  17.82780000  3.29087850  8.57584531
   2.97130800  3.29087850  8.57584531
  20.79920000  3.29087850  8.57584531
   0.00000000  0.00000000  9.27660101
  17.82780000  0.00000000  9.27660101
   2.97130800  0.00000000  9.27660101
  20.79920000  0.00000000  9.27660101
   1.48565400  4.60802695 10.56494887
  19.31350000  4.60802695 10.56494887
   4.45696200  4.60802695 10.56494887
  22.28480000  4.60802695 10.56494887
   1.48565400  1.97373005 10.56494887
  19.31350000  1.97373005 10.56494887
   4.45696200  1.97373005 10.56494887
  22.28480000  1.97373005 10.56494887
   0.00000000  0.00000000 11.85854994
  17.82780000  0.00000000 11.85854994
   2.97130800  0.00000000 11.85854994
  20.79920000  0.00000000 11.85854994
   0.00000000  3.29087850 12.57351985
  17.82780000  3.29087850 12.57351985
   2.97130800  3.29087850 12.57351985
  20.79920000  3.29087850 12.57351985
   1.48565400  1.28677612 13.86853311
  19.31350000  1.28677612 13.86853311
   4.45696200  1.28677612 13.86853311
  22.28480000  1.28677612 13.86853311
   1.48565400  5.29498088 13.86853311
  19.31350000  5.29498088 13.86853311
   4.45696200  5.29498088 13.86853311
  22.28480000  5.29498088 13.86853311
   0.00000000  3.29087850 15.16354637
  17.82780000  3.29087850 15.16354637
   2.97130800  3.29087850 15.16354637
  20.79920000  3.29087850 15.16354637
   0.00000000  0.00000000 15.87851627
  17.82780000  0.00000000 15.87851627
   2.97130800  0.00000000 15.87851627
  20.79920000  0.00000000 15.87851627
   1.48565400  4.60802695 17.17211734
  19.31350000  4.60802695 17.17211734
   4.45696200  4.60802695 17.17211734
  22.28480000  4.60802695 17.17211734
   1.48565400  1.97373005 17.17211734
  19.31350000  1.97373005 17.17211734
   4.45696200  1.97373005 17.17211734
  22.28480000  1.97373005 17.17211734
   0.00000000  0.00000000 18.46046521
  17.82780000  0.00000000 18.46046521
   2.97130800  0.00000000 18.46046521
  20.79920000  0.00000000 18.46046521
   0.00000000  3.29087850 19.16122091
  17.82780000  3.29087850 19.16122091
   2.97130800  3.29087850 19.16122091
  20.79920000  3.29087850 19.16122091
   1.48565400  1.23325233 20.62692698
  19.31350000  1.23325233 20.62692698
   4.45696200  1.23325233 20.62692698
  22.28480000  1.23325233 20.62692698
   1.48565400  5.34850467 20.62692698
  19.31350000  5.34850467 20.62692698
   4.45696200  5.34850467 20.62692698
  22.28480000  5.34850467 20.62692698
   0.00000000  3.29087850 21.74322867
  17.82780000  3.29087850 21.74322867
   2.97130800  3.29087850 21.74322867
  20.79920000  3.29087850 21.74322867
   5.94261600  3.29087850  5.99383754
  23.77050000  3.29087850  5.99383754
   8.91392400  3.29087850  5.99383754
  26.74180000  3.29087850  5.99383754
   7.42827000  1.23325233  7.11013923
  25.25610000  1.23325233  7.11013923
  10.39957800  1.23325233  7.11013923
  28.22740000  1.23325233  7.11013923
   7.42827000  5.34850467  7.11013923
  25.25610000  5.34850467  7.11013923
  10.39957800  5.34850467  7.11013923
  28.22740000  5.34850467  7.11013923
   5.94261600  3.29087850  8.57584531
  23.77050000  3.29087850  8.57584531
   8.91392400  3.29087850  8.57584531
  26.74180000  3.29087850  8.57584531
   5.94261600  0.00000000  9.27660101
  23.77050000  0.00000000  9.27660101
   8.91392400  0.00000000  9.27660101
  26.74180000  0.00000000  9.27660101
   7.42827000  4.60802695 10.56494887
  25.25610000  4.60802695 10.56494887
  10.39957800  4.60802695 10.56494887
  28.22740000  4.60802695 10.56494887
   7.42827000  1.97373005 10.56494887
  25.25610000  1.97373005 10.56494887
  10.39957800  1.97373005 10.56494887
  28.22740000  1.97373005 10.56494887
   5.94261600  0.00000000 11.85854994
  23.77050000  0.00000000 11.85854994
   8.91392400  0.00000000 11.85854994
  26.74180000  0.00000000 11.85854994
   5.94261600  3.29087850 12.57351985
  23.77050000  3.29087850 12.57351985
   8.91392400  3.29087850 12.57351985
  26.74180000  3.29087850 12.57351985
   7.42827000  1.28677612 13.86853311
  25.25610000  1.28677612 13.86853311
  10.39957800  1.28677612 13.86853311
  28.22740000  1.28677612 13.86853311
   7.42827000  5.29498088 13.86853311
  25.25610000  5.29498088 13.86853311
  10.39957800  5.29498088 13.86853311
  28.22740000  5.29498088 13.86853311
   5.94261600  3.29087850 15.16354637
  23.77050000  3.29087850 15.16354637
   8.91392400  3.29087850 15.16354637
  26.74180000  3.29087850 15.16354637
   5.94261600  0.00000000 15.87851627
  23.77050000  0.00000000 15.87851627
   8.91392400  0.00000000 15.87851627
  26.74180000  0.00000000 15.87851627
   7.42827000  4.60802695 17.17211734
  25.25610000  4.60802695 17.17211734
  10.39957800  4.60802695 17.17211734
  28.22740000  4.60802695 17.17211734
   7.42827000  1.97373005 17.17211734
  25.25610000  1.97373005 17.17211734
  10.39957800  1.97373005 17.17211734
  28.22740000  1.97373005 17.17211734
   5.94261600  0.00000000 18.46046521
  23.77050000  0.00000000 18.46046521
   8.91392400  0.00000000 18.46046521
  26.74180000  0.00000000 18.46046521
   5.94261600  3.29087850 19.16122091
  23.77050000  3.29087850 19.16122091
   8.91392400  3.29087850 19.16122091
  26.74180000  3.29087850 19.16122091
   7.42827000  1.23325233 20.62692698
  25.25610000  1.23325233 20.62692698
  10.39957800  1.23325233 20.62692698
  28.22740000  1.23325233 20.62692698
   7.42827000  5.34850467 20.62692698
  25.25610000  5.34850467 20.62692698
  10.39957800  5.34850467 20.62692698
  28.22740000  5.34850467 20.62692698
   5.94261600  3.29087850 21.74322867
  23.77050000  3.29087850 21.74322867
   8.91392400  3.29087850 21.74322867
  26.74180000  3.29087850 21.74322867
  11.88523200  3.29087850  5.99383754
  29.71310000  3.29087850  5.99383754
  14.85654000  3.29087850  5.99383754
  32.68440000  3.29087850  5.99383754
  13.37088600  1.23325233  7.11013923
  31.19870000  1.23325233  7.11013923
  16.34219400  1.23325233  7.11013923
  34.17000000  1.23325233  7.11013923
  13.37088600  5.34850467  7.11013923
  31.19870000  5.34850467  7.11013923
  16.34219400  5.34850467  7.11013923
  34.17000000  5.34850467  7.11013923
  11.88523200  3.29087850  8.57584531
  29.71310000  3.29087850  8.57584531
  14.85654000  3.29087850  8.57584531
  32.68440000  3.29087850  8.57584531
  11.88523200  0.00000000  9.27660101
  29.71310000  0.00000000  9.27660101
  14.85654000  0.00000000  9.27660101
  32.68440000  0.00000000  9.27660101
  13.37088600  4.60802695 10.56494887
  31.19870000  4.60802695 10.56494887
  16.34219400  4.60802695 10.56494887
  34.17000000  4.60802695 10.56494887
  13.37088600  1.97373005 10.56494887
  31.19870000  1.97373005 10.56494887
  16.34219400  1.97373005 10.56494887
  34.17000000  1.97373005 10.56494887
  11.88523200  0.00000000 11.85854994
  29.71310000  0.00000000 11.85854994
  14.85654000  0.00000000 11.85854994
  32.68440000  0.00000000 11.85854994
  11.88523200  3.29087850 12.57351985
  29.71310000  3.29087850 12.57351985
  14.85654000  3.29087850 12.57351985
  32.68440000  3.29087850 12.57351985
  13.37088600  1.28677612 13.86853311
  31.19870000  1.28677612 13.86853311
  16.34219400  1.28677612 13.86853311
  34.17000000  1.28677612 13.86853311
  13.37088600  5.29498088 13.86853311
  31.19870000  5.29498088 13.86853311
  16.34219400  5.29498088 13.86853311
  34.17000000  5.29498088 13.86853311
  11.88523200  3.29087850 15.16354637
  29.71310000  3.29087850 15.16354637
  14.85654000  3.29087850 15.16354637
  32.68440000  3.29087850 15.16354637
  11.88523200  0.00000000 15.87851627
  29.71310000  0.00000000 15.87851627
  14.85654000  0.00000000 15.87851627
  32.68440000  0.00000000 15.87851627
  13.37088600  4.60802695 17.17211734
  31.19870000  4.60802695 17.17211734
  16.34219400  4.60802695 17.17211734
  34.17000000  4.60802695 17.17211734
  13.37088600  1.97373005 17.17211734
  31.19870000  1.97373005 17.17211734
  16.34219400  1.97373005 17.17211734
  34.17000000  1.97373005 17.17211734
  11.88523200  0.00000000 18.46046521
  29.71310000  0.00000000 18.46046521
  14.85654000  0.00000000 18.46046521
  32.68440000  0.00000000 18.46046521
  11.88523200  3.29087850 19.16122091
  29.71310000  3.29087850 19.16122091
  14.85654000  3.29087850 19.16122091
  32.68440000  3.29087850 19.16122091
  13.37088600  1.23325233 20.62692698
  31.19870000  1.23325233 20.62692698
  16.34219400  1.23325233 20.62692698
  34.17000000  1.23325233 20.62692698
  13.37088600  5.34850467 20.62692698
  31.19870000  5.34850467 20.62692698
  16.34219400  5.34850467 20.62692698
  34.17000000  5.34850467 20.62692698
  11.88523200  3.29087850 21.74322867
  29.71310000  3.29087850 21.74322867
  14.85654000  3.29087850 21.74322867
  32.68440000  3.29087850 21.74322867
   0.00000000  9.87263550  5.99383754
  17.82780000  9.87263550  5.99383754
   2.97130800  9.87263550  5.99383754
  20.79920000  9.87263550  5.99383754
   1.48565400  7.81500933  7.11013923
  19.31350000  7.81500933  7.11013923
   4.45696200  7.81500933  7.11013923
  22.28480000  7.81500933  7.11013923
   1.48565400 11.93026167  7.11013923
  19.31350000 11.93026167  7.11013923
   4.45696200 11.93026167  7.11013923
  22.28480000 11.93026167  7.11013923
   0.00000000  9.87263550  8.57584531
  17.82780000  9.87263550  8.57584531
   2.97130800  9.87263550  8.57584531
  20.79920000  9.87263550  8.57584531
   0.00000000  6.58175700  9.27660101
  17.82780000  6.58175700  9.27660101
   2.97130800  6.58175700  9.27660101
  20.79920000  6.58175700  9.27660101
   1.48565400 11.18978395 10.56494887
  19.31350000 11.18978395 10.56494887
   4.45696200 11.18978395 10.56494887
  22.28480000 11.18978395 10.56494887
   1.48565400  8.55548705 10.56494887
  19.31350000  8.55548705 10.56494887
   4.45696200  8.55548705 10.56494887
  22.28480000  8.55548705 10.56494887
   0.00000000  6.58175700 11.85854994
  17.82780000  6.58175700 11.85854994
   2.97130800  6.58175700 11.85854994
  20.79920000  6.58175700 11.85854994
   0.00000000  9.87263550 12.57351985
  17.82780000  9.87263550 12.57351985
   2.97130800  9.87263550 12.57351985
  20.79920000  9.87263550 12.57351985
   1.48565400  7.86853312 13.86853311
  19.31350000  7.86853312 13.86853311
   4.45696200  7.86853312 13.86853311
  22.28480000  7.86853312 13.86853311
   1.48565400 11.87673788 13.86853311
  19.31350000 11.87673788 13.86853311
   4.45696200 11.87673788 13.86853311
  22.28480000 11.87673788 13.86853311
   0.00000000  9.87263550 15.16354637
  17.82780000  9.87263550 15.16354637
   2.97130800  9.87263550 15.16354637
  20.79920000  9.87263550 15.16354637
   0.00000000  6.58175700 15.87851627
  17.82780000  6.58175700 15.87851627
   2.97130800  6.58175700 15.87851627
  20.79920000  6.58175700 15.87851627
   1.48565400 11.18978395 17.17211734
  19.31350000 11.18978395 17.17211734
   4.45696200 11.18978395 17.17211734
  22.28480000 11.18978395 17.17211734
   1.48565400  8.55548705 17.17211734
  19.31350000  8.55548705 17.17211734
   4.45696200  8.55548705 17.17211734
  22.28480000  8.55548705 17.17211734
   0.00000000  6.58175700 18.46046521
  17.82780000  6.58175700 18.46046521
   2.97130800  6.58175700 18.46046521
  20.79920000  6.58175700 18.46046521
   0.00000000  9.87263550 19.16122091
  17.82780000  9.87263550 19.16122091
   2.97130800  9.87263550 19.16122091
  20.79920000  9.87263550 19.16122091
   1.48565400  7.81500933 20.62692698
  19.31350000  7.81500933 20.62692698
   4.45696200  7.81500933 20.62692698
  22.28480000  7.81500933 20.62692698
   1.48565400 11.93026167 20.62692698
  19.31350000 11.93026167 20.62692698
   4.45696200 11.93026167 20.62692698
  22.28480000 11.93026167 20.62692698
   0.00000000  9.87263550 21.74322867
  17.82780000  9.87263550 21.74322867
   2.97130800  9.87263550 21.74322867
  20.79920000  9.87263550 21.74322867
   5.94261600  9.87263550  5.99383754
  23.77050000  9.87263550  5.99383754
   8.91392400  9.87263550  5.99383754
  26.74180000  9.87263550  5.99383754
   7.42827000  7.81500933  7.11013923
  25.25610000  7.81500933  7.11013923
  10.39957800  7.81500933  7.11013923
  28.22740000  7.81500933  7.11013923
   7.42827000 11.93026167  7.11013923
  25.25610000 11.93026167  7.11013923
  10.39957800 11.93026167  7.11013923
  28.22740000 11.93026167  7.11013923
   5.94261600  9.87263550  8.57584531
  23.77050000  9.87263550  8.57584531
   8.91392400  9.87263550  8.57584531
  26.74180000  9.87263550  8.57584531
   5.94261600  6.58175700  9.27660101
  23.77050000  6.58175700  9.27660101
   8.91392400  6.58175700  9.27660101
  26.74180000  6.58175700  9.27660101
   7.42827000 11.18978395 10.56494887
  25.25610000 11.18978395 10.56494887
  10.39957800 11.18978395 10.56494887
  28.22740000 11.18978395 10.56494887
   7.42827000  8.55548705 10.56494887
  25.25610000  8.55548705 10.56494887
  10.39957800  8.55548705 10.56494887
  28.22740000  8.55548705 10.56494887
   5.94261600  6.58175700 11.85854994
  23.77050000  6.58175700 11.85854994
   8.91392400  6.58175700 11.85854994
  26.74180000  6.58175700 11.85854994
   5.94261600  9.87263550 12.57351985
  23.77050000  9.87263550 12.57351985
   8.91392400  9.87263550 12.57351985
  26.74180000  9.87263550 12.57351985
   7.42827000  7.86853312 13.86853311
  25.25610000  7.86853312 13.86853311
  10.39957800  7.86853312 13.86853311
  28.22740000  7.86853312 13.86853311
   7.42827000 11.87673788 13.86853311
  25.25610000 11.87673788 13.86853311
  10.39957800 11.87673788 13.86853311
  28.22740000 11.87673788 13.86853311
   5.94261600  9.87263550 15.16354637
  23.77050000  9.87263550 15.16354637
   8.91392400  9.87263550 15.16354637
  26.74180000  9.87263550 15.16354637
   5.94261600  6.58175700 15.87851627
  23.77050000  6.58175700 15.87851627
   8.91392400  6.58175700 15.87851627
  26.74180000  6.58175700 15.87851627
   7.42827000 11.18978395 17.17211734
  25.25610000 11.18978395 17.17211734
  10.39957800 11.18978395 17.17211734
  28.22740000 11.18978395 17.17211734
   7.42827000  8.55548705 17.17211734
  25.25610000  8.55548705 17.17211734
  10.39957800  8.55548705 17.17211734
  28.22740000  8.55548705 17.17211734
   5.94261600  6.58175700 18.46046521
  23.77050000  6.58175700 18.46046521
   8.91392400  6.58175700 18.46046521
  26.74180000  6.58175700 18.46046521
   5.94261600  9.87263550 19.16122091
  23.77050000  9.87263550 19.16122091
   8.91392400  9.87263550 19.16122091
  26.74180000  9.87263550 19.16122091
   7.42827000  7.81500933 20.62692698
  25.25610000  7.81500933 20.62692698
  10.39957800  7.81500933 20.62692698
  28.22740000  7.81500933 20.62692698
   7.42827000 11.93026167 20.62692698
  25.25610000 11.93026167 20.62692698
  10.39957800 11.93026167 20.62692698
  28.22740000 11.93026167 20.62692698
   5.94261600  9.87263550 21.74322867
  23.77050000  9.87263550 21.74322867
   8.91392400  9.87263550 21.74322867
  26.74180000  9.87263550 21.74322867
  11.88523200  9.87263550  5.99383754
  29.71310000  9.87263550  5.99383754
  14.85654000  9.87263550  5.99383754
  32.68440000  9.87263550  5.99383754
  13.37088600  7.81500933  7.11013923
  31.19870000  7.81500933  7.11013923
  16.34219400  7.81500933  7.11013923
  34.17000000  7.81500933  7.11013923
  13.37088600 11.93026167  7.11013923
  31.19870000 11.93026167  7.11013923
  16.34219400 11.93026167  7.11013923
  34.17000000 11.93026167  7.11013923
  11.88523200  9.87263550  8.57584531
  29.71310000  9.87263550  8.57584531
  14.85654000  9.87263550  8.57584531
  32.68440000  9.87263550  8.57584531
  11.88523200  6.58175700  9.27660101
  29.71310000  6.58175700  9.27660101
  14.85654000  6.58175700  9.27660101
  32.68440000  6.58175700  9.27660101
  13.37088600 11.18978395 10.56494887
  31.19870000 11.18978395 10.56494887
  16.34219400 11.18978395 10.56494887
  34.17000000 11.18978395 10.56494887
  13.37088600  8.55548705 10.56494887
  31.19870000  8.55548705 10.56494887
  16.34219400  8.55548705 10.56494887
  34.17000000  8.55548705 10.56494887
  11.88523200  6.58175700 11.85854994
  29.71310000  6.58175700 11.85854994
  14.85654000  6.58175700 11.85854994
  32.68440000  6.58175700 11.85854994
  11.88523200  9.87263550 12.57351985
  29.71310000  9.87263550 12.57351985
  14.85654000  9.87263550 12.57351985
  32.68440000  9.87263550 12.57351985
  13.37088600  7.86853312 13.86853311
  31.19870000  7.86853312 13.86853311
  16.34219400  7.86853312 13.86853311
  34.17000000  7.86853312 13.86853311
  13.37088600 11.87673788 13.86853311
  31.19870000 11.87673788 13.86853311
  16.34219400 11.87673788 13.86853311
  34.17000000 11.87673788 13.86853311
  11.88523200  9.87263550 15.16354637
  29.71310000  9.87263550 15.16354637
  14.85654000  9.87263550 15.16354637
  32.68440000  9.87263550 15.16354637
  11.88523200  6.58175700 15.87851627
  29.71310000  6.58175700 15.87851627
  14.85654000  6.58175700 15.87851627
  32.68440000  6.58175700 15.87851627
  13.37088600 11.18978395 17.17211734
  31.19870000 11.18978395 17.17211734
  16.34219400 11.18978395 17.17211734
  34.17000000 11.18978395 17.17211734
  13.37088600  8.55548705 17.17211734
  31.19870000  8.55548705 17.17211734
  16.34219400  8.55548705 17.17211734
  34.17000000  8.55548705 17.17211734
  11.88523200  6.58175700 18.46046521
  29.71310000  6.58175700 18.46046521
  14.85654000  6.58175700 18.46046521
  32.68440000  6.58175700 18.46046521
  11.88523200  9.87263550 19.16122091
  29.71310000  9.87263550 19.16122091
  14.85654000  9.87263550 19.16122091
  32.68440000  9.87263550 19.16122091
  13.37088600  7.81500933 20.62692698
  31.19870000  7.81500933 20.62692698
  16.34219400  7.81500933 20.62692698
  34.17000000  7.81500933 20.62692698
  13.37088600 11.93026167 20.62692698
  31.19870000 11.93026167 20.62692698
  16.34219400 11.93026167 20.62692698
  34.17000000 11.93026167 20.62692698
  11.88523200  9.87263550 21.74322867
  29.71310000  9.87263550 21.74322867
  14.85654000  9.87263550 21.74322867
  32.68440000  9.87263550 21.74322867
   0.00000000 16.45439250  5.99383754
  17.82780000 16.45439250  5.99383754
   2.97130800 16.45439250  5.99383754
  20.79920000 16.45439250  5.99383754
   1.48565400 14.39676633  7.11013923
  19.31350000 14.39676633  7.11013923
   4.45696200 14.39676633  7.11013923
  22.28480000 14.39676633  7.11013923
   1.48565400 18.51201867  7.11013923
  19.31350000 18.51201867  7.11013923
   4.45696200 18.51201867  7.11013923
  22.28480000 18.51201867  7.11013923
   0.00000000 16.45439250  8.57584531
  17.82780000 16.45439250  8.57584531
   2.97130800 16.45439250  8.57584531
  20.79920000 16.45439250  8.57584531
   0.00000000 13.16351400  9.27660101
  17.82780000 13.16351400  9.27660101
   2.97130800 13.16351400  9.27660101
  20.79920000 13.16351400  9.27660101
   1.48565400 17.77154095 10.56494887
  19.31350000 17.77154095 10.56494887
   4.45696200 17.77154095 10.56494887
  22.28480000 17.77154095 10.56494887
   1.48565400 15.13724405 10.56494887
  19.31350000 15.13724405 10.56494887
   4.45696200 15.13724405 10.56494887
  22.28480000 15.13724405 10.56494887
   0.00000000 13.16351400 11.85854994
  17.82780000 13.16351400 11.85854994
   2.97130800 13.16351400 11.85854994
  20.79920000 13.16351400 11.85854994
   0.00000000 16.45439250 12.57351985
  17.82780000 16.45439250 12.57351985
   2.97130800 16.45439250 12.57351985
  20.79920000 16.45439250 12.57351985
   1.48565400 14.45029012 13.86853311
  19.31350000 14.45029012 13.86853311
   4.45696200 14.45029012 13.86853311
  22.28480000 14.45029012 13.86853311
   1.48565400 18.45849488 13.86853311
  19.31350000 18.45849488 13.86853311
   4.45696200 18.45849488 13.86853311
  22.28480000 18.45849488 13.86853311
   0.00000000 16.45439250 15.16354637
  17.82780000 16.45439250 15.16354637
   2.97130800 16.45439250 15.16354637
  20.79920000 16.45439250 15.16354637
   0.00000000 13.16351400 15.87851627
  17.82780000 13.16351400 15.87851627
   2.97130800 13.16351400 15.87851627
  20.79920000 13.16351400 15.87851627
   1.48565400 17.77154095 17.17211734
  19.31350000 17.77154095 17.17211734
   4.45696200 17.77154095 17.17211734
  22.28480000 17.77154095 17.17211734
   1.48565400 15.13724405 17.17211734
  19.31350000 15.13724405 17.17211734
   4.45696200 15.13724405 17.17211734
  22.28480000 15.13724405 17.17211734
   0.00000000 13.16351400 18.46046521
  17.82780000 13.16351400 18.46046521
   2.97130800 13.16351400 18.46046521
  20.79920000 13.16351400 18.46046521
   0.00000000 16.45439250 19.16122091
  17.82780000 16.45439250 19.16122091
   2.97130800 16.45439250 19.16122091
  20.79920000 16.45439250 19.16122091
   1.48565400 14.39676633 20.62692698
  19.31350000 14.39676633 20.62692698
   4.45696200 14.39676633 20.62692698
  22.28480000 14.39676633 20.62692698
   1.48565400 18.51201867 20.62692698
  19.31350000 18.51201867 20.62692698
   4.45696200 18.51201867 20.62692698
  22.28480000 18.51201867 20.62692698
   0.00000000 16.45439250 21.74322867
  17.82780000 16.45439250 21.74322867
   2.97130800 16.45439250 21.74322867
  20.79920000 16.45439250 21.74322867
   5.94261600 16.45439250  5.99383754
  23.77050000 16.45439250  5.99383754
   8.91392400 16.45439250  5.99383754
  26.74180000 16.45439250  5.99383754
   7.42827000 14.39676633  7.11013923
  25.25610000 14.39676633  7.11013923
  10.39957800 14.39676633  7.11013923
  28.22740000 14.39676633  7.11013923
   7.42827000 18.51201867  7.11013923
  25.25610000 18.51201867  7.11013923
  10.39957800 18.51201867  7.11013923
  28.22740000 18.51201867  7.11013923
   5.94261600 16.45439250  8.57584531
  23.77050000 16.45439250  8.57584531
   8.91392400 16.45439250  8.57584531
  26.74180000 16.45439250  8.57584531
   5.94261600 13.16351400  9.27660101
  23.77050000 13.16351400  9.27660101
   8.91392400 13.16351400  9.27660101
  26.74180000 13.16351400  9.27660101
   7.42827000 17.77154095 10.56494887
  25.25610000 17.77154095 10.56494887
  10.39957800 17.77154095 10.56494887
  28.22740000 17.77154095 10.56494887
   7.42827000 15.13724405 10.56494887
  25.25610000 15.13724405 10.56494887
  10.39957800 15.13724405 10.56494887
  28.22740000 15.13724405 10.56494887
   5.94261600 13.16351400 11.85854994
  23.77050000 13.16351400 11.85854994
   8.91392400 13.16351400 11.85854994
  26.74180000 13.16351400 11.85854994
   5.94261600 16.45439250 12.57351985
  23.77050000 16.45439250 12.57351985
   8.91392400 16.45439250 12.57351985
  26.74180000 16.45439250 12.57351985
   7.42827000 14.45029012 13.86853311
  25.25610000 14.45029012 13.86853311
  10.39957800 14.45029012 13.86853311
  28.22740000 14.45029012 13.86853311
   7.42827000 18.45849488 13.86853311
  25.25610000 18.45849488 13.86853311
  10.39957800 18.45849488 13.86853311
  28.22740000 18.45849488 13.86853311
   5.94261600 16.45439250 15.16354637
  23.77050000 16.45439250 15.16354637
   8.91392400 16.45439250 15.16354637
  26.74180000 16.45439250 15.16354637
   5.94261600 13.16351400 15.87851627
  23.77050000 13.16351400 15.87851627
   8.91392400 13.16351400 15.87851627
  26.74180000 13.16351400 15.87851627
   7.42827000 17.77154095 17.17211734
  25.25610000 17.77154095 17.17211734
  10.39957800 17.77154095 17.17211734
  28.22740000 17.77154095 17.17211734
   7.42827000 15.13724405 17.17211734
  25.25610000 15.13724405 17.17211734
  10.39957800 15.13724405 17.17211734
  28.22740000 15.13724405 17.17211734
   5.94261600 13.16351400 18.46046521
  23.77050000 13.16351400 18.46046521
   8.91392400 13.16351400 18.46046521
  26.74180000 13.16351400 18.46046521
   5.94261600 16.45439250 19.16122091
  23.77050000 16.45439250 19.16122091
   8.91392400 16.45439250 19.16122091
  26.74180000 16.45439250 19.16122091
   7.42827000 14.39676633 20.62692698
  25.25610000 14.39676633 20.62692698
  10.39957800 14.39676633 20.62692698
  28.22740000 14.39676633 20.62692698
   7.42827000 18.51201867 20.62692698
  25.25610000 18.51201867 20.62692698
  10.39957800 18.51201867 20.62692698
  28.22740000 18.51201867 20.62692698
   5.94261600 16.45439250 21.74322867
  23.77050000 16.45439250 21.74322867
   8.91392400 16.45439250 21.74322867
  26.74180000 16.45439250 21.74322867
  11.88523200 16.45439250  5.99383754
  29.71310000 16.45439250  5.99383754
  14.85654000 16.45439250  5.99383754
  32.68440000 16.45439250  5.99383754
  13.37088600 14.39676633  7.11013923
  31.19870000 14.39676633  7.11013923
  16.34219400 14.39676633  7.11013923
  34.17000000 14.39676633  7.11013923
  13.37088600 18.51201867  7.11013923
  31.19870000 18.51201867  7.11013923
  16.34219400 18.51201867  7.11013923
  34.17000000 18.51201867  7.11013923
  11.88523200 16.45439250  8.57584531
  29.71310000 16.45439250  8.57584531
  14.85654000 16.45439250  8.57584531
  32.68440000 16.45439250  8.57584531
  11.88523200 13.16351400  9.27660101
  29.71310000 13.16351400  9.27660101
  14.85654000 13.16351400  9.27660101
  32.68440000 13.16351400  9.27660101
  13.37088600 17.77154095 10.56494887
  31.19870000 17.77154095 10.56494887
  16.34219400 17.77154095 10.56494887
  34.17000000 17.77154095 10.56494887
  13.37088600 15.13724405 10.56494887
  31.19870000 15.13724405 10.56494887
  16.34219400 15.13724405 10.56494887
  34.17000000 15.13724405 10.56494887
  11.88523200 13.16351400 11.85854994
  29.71310000 13.16351400 11.85854994
  14.85654000 13.16351400 11.85854994
  32.68440000 13.16351400 11.85854994
  11.88523200 16.45439250 12.57351985
  29.71310000 16.45439250 12.57351985
  14.85654000 16.45439250 12.57351985
  32.68440000 16.45439250 12.57351985
  13.37088600 14.45029012 13.86853311
  31.19870000 14.45029012 13.86853311
  16.34219400 14.45029012 13.86853311
  34.17000000 14.45029012 13.86853311
  13.37088600 18.45849488 13.86853311
  31.19870000 18.45849488 13.86853311
  16.34219400 18.45849488 13.86853311
  34.17000000 18.45849488 13.86853311
  11.88523200 16.45439250 15.16354637
  29.71310000 16.45439250 15.16354637
  14.85654000 16.45439250 15.16354637
  32.68440000 16.45439250 15.16354637
  11.88523200 13.16351400 15.87851627
  29.71310000 13.16351400 15.87851627
  14.85654000 13.16351400 15.87851627
  32.68440000 13.16351400 15.87851627
  13.37088600 17.77154095 17.17211734
  31.19870000 17.77154095 17.17211734
  16.34219400 17.77154095 17.17211734
  34.17000000 17.77154095 17.17211734
  13.37088600 15.13724405 17.17211734
  31.19870000 15.13724405 17.17211734
  16.34219400 15.13724405 17.17211734
  34.17000000 15.13724405 17.17211734
  11.88523200 13.16351400 18.46046521
  29.71310000 13.16351400 18.46046521
  14.85654000 13.16351400 18.46046521
  32.68440000 13.16351400 18.46046521
  11.88523200 16.45439250 19.16122091
  29.71310000 16.45439250 19.16122091
  14.85654000 16.45439250 19.16122091
  32.68440000 16.45439250 19.16122091
  13.37088600 14.39676633 20.62692698
  31.19870000 14.39676633 20.62692698
  16.34219400 14.39676633 20.62692698
  34.17000000 14.39676633 20.62692698
  13.37088600 18.51201867 20.62692698
  31.19870000 18.51201867 20.62692698
  16.34219400 18.51201867 20.62692698
  34.17000000 18.51201867 20.62692698
  11.88523200 16.45439250 21.74322867
  29.71310000 16.45439250 21.74322867
  14.85654000 16.45439250 21.74322867
  32.68440000 16.45439250 21.74322867
 


--------------------------------------------------------------------------------------------------------


 use serial FFT for orbitals x direction half grid
 k-point     1 :   0.0000 0.0000 0.0000  plane waves:  455267

 maximum and minimum number of plane-waves per node :    455267   455267

 maximum number of plane-waves:    455267
 maximum index in each direction: 
   IXMAX=   79   IYMAX=   44   IZMAX=   61
   IXMIN=    0   IYMIN=  -44   IZMIN=  -61


 serial   3D FFT for wavefunctions
 parallel 3D FFT for charge:
    minimum data exchange during FFTs selected (reduces bandwidth)


 total amount of memory used by VASP MPI-rank0  2240489. kBytes
=======================================================================

   base                                    :      30000. kBytes
   nonlr-proj                              :     807411. kBytes
   fftplans                                :     118638. kBytes
   grid                                    :     678016. kBytes
   one-center                              :       8398. kBytes
   wavefun                                 :     598026. kBytes
 
     INWAV:  cpu time      0.0002: real time      0.0072
 Broyden mixing: mesh for mixing (old mesh)
   NGX =159   NGY = 89   NGZ =123
  (NGX  =640   NGY  =360   NGZ  =500)
  gives a total of ****** points

 initial charge density was supplied:
 charge density of overlapping atoms calculated
 number of electron    8640.0000000 magnetization 
 keeping initial charge density in first step


--------------------------------------------------------------------------------------------------------


 Maximum index for non-local projection operator          9595
 Maximum index for augmentation-charges          1114 (set IRDMAX)


--------------------------------------------------------------------------------------------------------


 First call to EWALD:  gamma=   0.066
 Maximum number of real-space cells   2x   4x   3
 Maximum number of reciprocal cells   3x   2x   3

    FEWALD:  cpu time      7.6630: real time     61.3199
++++ Slurm JobID = 3252482
rm: cannot remove 'WAVECAR': No such file or directory
 running   64 mpi-ranks, with    8 threads/rank, on    2 nodes
 distrk:  each k-point on   64 cores,    1 groups
 distr:  one band on    1 cores,   64 groups
 Offloading initialized ...    8 GPUs detected
 WARNING: INIT_OFFLOAD: several MPI-ranks need to share a GPU, which is not
     supported by NCCL. The use of NCCL will be switched off. To avoid this,
     reduce the number of MPI-ranks: #-of-ranks <= #-of-GPUs (on every node!).

Out of memory allocating 230400000 bytes of device memory
Failing in Thread:1
Out of memory allocating 230400000 bytes of device memory
Failing in Thread:1
total/free CUDA memory: 102005473280/617152512
Present table dump for device[1]: NVIDIA Tesla GPU 0, compute capability 9.0, threadid=1
Hint: specify 0x800 bit in NV_ACC_DEBUG for verbose info.
host:0x2557280 device:0x400603df6c00 size:32 presentcount:0+3 line:643 name:var%comm
host:0x25572a0 device:0x400603dbca00 size:32 presentcount:0+4 line:652 name:var%comm_kinter
host:0x25572c0 device:0x400603dbcc00 size:32 presentcount:0+6 line:655 name:var%comm_kin
host:0x25572e0 device:0x40037e5ffa00 size:32 presentcount:0+3 line:646 name:var%comm_inter
host:0x2557300 device:0x40037e5ffc00 size:32 presentcount:0+7 line:649 name:var%comm_inb
host:0x256be80 device:0x40037a0ecd00 size:8 presentcount:0+1 line:-1 name:_setexm_struct_def_21
host:0x2576f40 device:0x40037a0ece00 size:28 presentcount:0+1 line:-1 name:_ml_ff_constant_21
host:0x2577c80 device:0x40037a0ecf00 size:30437 presentcount:0+1 line:-1 name:_ml_ff_taglist_21
host:0x25afc80 device:0x40037a0f4600 size:8 presentcount:0+1 line:-1 name:_mopenacc_tutor_21
host:0x25c2740 device:0x40037a0f4a00 size:32 presentcount:0+1 line:-1 name:_mbj_21
host:0x25cd640 device:0x40037a0f4d00 size:8 presentcount:0+1 line:-1 name:_sym_prec_21
host:0x26030c0 device:0x40037a0f4e00 size:344 presentcount:0+1 line:-1 name:_tet_21
host:0x261c840 device:0x40037a0f5000 size:392 presentcount:0+1 line:-1 name:_mymath_21
host:0x2817368 device:0x400603dbd800 size:4800 presentcount:0+2 line:614 name:var
host:0x2818628 device:0x400603df5000 size:1984 presentcount:0+2 line:403 name:var
host:0x281a910 device:0x40053c3ff600 size:864 presentcount:0+4 line:2639 name:hamiltonian
host:0x286ac80 device:0x400603dfe600 size:2712 presentcount:0+2 line:428 name:var
host:0x286b718 device:0x40057c3fea00 size:2248 presentcount:0+1 line:742 name:var
host:0x286eb50 device:0x4006041ffa00 size:288 presentcount:0+1 line:195 name:latt_cur
host:0x2871658 device:0x40037e5fc000 size:5088 presentcount:0+28 line:517 name:var
host:0x2872a38 device:0x4004b03fa600 size:5088 presentcount:0+6 line:517 name:var
host:0x2873e18 device:0x400603ff9c00 size:5088 presentcount:0+7 line:517 name:var
host:0x287a2a8 device:0x4006041eba00 size:304 presentcount:0+1 line:567 name:var
host:0x287a3d8 device:0x4006041ec800 size:304 presentcount:0+1 line:567 name:var
host:0x2e48ec0 device:0x40037a002600 size:960024 presentcount:0+1 line:-1 name:_setexm_struct_def_16
host:0x2f8f080 device:0x40037a0f4700 size:580 presentcount:0+1 line:-1 name:_wpbe_16
host:0x2f8f900 device:0x40037a0f4b00 size:288 presentcount:0+1 line:-1 name:_mbj_16
host:0x9f446c0 device:0x40037a0f5200 size:624 presentcount:0+1 line:-1 name:_mlr_optic_16
host:0x35974e60 device:0x400603dbf600 size:1000 presentcount:0+4 line:519 name:var%lpctz(:)
host:0x35977e30 device:0x4006041eae00 size:260 presentcount:0+1 line:499 name:var%ptri(:)
host:0x35978120 device:0x4004b03ffc00 size:260 presentcount:0+1 line:499 name:var%n(:)
host:0x35a5c940 device:0x400603dff800 size:24 presentcount:0+3 line:616 name:var%vkpt(:,:)
host:0x35a5cb10 device:0x400603dbd600 size:16 presentcount:0+2 line:430 name:var%psrmax(:)
host:0x35a5cb50 device:0x400603dff200 size:8 presentcount:0+3 line:616 name:var%lmmax(:)
host:0x35a5cb80 device:0x400603dff600 size:8 presentcount:0+3 line:616 name:var%nt_global(:)
host:0x35a5cbb0 device:0x400603dffe00 size:4 presentcount:0+2 line:616 name:var%nplwkp(:)
host:0x35a5cbe0 device:0x400603ff1e00 size:4 presentcount:0+2 line:616 name:var%nplwkp_tot(:)
host:0x35a5cc10 device:0x400603ff7e00 size:4 presentcount:0+2 line:616 name:var%ngvector_pos(:)
host:0x35a5cc40 device:0x400603dffc00 size:4 presentcount:0+2 line:616 name:var%ngvector(:)
host:0x35a5cc70 device:0x400603df5800 size:8 presentcount:0+2 line:616 name:var%nb_totk(:,:)
host:0x35a5cca0 device:0x400603ff8000 size:4 presentcount:0+2 line:616 name:var%luseinv(:)
host:0x35a5ccd0 device:0x400603dbd200 size:4 presentcount:0+2 line:616 name:var%at_gamma(:)
host:0x35a5cd00 device:0x400603ff9a00 size:8 presentcount:0+2 line:405 name:var%lmmax(:)
host:0x35a5cd30 device:0x400603dbce00 size:8 presentcount:0+2 line:430 name:var%lmax(:)
host:0x35a5cd60 device:0x400603dbd000 size:8 presentcount:0+2 line:430 name:var%lmmax(:)
host:0x35a5cd90 device:0x400603dbd400 size:8 presentcount:0+2 line:430 name:var%channels(:)
host:0x35a5cdc0 device:0x40057c3ff400 size:16 presentcount:0+2 line:430 name:var%rsmooth(:)
host:0x36b3b590 device:0x4004b03fd600 size:528 presentcount:0+1 line:480 name:var
host:0x3ad8c1e0 device:0x40037e5ffe00 size:8 presentcount:0+4 line:405 name:var%nityp(:)
host:0x3b24e1f0 device:0x4004b03ffe00 size:260 presentcount:0+1 line:499 name:var%ptr(:)
host:0x3b708ee0 device:0x4006041eec00 size:28464 presentcount:0+1 line:853 name:var(:)
host:0x3b722720 device:0x4006043eca00 size:40000 presentcount:0+1 line:857 name:var%psp(:,:)
host:0x3b72c390 device:0x4006043f6800 size:8000 presentcount:0+1 line:857 name:var%psprho(:)
host:0x3b72f770 device:0x400603ff2000 size:24000 presentcount:0+2 line:466 name:var%psprnl(:,:,:)
host:0x3b75f2a0 device:0x400603fe9c00 size:4320 presentcount:0+4 line:405 name:var%ityp(:)
host:0x3b7603b0 device:0x400603df8000 size:25920 presentcount:0+4 line:405 name:var%posion(:,:)
host:0x3b7a1b50 device:0x400603dff400 size:8 presentcount:0+3 line:616 name:var%nityp(:)
host:0x3b7a34a0 device:0x400603dffa00 size:8 presentcount:0+2 line:616 name:var%wtkpt(:)
host:0x3b7a3c40 device:0x4006041f5c00 size:40000 presentcount:0+1 line:857 name:var%psp(:,:)
host:0x3b7ad8b0 device:0x4006043e8a00 size:8000 presentcount:0+1 line:857 name:var%pspcor(:)
host:0x3b7af820 device:0x4006043eaa00 size:8000 presentcount:0+1 line:857 name:var%psprho(:)
host:0x3b7b2ab0 device:0x400603fec000 size:24000 presentcount:0+2 line:466 name:var%psprnl(:,:,:)
host:0x3b7f7fd0 device:0x40057c3ff800 size:24 presentcount:0+3 line:466 name:var%lps(:)
host:0x3b7f8080 device:0x40057c3ffc00 size:24 presentcount:0+3 line:466 name:var%lps(:)
host:0x3b8676d0 device:0x400603fe8a00 size:4320 presentcount:0+3 line:616 name:var%ityp(:)
host:0x3b8687e0 device:0x400603df6e00 size:4320 presentcount:0+3 line:616 name:var%npro_pos(:)
host:0x3b8698f0 device:0x400603df5a00 size:4324 presentcount:0+3 line:616 name:var%lmbase(:)
host:0x3b86aa00 device:0x400603dbec00 size:1280 presentcount:0+4 line:519 name:var%lpctx(:)
host:0x3b86af30 device:0x400603dbf200 size:720 presentcount:0+4 line:519 name:var%lpcty(:)
host:0x3b86b230 device:0x400603dbfa00 size:1280 presentcount:0+4 line:519 name:var%lpctx_(:)
host:0x3b86b760 device:0x400603dc0000 size:720 presentcount:0+4 line:519 name:var%lpcty_(:)
host:0x3b86ba60 device:0x400603dc0400 size:1000 presentcount:0+4 line:519 name:var%lpctz_(:)
host:0x3b86be70 device:0x4004b03fba00 size:1280 presentcount:0+1 line:519 name:var%lpctx(:)
host:0x3b86c3a0 device:0x4004b03fc000 size:720 presentcount:0+1 line:519 name:var%lpcty(:)
host:0x3b86c6a0 device:0x4004b03fc400 size:1000 presentcount:0+1 line:519 name:var%lpctz(:)
host:0x3b86cab0 device:0x4004b03fc800 size:1280 presentcount:0+1 line:519 name:var%lpctx_(:)
host:0x3b86cfe0 device:0x4004b03fce00 size:720 presentcount:0+1 line:519 name:var%lpcty_(:)
host:0x3b86d2e0 device:0x4004b03fd200 size:1000 presentcount:0+1 line:519 name:var%lpctz_(:)
host:0x3b86d6f0 device:0x400603ff8200 size:2560 presentcount:0+1 line:519 name:var%lpctx(:)
host:0x3b86e120 device:0x400603ffb000 size:1440 presentcount:0+1 line:519 name:var%lpcty(:)
host:0x3b86e6f0 device:0x400603ff8e00 size:2000 presentcount:0+1 line:519 name:var%lpctz(:)
host:0x3b86eef0 device:0x400603ffb600 size:2560 presentcount:0+1 line:519 name:var%lpctx_(:)
host:0x3b86f920 device:0x400603ffc000 size:1440 presentcount:0+1 line:519 name:var%lpcty_(:)
host:0x3b86fef0 device:0x400603ffc600 size:2000 presentcount:0+1 line:519 name:var%lpctz_(:)
host:0x3b963550 device:0x400603ffce00 size:5644 presentcount:0+1 line:482 name:var%i2(:)
host:0x3b964b90 device:0x400603ffe600 size:5644 presentcount:0+1 line:482 name:var%i3(:)
host:0x3b9661d0 device:0x4004b03f4c00 size:10040 presentcount:0+1 line:482 name:var%i2(:)
host:0x3b968930 device:0x4004b03f7400 size:10040 presentcount:0+1 line:482 name:var%i3(:)
host:0x3b96b090 device:0x4004b03ed800 size:14400 presentcount:0+2 line:482 name:var%i2(:)
host:0x3b96e900 device:0x4004b03f1200 size:14400 presentcount:0+2 line:482 name:var%i3(:)
host:0x3b972590 device:0x40067b85fa00 size:921600 presentcount:0+2 line:482 name:var%index(:,:)
host:0x3ba535c0 device:0x4006041eca00 size:2560 presentcount:0+1 line:569 name:var%ind1(:)
host:0x3ba53ff0 device:0x4006041ed400 size:5644 presentcount:0+1 line:569 name:var%indcol(:)
host:0x3ba55630 device:0x4004b03fda00 size:5644 presentcount:0+1 line:482 name:var%i2(:)
host:0x3ba56c70 device:0x4006041e8a00 size:5644 presentcount:0+1 line:482 name:var%i3(:)
host:0x3ba582b0 device:0x4004b03ff200 size:2520 presentcount:0+1 line:482 name:var%i2(:)
host:0x3ba58cb0 device:0x4006041ea200 size:2520 presentcount:0+1 line:482 name:var%i3(:)
host:0x3ba596b0 device:0x40037e5fd400 size:4320 presentcount:0+2 line:430 name:var%nlimax(:)
host:0x3ba5a7c0 device:0x40037e5fe600 size:4324 presentcount:0+2 line:430 name:var%lmbase(:)
host:0x3ba5b8d0 device:0x4004b0390600 size:4324 presentcount:0+2 line:430 name:var%nlibase(:)
host:0x3ba5c9e0 device:0x400603dc0800 size:17132 presentcount:0+4 line:519 name:var%nindpwconjg(:)
host:0x3ba60d00 device:0x400603dc4c00 size:17132 presentcount:0+4 line:519 name:var%ind_in_sphere(:)
host:0x3ba66660 device:0x40037e5ff800 size:260 presentcount:0+1 line:499 name:var%ptr(:)
host:0x3ba66790 device:0x40057c3ffe00 size:260 presentcount:0+1 line:499 name:var%n(:)
host:0x3ba668c0 device:0x4004b03f9c00 size:260 presentcount:0+1 line:499 name:var%ptri(:)
host:0x3ba669f0 device:0x400603fffe00 size:260 presentcount:0+1 line:499 name:var%ni(:)
host:0x3ba66b20 device:0x4004b03fa000 size:260 presentcount:0+1 line:499 name:var%ptr(:)
host:0x3ba66c50 device:0x4004b03f9e00 size:260 presentcount:0+1 line:499 name:var%n(:)
host:0x3ba66d80 device:0x4004b03fa400 size:260 presentcount:0+1 line:499 name:var%ptri(:)
host:0x3ba66eb0 device:0x4004b03fa200 size:260 presentcount:0+1 line:499 name:var%ni(:)
host:0x3ba66fe0 device:0x4006041eac00 size:260 presentcount:0+1 line:499 name:var%ni(:)
host:0x3ba67110 device:0x4006041eb200 size:260 presentcount:0+1 line:499 name:var%ptr(:)
host:0x3ba67240 device:0x4006041eb000 size:260 presentcount:0+1 line:499 name:var%n(:)
host:0x3ba67370 device:0x4006041eb800 size:4 presentcount:0+1 line:499 name:var%tbli(:)
host:0x3ba673a0 device:0x4006041eb600 size:260 presentcount:0+1 line:499 name:var%ptri(:)
host:0x3ba674d0 device:0x4006041eb400 size:260 presentcount:0+1 line:499 name:var%ni(:)
host:0x3ba93760 device:0x4006041ebc00 size:1280 presentcount:0+1 line:569 name:var%ind1(:)
host:0x3ba93c90 device:0x4006041ec200 size:1448 presentcount:0+1 line:569 name:var%indcol(:)
host:0x3ba94260 device:0x4004b0338600 size:180000 presentcount:0+4 line:482 name:var%i2(:)
host:0x3bac01b0 device:0x4004b0364600 size:180000 presentcount:0+4 line:482 name:var%i3(:)
host:0x3baec100 device:0x400603dc9000 size:180000 presentcount:0+8 line:482 name:var%index(:,:)
host:0x3bb18050 device:0x4006043bca00 size:180000 presentcount:0+8 line:482 name:var%i2(:)
host:0x3bb43fa0 device:0x4004b0391800 size:180000 presentcount:0+8 line:482 name:var%i3(:)
host:0x3bb70520 device:0x400603e00000 size:1821184 presentcount:0+3 line:616 name:var%nindpw(:,:)
host:0x3bd2cf50 device:0x400603fbca00 size:180000 presentcount:0+3 line:616 name:var%pl_index(:,:)
host:0x3bd58ea0 device:0x4006041bca00 size:180000 presentcount:0+3 line:616 name:var%pl_col(:,:)
host:0x3bd84df0 device:0x400603feae00 size:4324 presentcount:0+2 line:405 name:var%lmbase(:)
host:0x3bd85f00 device:0x40057c3ff600 size:400 presentcount:0+2 line:464 name:var
host:0x3bd86090 device:0x40057c3ffa00 size:400 presentcount:0+2 line:464 name:var
host:0x3bdf6ab0 device:0x40067b940a00 size:463360 presentcount:0+1 line:499 name:var%tbl(:)
host:0x3bff3880 device:0x400604c00000 size:7284736 presentcount:0+3 line:616 name:var%datake(:,:,:)
host:0x3c6e6b00 device:0x400604000000 size:1821184 presentcount:0+3 line:616 name:var%igx(:,:)
host:0x3c8a4190 device:0x400603c00000 size:1821184 presentcount:0+3 line:616 name:var%igy(:,:)
host:0x3ca61a30 device:0x400604200000 size:1821184 presentcount:0+3 line:616 name:var%igz(:,:)
host:0x3cc1f900 device:0x40061cc00000 size:7284272 presentcount:0+4 line:519 name:var%fftsca(:,:)
host:0x3d383190 device:0x400ea4400000 size:453600 presentcount:0+1 line:499 name:var%tbli(:)
host:0x3d3f1da0 device:0x400ea446ec00 size:453600 presentcount:0+1 line:499 name:var%tbl(:)
host:0x3d562c80 device:0x400ea3400000 size:3612160 presentcount:0+1 line:499 name:var%tbl(:)
host:0x3dc49c70 device:0x400ea3800000 size:3614400 presentcount:0+1 line:499 name:var%tbli(:)
host:0x3dfbe040 device:0x400ea3c00000 size:3614400 presentcount:0+1 line:499 name:var%tbl(:)
host:0x3e6a6e10 device:0x400ea4000000 size:3614400 presentcount:0+1 line:499 name:var%tbli(:)
host:0x3f47b480 device:0x40067ba00000 size:2799360 presentcount:0+2 line:194 name:cdij(:,:,:,:)
host:0x3f732420 device:0x40037e5f1e00 size:41472 presentcount:0+1 line:746 name:var%auxtot(:,:,:)
host:0x3f772420 device:0x4004b031a000 size:41472 presentcount:0+2 line:746 name:var%fertot(:,:,:)
host:0x3f780030 device:0x4004b0324200 size:82944 presentcount:0+2 line:746 name:var%celtot(:,:,:)
host:0x3fb65d20 device:0x400ea4600000 size:2799360 presentcount:0+2 line:194 name:cqij(:,:,:,:)
host:0x400c59d0 device:0x40067be00000 size:7962624 presentcount:0+5 line:746 name:var%gproj(:,:,:,:)
host:0x40b8a910 device:0x4004b03d5800 size:98304 presentcount:0+1 line:1101 name:w1%gproj(:)
host:0x40c09080 device:0x4006043fbe00 size:2048 presentcount:0+1 line:179 name:wtmp(:)
host:0x40d90cd0 device:0x400ea459d800 size:393216 presentcount:0+2 line:1226 name:wa%gproj(:,:)
host:0x40df0d00 device:0x401066c00000 size:393216 presentcount:0+2 line:1226 name:wa%gproj(:,:)
host:0x40e50d30 device:0x4004b03bd800 size:98304 presentcount:0+1 line:1101 name:w1%gproj(:)
host:0x40e68d60 device:0x40067b9cba00 size:98304 presentcount:0+1 line:1101 name:w1%gproj(:)
host:0x40e80d90 device:0x40067b9e3a00 size:98304 presentcount:0+1 line:1101 name:w1%gproj(:)
host:0x49969780 device:0x401074e00000 size:3145728 presentcount:0+2 line:1226 name:wa%gproj(:,:)
host:0x4ea76760 device:0x400ea45fd800 size:2048 presentcount:0+1 line:179 name:w1(:)
host:0x4ea96630 device:0x401075200000 size:14569472 presentcount:0+1 line:202 name:precon(:,:)
host:0x4f882e00 device:0x400604400000 size:7284736 presentcount:0+1 line:1101 name:w1%cptwfp(:)
host:0x4ff7d400 device:0x400603400000 size:7284736 presentcount:0+1 line:1101 name:w1%cptwfp(:)
host:0x50678030 device:0x400dece00000 size:7284736 presentcount:0+1 line:1101 name:w1%cptwfp(:)
host:0x50d6ac80 device:0x400def800000 size:7284736 presentcount:0+1 line:1101 name:w1%cptwfp(:)
host:0x4003bc0010a0 device:0x400605400000 size:45593280 presentcount:0+2 line:430 name:var%nli(:,:)
host:0x4003beb835c0 device:0x400ea4a00000 size:14400000 presentcount:0+1 line:195 name:dencor(:)
host:0x4004080031a0 device:0x400660000000 size:230400000 presentcount:0+2 line:194 name:sv(:,:)
host:0x4004169939e0 device:0x400ea5800000 size:28915200 presentcount:0+1 line:195 name:cstrf(:,:)
host:0x4004c00012b0 device:0x400620000000 size:807411968 presentcount:0+2 line:430 name:var%rproj(:)
host:0x4004f0216f80 device:0x401063400000 size:29138944 presentcount:0+2 line:1226 name:wa%cptwfp(:,:)
host:0x4004f1df7190 device:0x401065000000 size:29138944 presentcount:0+2 line:1226 name:wa%cptwfp(:,:)
host:0x4005a0004a60 device:0x4005e0000000 size:590063616 presentcount:0+5 line:746 name:var%cptwfp(:,:,:,:)
host:0x4005c32c73a0 device:0x401066e00000 size:233111552 presentcount:0+2 line:1226 name:wa%cptwfp(:,:)
host:0x4006a32c79d0 device:0x400df2200000 size:230400000 presentcount:0+1 line:1101 name:w1%cr(:)
host:0x4006b0e97be0 device:0x400650400000 size:230400000 presentcount:0+1 line:1236 name:w1%cr(:)
host:0x400700008000 device:0x40066dc00000 size:230400000 presentcount:0+1 line:1101 name:w1%cr(:)
host:0x40070dbd8210 device:0x400608000000 size:230400000 presentcount:0+1 line:1236 name:w1%cr(:)
host:0x40071b7a0020 device:0x401023400000 size:230400000 presentcount:0+1 line:1101 name:w1%cr(:)
host:0x400729360230 device:0x401031000000 size:230400000 presentcount:0+1 line:1236 name:w1%cr(:)
host:0x400c00000650 device:0x400fe3400000 size:230400000 presentcount:0+1 line:1101 name:w1%cr(:)
host:0x400c0dbc0860 device:0x400ff1000000 size:230400000 presentcount:0+1 line:1236 name:w1%cr(:)
host:0x400d80002750 device:0x401080000000 size:921600000 presentcount:0+1 line:1005 name:cwork1(:,:)
host:0xfffffe207de0 device:0x4006043fca00 size:3024 presentcount:0+12 line:682 name:var
host:0xfffffe2089b0 device:0x40053c3ffa00 size:1480 presentcount:0+1 line:174 name:w_ini
host:0xfffffe208f80 device:0x4006043fb400 size:1480 presentcount:0+1 line:174 name:wopt
host:0xfffffe209550 device:0x40051c3ff600 size:1480 presentcount:0+1 line:174 name:wtmpa
allocated block device:0x40037e5f1e00 size:41472 thread:1
allocated block device:0x40037e5fc000 size:5120 thread:1
allocated block device:0x40037e5fd400 size:4608 thread:1
allocated block device:0x40037e5fe600 size:4608 thread:1
allocated block device:0x40037e5ff800 size:512 thread:1
allocated block device:0x40037e5ffa00 size:512 thread:1
allocated block device:0x40037e5ffc00 size:512 thread:1
allocated block device:0x40037e5ffe00 size:512 thread:1
allocated block device:0x4004b031a000 size:41472 thread:1
total/free CUDA memory: 102005473280/52363264
allocated block device:0x4004b0324200 size:82944 thread:1
allocated block device:0x4004b0338600 size:180224 thread:1
allocated block device:0x4004b0364600 size:180224 thread:1
allocated block device:0x4004b0390600 size:4608 thread:1
allocated block device:0x4004b0391800 size:180224 thread:1
allocated block device:0x4004b03bd800 size:98304 thread:1
allocated block device:0x4004b03d5800 size:98304 thread:1
allocated block device:0x4004b03ed800 size:14848 thread:1
allocated block device:0x4004b03f1200 size:14848 thread:1
allocated block device:0x4004b03f4c00 size:10240 thread:1
allocated block device:0x4004b03f7400 size:10240 thread:1
allocated block device:0x4004b03f9c00 size:512 thread:1
allocated block device:0x4004b03f9e00 size:512 thread:1
allocated block device:0x4004b03fa000 size:512 thread:1
allocated block device:0x4004b03fa200 size:512 thread:1
allocated block device:0x4004b03fa400 size:512 thread:1
Present table dump for device[1]: NVIDIA Tesla GPU 0, compute capability 9.0, threadid=1
Hint: specify 0x800 bit in NV_ACC_DEBUG for verbose info.
host:0x2557280 device:0x400663df6c00 size:32 presentcount:0+3 line:643 name:var%comm
host:0x25572a0 device:0x400663dbca00 size:32 presentcount:0+4 line:652 name:var%comm_kinter
host:0x25572c0 device:0x400663dbcc00 size:32 presentcount:0+6 line:655 name:var%comm_kin
allocated block device:0x4004b03fa600 size:5120 thread:1
allocated block device:0x4004b03fba00 size:1536 thread:1
allocated block device:0x4004b03fc000 size:1024 thread:1
allocated block device:0x4004b03fc400 size:1024 thread:1
allocated block device:0x4004b03fc800 size:1536 thread:1
allocated block device:0x4004b03fce00 size:1024 thread:1
allocated block device:0x4004b03fd200 size:1024 thread:1
allocated block device:0x4004b03fd600 size:1024 thread:1
allocated block device:0x4004b03fda00 size:6144 thread:1
allocated block device:0x4004b03ff200 size:2560 thread:1
allocated block device:0x4004b03ffc00 size:512 thread:1
allocated block device:0x4004b03ffe00 size:512 thread:1
allocated block device:0x40051c3ff600 size:2048 thread:1
allocated block device:0x40053c3ff600 size:1024 thread:1
allocated block device:0x40053c3ffa00 size:1536 thread:1
allocated block device:0x40057c3fea00 size:2560 thread:1
allocated block device:0x40057c3ff400 size:512 thread:1
allocated block device:0x40057c3ff600 size:512 thread:1
host:0x25572e0 device:0x4003de3ffa00 size:32 presentcount:0+3 line:646 name:var%comm_inter
host:0x2557300 device:0x4003de3ffc00 size:32 presentcount:0+6 line:649 name:var%comm_inb
host:0x256be80 device:0x4003da0ecd00 size:8 presentcount:0+1 line:-1 name:_setexm_struct_def_21
host:0x2576f40 device:0x4003da0ece00 size:28 presentcount:0+1 line:-1 name:_ml_ff_constant_21
host:0x2577c80 device:0x4003da0ecf00 size:30437 presentcount:0+1 line:-1 name:_ml_ff_taglist_21
host:0x25afc80 device:0x4003da0f4600 size:8 presentcount:0+1 line:-1 name:_mopenacc_tutor_21
host:0x25c2740 device:0x4003da0f4a00 size:32 presentcount:0+1 line:-1 name:_mbj_21
allocated block device:0x40057c3ff800 size:512 thread:1
allocated block device:0x40057c3ffa00 size:512 thread:1
allocated block device:0x40057c3ffc00 size:512 thread:1
allocated block device:0x40057c3ffe00 size:512 thread:1
allocated block device:0x4005e0000000 size:590063616 thread:1
allocated block device:0x400603400000 size:7962624 thread:1
allocated block device:0x400603c00000 size:1821184 thread:1
allocated block device:0x400603dbca00 size:512 thread:1
allocated block device:0x400603dbcc00 size:512 thread:1
allocated block device:0x400603dbce00 size:512 thread:1
allocated block device:0x400603dbd000 size:512 thread:1
allocated block device:0x400603dbd200 size:512 thread:1
allocated block device:0x400603dbd400 size:512 thread:1
allocated block device:0x400603dbd600 size:512 thread:1
allocated block device:0x400603dbd800 size:5120 thread:1
allocated block device:0x400603dbec00 size:1536 thread:1
allocated block device:0x400603dbf200 size:1024 thread:1
allocated block device:0x400603dbf600 size:1024 thread:1
allocated block device:0x400603dbfa00 size:1536 thread:1
allocated block device:0x400603dc0000 size:1024 thread:1
host:0x25cd640 device:0x4003da0f4d00 size:8 presentcount:0+1 line:-1 name:_sym_prec_21
host:0x26030c0 device:0x4003da0f4e00 size:344 presentcount:0+1 line:-1 name:_tet_21
host:0x261c840 device:0x4003da0f5000 size:392 presentcount:0+1 line:-1 name:_mymath_21
host:0x2817368 device:0x400663dbd800 size:4800 presentcount:0+2 line:614 name:var
host:0x2818628 device:0x400663df5000 size:1984 presentcount:0+1 line:403 name:var
host:0x281a910 device:0x40059c1ff600 size:864 presentcount:0+4 line:2639 name:hamiltonian
host:0x286ac80 device:0x400663dfe600 size:2712 presentcount:0+1 line:428 name:var
host:0x286b718 device:0x4005dc1fea00 size:2248 presentcount:0+1 line:742 name:var
allocated block device:0x400603dc0400 size:1024 thread:1
allocated block device:0x400603dc0800 size:17408 thread:1
allocated block device:0x400603dc4c00 size:17408 thread:1
allocated block device:0x400603dc9000 size:180224 thread:1
allocated block device:0x400603df5000 size:2048 thread:1
allocated block device:0x400603df5800 size:512 thread:1
allocated block device:0x400603df5a00 size:4608 thread:1
allocated block device:0x400603df6c00 size:512 thread:1
allocated block device:0x400603df6e00 size:4608 thread:1
allocated block device:0x400603df8000 size:26112 thread:1
allocated block device:0x400603dfe600 size:3072 thread:1
allocated block device:0x400603dff200 size:512 thread:1
allocated block device:0x400603dff400 size:512 thread:1
allocated block device:0x400603dff600 size:512 thread:1
allocated block device:0x400603dff800 size:512 thread:1
allocated block device:0x400603dffa00 size:512 thread:1
allocated block device:0x400603dffc00 size:512 thread:1
allocated block device:0x400603dffe00 size:512 thread:1
allocated block device:0x400603e00000 size:1821184 thread:1
allocated block device:0x400603fbca00 size:180224 thread:1
allocated block device:0x400603fe8a00 size:4608 thread:1
allocated block device:0x400603fe9c00 size:4608 thread:1
allocated block device:0x400603feae00 size:4608 thread:1
allocated block device:0x400603fec000 size:24064 thread:1
allocated block device:0x400603ff1e00 size:512 thread:1
allocated block device:0x400603ff2000 size:24064 thread:1
host:0x286eb50 device:0x4006641ffa00 size:288 presentcount:0+1 line:195 name:latt_cur
host:0x2871658 device:0x4003de3fc000 size:5088 presentcount:0+21 line:517 name:var
host:0x2872a38 device:0x4005103fa600 size:5088 presentcount:0+6 line:517 name:var
host:0x2873e18 device:0x400663ff9c00 size:5088 presentcount:0+7 line:517 name:var
host:0x287a2a8 device:0x4006641eba00 size:304 presentcount:0+1 line:567 name:var
host:0x287a3d8 device:0x4006641ec800 size:304 presentcount:0+1 line:567 name:var
host:0x2e48ec0 device:0x4003da002600 size:960024 presentcount:0+1 line:-1 name:_setexm_struct_def_16
host:0x2f8f080 device:0x4003da0f4700 size:580 presentcount:0+1 line:-1 name:_wpbe_16
host:0x2f8f900 device:0x4003da0f4b00 size:288 presentcount:0+1 line:-1 name:_mbj_16
host:0x9f446c0 device:0x4003da0f5200 size:624 presentcount:0+1 line:-1 name:_mlr_optic_16
host:0x48084e60 device:0x400663dbf600 size:1000 presentcount:0+3 line:519 name:var%lpctz(:)
host:0x48087e30 device:0x4006641eac00 size:260 presentcount:0+1 line:499 name:var%ni(:)
host:0x48088120 device:0x4006641eae00 size:260 presentcount:0+1 line:499 name:var%ptri(:)
allocated block device:0x400603ff7e00 size:512 thread:1
allocated block device:0x400603ff8000 size:512 thread:1
allocated block device:0x400603ff8200 size:3072 thread:1
allocated block device:0x400603ff8e00 size:3072 thread:1
allocated block device:0x400603ff9a00 size:512 thread:1
allocated block device:0x400603ff9c00 size:5120 thread:1
allocated block device:0x400603ffb000 size:1536 thread:1
allocated block device:0x400603ffb600 size:2560 thread:1
allocated block device:0x400603ffc000 size:1536 thread:1
allocated block device:0x400603ffc600 size:2048 thread:1
allocated block device:0x400603ffce00 size:6144 thread:1
allocated block device:0x400603ffe600 size:6144 thread:1
allocated block device:0x400603fffe00 size:512 thread:1
allocated block device:0x400604000000 size:1821184 thread:1
allocated block device:0x4006041bca00 size:180224 thread:1
allocated block device:0x4006041e8a00 size:6144 thread:1
allocated block device:0x4006041ea200 size:2560 thread:1
allocated block device:0x4006041eac00 size:512 thread:1
allocated block device:0x4006041eae00 size:512 thread:1
allocated block device:0x4006041eb000 size:512 thread:1
allocated block device:0x4006041eb200 size:512 thread:1
allocated block device:0x4006041eb400 size:512 thread:1
allocated block device:0x4006041eb600 size:512 thread:1
allocated block device:0x4006041eb800 size:512 thread:1
allocated block device:0x4006041eba00 size:512 thread:1
allocated block device:0x4006041ebc00 size:1536 thread:1
host:0x4816c8f0 device:0x400663dff800 size:24 presentcount:0+2 line:616 name:var%vkpt(:,:)
host:0x4816ca80 device:0x400663dbd600 size:16 presentcount:0+1 line:430 name:var%psrmax(:)
host:0x4816cac0 device:0x400663dffe00 size:4 presentcount:0+2 line:616 name:var%nplwkp(:)
host:0x4816caf0 device:0x400663ff1e00 size:4 presentcount:0+2 line:616 name:var%nplwkp_tot(:)
host:0x4816cb20 device:0x400663ff7e00 size:4 presentcount:0+2 line:616 name:var%ngvector_pos(:)
host:0x4816cb50 device:0x400663dffc00 size:4 presentcount:0+2 line:616 name:var%ngvector(:)
host:0x4816cb80 device:0x400663df5800 size:8 presentcount:0+2 line:616 name:var%nb_totk(:,:)
host:0x4816cbb0 device:0x400663ff8000 size:4 presentcount:0+2 line:616 name:var%luseinv(:)
host:0x4816cbe0 device:0x400663dbd200 size:4 presentcount:0+2 line:616 name:var%at_gamma(:)
host:0x4816cc10 device:0x400663ff9a00 size:8 presentcount:0+1 line:405 name:var%lmmax(:)
host:0x4816cc40 device:0x400663dbce00 size:8 presentcount:0+1 line:430 name:var%lmax(:)
host:0x4816cc70 device:0x400663dbd000 size:8 presentcount:0+1 line:430 name:var%lmmax(:)
host:0x4816cca0 device:0x400663dbd400 size:8 presentcount:0+1 line:430 name:var%channels(:)
allocated block device:0x4006041ec200 size:1536 thread:1
allocated block device:0x4006041ec800 size:512 thread:1
allocated block device:0x4006041eca00 size:2560 thread:1
allocated block device:0x4006041ed400 size:6144 thread:1
allocated block device:0x4006041eec00 size:28672 thread:1
allocated block device:0x4006041f5c00 size:40448 thread:1
allocated block device:0x4006041ffa00 size:512 thread:1
allocated block device:0x400604200000 size:1821184 thread:1
allocated block device:0x4006043bca00 size:180224 thread:1
allocated block device:0x4006043e8a00 size:8192 thread:1
allocated block device:0x4006043eaa00 size:8192 thread:1
allocated block device:0x4006043eca00 size:40448 thread:1
allocated block device:0x4006043f6800 size:8192 thread:1
allocated block device:0x4006043fb400 size:2560 thread:1
allocated block device:0x4006043fbe00 size:3072 thread:1
allocated block device:0x4006043fca00 size:3072 thread:1
allocated block device:0x400604400000 size:7284736 thread:1
allocated block device:0x400604c00000 size:7284736 thread:1
allocated block device:0x400605400000 size:45593600 thread:1
allocated block device:0x400608000000 size:230400000 thread:1
allocated block device:0x40061cc00000 size:7284736 thread:1
allocated block device:0x400620000000 size:807412224 thread:1
allocated block device:0x400650400000 size:230400000 thread:1
allocated block device:0x400660000000 size:230400000 thread:1
allocated block device:0x40066dc00000 size:230400000 thread:1
allocated block device:0x40067b85fa00 size:921600 thread:1
allocated block device:0x40067b940a00 size:463360 thread:1
allocated block device:0x40067b9cba00 size:98304 thread:1
allocated block device:0x40067b9e3a00 size:98304 thread:1
allocated block device:0x40067ba00000 size:2799616 thread:1
allocated block device:0x40067be00000 size:7962624 thread:1
allocated block device:0x400dece00000 size:14400000 thread:1
allocated block device:0x400def800000 size:14400000 thread:1
allocated block device:0x400df2200000 size:230400000 thread:1
allocated block device:0x400ea3400000 size:3612160 thread:1
allocated block device:0x400ea3800000 size:3614720 thread:1
allocated block device:0x400ea3c00000 size:3614720 thread:1
allocated block device:0x400ea4000000 size:3614720 thread:1
allocated block device:0x400ea4400000 size:453632 thread:1
allocated block device:0x400ea446ec00 size:453632 thread:1
allocated block device:0x400ea459d800 size:393216 thread:1
allocated block device:0x400ea45fd800 size:2048 thread:1
allocated block device:0x400ea4600000 size:2799616 thread:1
host:0x4816ccd0 device:0x4005dc1ff400 size:16 presentcount:0+1 line:430 name:var%rsmooth(:)
host:0x4816cd10 device:0x4006641eb800 size:4 presentcount:0+1 line:499 name:var%tbli(:)
host:0x487c9510 device:0x4005103fd600 size:528 presentcount:0+1 line:480 name:var
host:0x487c9db0 device:0x4005103ffc00 size:260 presentcount:0+1 line:499 name:var%n(:)
host:0x4c885df0 device:0x4005dc1ff600 size:400 presentcount:0+1 line:464 name:var
host:0x4c885f80 device:0x4005dc1ffa00 size:400 presentcount:0+1 line:464 name:var
host:0x50f1dce0 device:0x4003de3ffe00 size:8 presentcount:0+2 line:405 name:var%nityp(:)
host:0x513dfcf0 device:0x4005103ffe00 size:260 presentcount:0+1 line:499 name:var%ptr(:)
host:0x5189ab10 device:0x4006641eec00 size:28464 presentcount:0+1 line:853 name:var(:)
host:0x518a5050 device:0x400663dff600 size:8 presentcount:0+3 line:616 name:var%nt_global(:)
host:0x518a50f0 device:0x400663dff200 size:8 presentcount:0+3 line:616 name:var%lmmax(:)
host:0x518a5120 device:0x400663dffa00 size:8 presentcount:0+2 line:616 name:var%wtkpt(:)
host:0x518a5150 device:0x400663dff400 size:8 presentcount:0+3 line:616 name:var%nityp(:)
host:0x518a5a90 device:0x4006641f5c00 size:40000 presentcount:0+1 line:857 name:var%psp(:,:)
host:0x518af700 device:0x4006643e8a00 size:8000 presentcount:0+1 line:857 name:var%pspcor(:)
host:0x518b1670 device:0x4006643eaa00 size:8000 presentcount:0+1 line:857 name:var%psprho(:)
host:0x518b4900 device:0x400663fec000 size:24000 presentcount:0+1 line:466 name:var%psprnl(:,:,:)
host:0x518d17f0 device:0x4006643eca00 size:40000 presentcount:0+1 line:857 name:var%psp(:,:)
host:0x518db460 device:0x4006643f6800 size:8000 presentcount:0+1 line:857 name:var%psprho(:)
host:0x518de6f0 device:0x400663ff2000 size:24000 presentcount:0+1 line:466 name:var%psprnl(:,:,:)
host:0x5190e0d0 device:0x400663fe9c00 size:4320 presentcount:0+2 line:405 name:var%ityp(:)
host:0x5190f1e0 device:0x400663df8000 size:25920 presentcount:0+2 line:405 name:var%posion(:,:)
host:0x5197d3f0 device:0x4005dc1ff800 size:24 presentcount:0+2 line:466 name:var%lps(:)
host:0x5197d4a0 device:0x4005dc1ffc00 size:24 presentcount:0+2 line:466 name:var%lps(:)
host:0x51a10a30 device:0x400663fe8a00 size:4320 presentcount:0+3 line:616 name:var%ityp(:)
host:0x51a11b40 device:0x400663df6e00 size:4320 presentcount:0+3 line:616 name:var%npro_pos(:)
host:0x51a12c50 device:0x400663df5a00 size:4324 presentcount:0+3 line:616 name:var%lmbase(:)
host:0x51a13d60 device:0x400663dbec00 size:1280 presentcount:0+3 line:519 name:var%lpctx(:)
allocated block device:0x400ea4a00000 size:14400000 thread:1
allocated block device:0x400ea5800000 size:28915200 thread:1
allocated block device:0x400fe3400000 size:230400000 thread:1
allocated block device:0x400ff1000000 size:230400000 thread:1
allocated block device:0x401023400000 size:230400000 thread:1
allocated block device:0x401031000000 size:230400000 thread:1
allocated block device:0x401063400000 size:29138944 thread:1
allocated block device:0x401065000000 size:29138944 thread:1
allocated block device:0x401066c00000 size:393216 thread:1
allocated block device:0x401066e00000 size:233111552 thread:1
allocated block device:0x401074e00000 size:3145728 thread:1
allocated block device:0x401075200000 size:14569472 thread:1
allocated block device:0x401080000000 size:921600000 thread:1
host:0x51a14290 device:0x400663dbf200 size:720 presentcount:0+3 line:519 name:var%lpcty(:)
host:0x51a14590 device:0x400663dbfa00 size:1280 presentcount:0+3 line:519 name:var%lpctx_(:)
host:0x51a14ac0 device:0x400663dc0000 size:720 presentcount:0+3 line:519 name:var%lpcty_(:)
host:0x51a14dc0 device:0x400663dc0400 size:1000 presentcount:0+3 line:519 name:var%lpctz_(:)
host:0x51a151d0 device:0x4005103fba00 size:1280 presentcount:0+1 line:519 name:var%lpctx(:)
host:0x51a15700 device:0x4005103fc000 size:720 presentcount:0+1 line:519 name:var%lpcty(:)
host:0x51a15a00 device:0x4005103fc400 size:1000 presentcount:0+1 line:519 name:var%lpctz(:)
host:0x51a15e10 device:0x4005103fc800 size:1280 presentcount:0+1 line:519 name:var%lpctx_(:)
host:0x51a16340 device:0x4005103fce00 size:720 presentcount:0+1 line:519 name:var%lpcty_(:)
host:0x51a16640 device:0x4005103fd200 size:1000 presentcount:0+1 line:519 name:var%lpctz_(:)
host:0x51a16a50 device:0x400663ff8200 size:2560 presentcount:0+1 line:519 name:var%lpctx(:)
host:0x51a17480 device:0x400663ffb000 size:1440 presentcount:0+1 line:519 name:var%lpcty(:)
host:0x51a17a50 device:0x400663ff8e00 size:2000 presentcount:0+1 line:519 name:var%lpctz(:)
host:0x51a18250 device:0x400663ffb600 size:2560 presentcount:0+1 line:519 name:var%lpctx_(:)
host:0x51a18c80 device:0x400663ffc000 size:1440 presentcount:0+1 line:519 name:var%lpcty_(:)
host:0x51a19250 device:0x400663ffc600 size:2000 presentcount:0+1 line:519 name:var%lpctz_(:)
Accelerator Fatal Error: call to cuMemAlloc returned error 2 (CUDA_ERROR_OUT_OF_MEMORY): Out of memory
 File: /lus/lfs1aip2/projects/u6cb/software/VASP/vasp.6.5.1/build/gam/fft_base.f90
 Function: restride_r2q_cmplx:945
 Line: 964

host:0x51b0c8b0 device:0x400663ffce00 size:5644 presentcount:0+1 line:482 name:var%i2(:)
host:0x51b0def0 device:0x400663ffe600 size:5644 presentcount:0+1 line:482 name:var%i3(:)
host:0x51b0f530 device:0x4005103f4c00 size:10040 presentcount:0+1 line:482 name:var%i2(:)
host:0x51b11c90 device:0x4005103f7400 size:10040 presentcount:0+1 line:482 name:var%i3(:)
host:0x51b143f0 device:0x4005103ed800 size:14400 presentcount:0+2 line:482 name:var%i2(:)
host:0x51b17c60 device:0x4005103f1200 size:14400 presentcount:0+2 line:482 name:var%i3(:)
host:0x51b1b8f0 device:0x4006fb85fa00 size:921600 presentcount:0+2 line:482 name:var%index(:,:)
host:0x51bfc920 device:0x4006641eca00 size:2560 presentcount:0+1 line:569 name:var%ind1(:)
host:0x51bfd350 device:0x4006641ed400 size:5644 presentcount:0+1 line:569 name:var%indcol(:)
host:0x51bfe990 device:0x4005103fda00 size:5644 presentcount:0+1 line:482 name:var%i2(:)
host:0x51bfffd0 device:0x4006641e8a00 size:5644 presentcount:0+1 line:482 name:var%i3(:)
host:0x51c01610 device:0x4005103ff200 size:2520 presentcount:0+1 line:482 name:var%i2(:)
host:0x51c02010 device:0x4006641ea200 size:2520 presentcount:0+1 line:482 name:var%i3(:)
host:0x51c02a10 device:0x4003de3fd400 size:4320 presentcount:0+1 line:430 name:var%nlimax(:)
host:0x51c03b20 device:0x4003de3fe600 size:4324 presentcount:0+1 line:430 name:var%lmbase(:)
host:0x51c04c30 device:0x400510390600 size:4324 presentcount:0+1 line:430 name:var%nlibase(:)
host:0x51c05d40 device:0x400663dc0800 size:17132 presentcount:0+3 line:519 name:var%nindpwconjg(:)
host:0x51c0a060 device:0x400663dc4c00 size:17132 presentcount:0+3 line:519 name:var%ind_in_sphere(:)
host:0x51c0f9c0 device:0x4005dc1ffe00 size:260 presentcount:0+1 line:499 name:var%n(:)
host:0x51c0faf0 device:0x4005103f9c00 size:260 presentcount:0+1 line:499 name:var%ptri(:)
host:0x51c0fc20 device:0x400663fffe00 size:260 presentcount:0+1 line:499 name:var%ni(:)
host:0x51c0fd50 device:0x4005103fa000 size:260 presentcount:0+1 line:499 name:var%ptr(:)
host:0x51c0fe80 device:0x4005103f9e00 size:260 presentcount:0+1 line:499 name:var%n(:)
host:0x51c0ffb0 device:0x4005103fa400 size:260 presentcount:0+1 line:499 name:var%ptri(:)
host:0x51c100e0 device:0x4005103fa200 size:260 presentcount:0+1 line:499 name:var%ni(:)
host:0x51c10340 device:0x4006641eb200 size:260 presentcount:0+1 line:499 name:var%ptr(:)
host:0x51c10470 device:0x4006641eb000 size:260 presentcount:0+1 line:499 name:var%n(:)
host:0x51c105a0 device:0x4006641eb600 size:260 presentcount:0+1 line:499 name:var%ptri(:)
host:0x51c106d0 device:0x4006641eb400 size:260 presentcount:0+1 line:499 name:var%ni(:)
host:0x51c21230 device:0x4003de3ff800 size:260 presentcount:0+1 line:499 name:var%ptr(:)
host:0x51c3cac0 device:0x4006641ebc00 size:1280 presentcount:0+1 line:569 name:var%ind1(:)
host:0x51c3cff0 device:0x4006641ec200 size:1444 presentcount:0+1 line:569 name:var%indcol(:)
host:0x51c3d5c0 device:0x400510338600 size:180000 presentcount:0+3 line:482 name:var%i2(:)
host:0x51c69510 device:0x400510364600 size:180000 presentcount:0+3 line:482 name:var%i3(:)
host:0x51c95460 device:0x400663dc9000 size:180000 presentcount:0+6 line:482 name:var%index(:,:)
host:0x51cc13b0 device:0x4006643bca00 size:180000 presentcount:0+6 line:482 name:var%i2(:)
host:0x51ced300 device:0x400510391800 size:180000 presentcount:0+6 line:482 name:var%i3(:)
host:0x51d19880 device:0x400663e00000 size:1821184 presentcount:0+2 line:616 name:var%nindpw(:,:)
host:0x51ed62b0 device:0x400663fbca00 size:180000 presentcount:0+2 line:616 name:var%pl_index(:,:)
host:0x51f02200 device:0x4006641bca00 size:180000 presentcount:0+2 line:616 name:var%pl_col(:,:)
host:0x51f2e150 device:0x400663feae00 size:4324 presentcount:0+1 line:405 name:var%lmbase(:)
host:0x51f9fac0 device:0x4006fb940a00 size:462080 presentcount:0+1 line:499 name:var%tbl(:)
host:0x521854b0 device:0x400664c00000 size:7284736 presentcount:0+2 line:616 name:var%datake(:,:,:)
host:0x52878730 device:0x400664000000 size:1821184 presentcount:0+2 line:616 name:var%igx(:,:)
host:0x52a35dc0 device:0x400663c00000 size:1821184 presentcount:0+2 line:616 name:var%igy(:,:)
host:0x52bf3660 device:0x400664200000 size:1821184 presentcount:0+2 line:616 name:var%igz(:,:)
host:0x52db1530 device:0x40067cc00000 size:7284272 presentcount:0+3 line:519 name:var%fftsca(:,:)
host:0x535148c0 device:0x400f24400000 size:453600 presentcount:0+1 line:499 name:var%tbli(:)
host:0x535834d0 device:0x400f2446ec00 size:453600 presentcount:0+1 line:499 name:var%tbl(:)
host:0x536f43b0 device:0x400f23400000 size:3612160 presentcount:0+1 line:499 name:var%tbl(:)
host:0x53ddb3a0 device:0x400f23800000 size:3614400 presentcount:0+1 line:499 name:var%tbli(:)
host:0x5414f770 device:0x400f23c00000 size:3614400 presentcount:0+1 line:499 name:var%tbl(:)
host:0x54838540 device:0x400f24000000 size:3614400 presentcount:0+1 line:499 name:var%tbli(:)
host:0x5560cbb0 device:0x4006fba00000 size:2799360 presentcount:0+1 line:194 name:cdij(:,:,:,:)
host:0x558e2420 device:0x4003de3f1e00 size:41472 presentcount:0+1 line:746 name:var%auxtot(:,:,:)
host:0x55902420 device:0x40051031a000 size:41472 presentcount:0+2 line:746 name:var%fertot(:,:,:)
host:0x55930030 device:0x400510324200 size:82944 presentcount:0+2 line:746 name:var%celtot(:,:,:)
host:0x55cf7450 device:0x400f24600000 size:2799360 presentcount:0+1 line:194 name:cqij(:,:,:,:)
host:0x56257100 device:0x4006fbe00000 size:7962624 presentcount:0+1 line:746 name:var%gproj(:,:,:,:)
host:0x56d3e850 device:0x4005103bd800 size:98304 presentcount:0+1 line:1101 name:w1%gproj(:)
host:0x56dbcfc0 device:0x4005bc3ff600 size:2048 presentcount:0+1 line:179 name:wtmp(:)
host:0x56f44c10 device:0x400f2459d800 size:393216 presentcount:0+2 line:1226 name:wa%gproj(:,:)
host:0x56fa4c40 device:0x4010e6c00000 size:393216 presentcount:0+2 line:1226 name:wa%gproj(:,:)
host:0x57004c70 device:0x4005103d5800 size:98304 presentcount:0+1 line:1101 name:w1%gproj(:)
host:0x5701cca0 device:0x4006fb9c1400 size:98304 presentcount:0+1 line:1101 name:w1%gproj(:)
host:0x5fb23050 device:0x4010f4e00000 size:3145728 presentcount:0+2 line:1226 name:wa%gproj(:,:)
host:0x64c261c0 device:0x4006643f8800 size:2048 presentcount:0+1 line:179 name:w1(:)
host:0x65a32820 device:0x4010f5200000 size:7284736 presentcount:0+1 line:1101 name:w1%cptwfp(:)
host:0x6612cc10 device:0x4010f5a00000 size:7284736 presentcount:0+1 line:1101 name:w1%cptwfp(:)
host:0x66827630 device:0x4010f6200000 size:7284736 presentcount:0+1 line:1101 name:w1%cptwfp(:)
host:0x4004780010a0 device:0x400665400000 size:45593280 presentcount:0+1 line:430 name:var%nli(:,:)
host:0x40047b9535c0 device:0x400f24a00000 size:14400000 presentcount:0+1 line:195 name:dencor(:)
host:0x40047d4e39e0 device:0x400f25800000 size:28915200 presentcount:0+1 line:195 name:cstrf(:,:)
host:0x4005200012b0 device:0x400680000000 size:807411968 presentcount:0+1 line:430 name:var%rproj(:)
host:0x4005502131a0 device:0x4006e0000000 size:230400000 presentcount:0+1 line:194 name:sv(:,:)
host:0x400600004a60 device:0x400640000000 size:590063616 presentcount:0+1 line:746 name:var%cptwfp(:,:,:,:)
host:0x400625c36d70 device:0x4010e3400000 size:29138944 presentcount:0+2 line:1226 name:wa%cptwfp(:,:)
host:0x400627816f80 device:0x4010e5000000 size:29138944 presentcount:0+2 line:1226 name:wa%cptwfp(:,:)
host:0x4006c00077c0 device:0x4010a3400000 size:230400000 presentcount:0+1 line:1101 name:w1%cr(:)
host:0x4006d0517190 device:0x4010e6e00000 size:233111552 presentcount:0+2 line:1226 name:wa%cptwfp(:,:)
host:0x4007232c79d0 device:0x4010b1000000 size:230400000 presentcount:0+1 line:1236 name:w1%cr(:)
host:0x400730e97df0 device:0x401063400000 size:230400000 presentcount:0+1 line:1101 name:w1%cr(:)
host:0x400780008000 device:0x401071000000 size:230400000 presentcount:0+1 line:1236 name:w1%cr(:)
host:0xffffe672df70 device:0x4006643fca00 size:3024 presentcount:0+8 line:682 name:var
host:0xffffe672eb40 device:0x40059c1ffa00 size:1480 presentcount:0+1 line:174 name:w_ini
host:0xffffe672f110 device:0x4006643fb400 size:1480 presentcount:0+1 line:174 name:wopt
host:0xffffe672f6e0 device:0x40057c5ff600 size:1480 presentcount:0+1 line:174 name:wtmpa
allocated block device:0x4003de3f1e00 size:41472 thread:1
allocated block device:0x4003de3fc000 size:5120 thread:1
allocated block device:0x4003de3fd400 size:4608 thread:1
allocated block device:0x4003de3fe600 size:4608 thread:1
allocated block device:0x4003de3ff800 size:512 thread:1
allocated block device:0x4003de3ffa00 size:512 thread:1
allocated block device:0x4003de3ffc00 size:512 thread:1
allocated block device:0x4003de3ffe00 size:512 thread:1
allocated block device:0x40051031a000 size:41472 thread:1
allocated block device:0x400510324200 size:82944 thread:1
allocated block device:0x400510338600 size:180224 thread:1
allocated block device:0x400510364600 size:180224 thread:1
allocated block device:0x400510390600 size:4608 thread:1
allocated block device:0x400510391800 size:180224 thread:1
allocated block device:0x4005103bd800 size:98304 thread:1
allocated block device:0x4005103d5800 size:98304 thread:1
allocated block device:0x4005103ed800 size:14848 thread:1
allocated block device:0x4005103f1200 size:14848 thread:1
allocated block device:0x4005103f4c00 size:10240 thread:1
allocated block device:0x4005103f7400 size:10240 thread:1
allocated block device:0x4005103f9c00 size:512 thread:1
allocated block device:0x4005103f9e00 size:512 thread:1
allocated block device:0x4005103fa000 size:512 thread:1
allocated block device:0x4005103fa200 size:512 thread:1
allocated block device:0x4005103fa400 size:512 thread:1
allocated block device:0x4005103fa600 size:5120 thread:1
allocated block device:0x4005103fba00 size:1536 thread:1
allocated block device:0x4005103fc000 size:1024 thread:1
allocated block device:0x4005103fc400 size:1024 thread:1
allocated block device:0x4005103fc800 size:1536 thread:1
allocated block device:0x4005103fce00 size:1024 thread:1
allocated block device:0x4005103fd200 size:1024 thread:1
allocated block device:0x4005103fd600 size:1024 thread:1
allocated block device:0x4005103fda00 size:6144 thread:1
allocated block device:0x4005103ff200 size:2560 thread:1
allocated block device:0x4005103ffc00 size:512 thread:1
allocated block device:0x4005103ffe00 size:512 thread:1
allocated block device:0x40057c5ff600 size:2048 thread:1
allocated block device:0x40059c1ff600 size:1024 thread:1
allocated block device:0x40059c1ffa00 size:1536 thread:1
allocated block device:0x4005bc3ff600 size:2048 thread:1
allocated block device:0x4005dc1fea00 size:2560 thread:1
allocated block device:0x4005dc1ff400 size:512 thread:1
allocated block device:0x4005dc1ff600 size:512 thread:1
allocated block device:0x4005dc1ff800 size:512 thread:1
allocated block device:0x4005dc1ffa00 size:512 thread:1
allocated block device:0x4005dc1ffc00 size:512 thread:1
allocated block device:0x4005dc1ffe00 size:512 thread:1
allocated block device:0x400640000000 size:590063616 thread:1
allocated block device:0x400663c00000 size:1821184 thread:1
allocated block device:0x400663dbca00 size:512 thread:1
allocated block device:0x400663dbcc00 size:512 thread:1
allocated block device:0x400663dbce00 size:512 thread:1
allocated block device:0x400663dbd000 size:512 thread:1
allocated block device:0x400663dbd200 size:512 thread:1
allocated block device:0x400663dbd400 size:512 thread:1
allocated block device:0x400663dbd600 size:512 thread:1
allocated block device:0x400663dbd800 size:5120 thread:1
allocated block device:0x400663dbec00 size:1536 thread:1
allocated block device:0x400663dbf200 size:1024 thread:1
allocated block device:0x400663dbf600 size:1024 thread:1
allocated block device:0x400663dbfa00 size:1536 thread:1
allocated block device:0x400663dc0000 size:1024 thread:1
allocated block device:0x400663dc0400 size:1024 thread:1
allocated block device:0x400663dc0800 size:17408 thread:1
allocated block device:0x400663dc4c00 size:17408 thread:1
allocated block device:0x400663dc9000 size:180224 thread:1
allocated block device:0x400663df5000 size:2048 thread:1
allocated block device:0x400663df5800 size:512 thread:1
allocated block device:0x400663df5a00 size:4608 thread:1
allocated block device:0x400663df6c00 size:512 thread:1
allocated block device:0x400663df6e00 size:4608 thread:1
allocated block device:0x400663df8000 size:26112 thread:1
allocated block device:0x400663dfe600 size:3072 thread:1
allocated block device:0x400663dff200 size:512 thread:1
allocated block device:0x400663dff400 size:512 thread:1
allocated block device:0x400663dff600 size:512 thread:1
allocated block device:0x400663dff800 size:512 thread:1
allocated block device:0x400663dffa00 size:512 thread:1
allocated block device:0x400663dffc00 size:512 thread:1
allocated block device:0x400663dffe00 size:512 thread:1
allocated block device:0x400663e00000 size:1821184 thread:1
allocated block device:0x400663fbca00 size:180224 thread:1
allocated block device:0x400663fe8a00 size:4608 thread:1
allocated block device:0x400663fe9c00 size:4608 thread:1
allocated block device:0x400663feae00 size:4608 thread:1
allocated block device:0x400663fec000 size:24064 thread:1
allocated block device:0x400663ff1e00 size:512 thread:1
allocated block device:0x400663ff2000 size:24064 thread:1
allocated block device:0x400663ff7e00 size:512 thread:1
allocated block device:0x400663ff8000 size:512 thread:1
allocated block device:0x400663ff8200 size:3072 thread:1
allocated block device:0x400663ff8e00 size:3072 thread:1
allocated block device:0x400663ff9a00 size:512 thread:1
allocated block device:0x400663ff9c00 size:5120 thread:1
allocated block device:0x400663ffb000 size:1536 thread:1
allocated block device:0x400663ffb600 size:2560 thread:1
allocated block device:0x400663ffc000 size:1536 thread:1
allocated block device:0x400663ffc600 size:2048 thread:1
allocated block device:0x400663ffce00 size:6144 thread:1
allocated block device:0x400663ffe600 size:6144 thread:1
allocated block device:0x400663fffe00 size:512 thread:1
allocated block device:0x400664000000 size:1821184 thread:1
allocated block device:0x4006641bca00 size:180224 thread:1
allocated block device:0x4006641e8a00 size:6144 thread:1
allocated block device:0x4006641ea200 size:2560 thread:1
allocated block device:0x4006641eac00 size:512 thread:1
allocated block device:0x4006641eae00 size:512 thread:1
allocated block device:0x4006641eb000 size:512 thread:1
allocated block device:0x4006641eb200 size:512 thread:1
allocated block device:0x4006641eb400 size:512 thread:1
allocated block device:0x4006641eb600 size:512 thread:1
allocated block device:0x4006641eb800 size:512 thread:1
allocated block device:0x4006641eba00 size:512 thread:1
allocated block device:0x4006641ebc00 size:1536 thread:1
allocated block device:0x4006641ec200 size:1536 thread:1
allocated block device:0x4006641ec800 size:512 thread:1
allocated block device:0x4006641eca00 size:2560 thread:1
allocated block device:0x4006641ed400 size:6144 thread:1
allocated block device:0x4006641eec00 size:28672 thread:1
allocated block device:0x4006641f5c00 size:40448 thread:1
allocated block device:0x4006641ffa00 size:512 thread:1
allocated block device:0x400664200000 size:1821184 thread:1
allocated block device:0x4006643bca00 size:180224 thread:1
allocated block device:0x4006643e8a00 size:8192 thread:1
allocated block device:0x4006643eaa00 size:8192 thread:1
allocated block device:0x4006643eca00 size:40448 thread:1
allocated block device:0x4006643f6800 size:8192 thread:1
allocated block device:0x4006643f8800 size:2048 thread:1
allocated block device:0x4006643fb400 size:2560 thread:1
allocated block device:0x4006643fca00 size:3072 thread:1
allocated block device:0x400664c00000 size:7284736 thread:1
allocated block device:0x400665400000 size:45593600 thread:1
allocated block device:0x40067cc00000 size:7284736 thread:1
allocated block device:0x400680000000 size:807412224 thread:1
allocated block device:0x4006e0000000 size:230400000 thread:1
allocated block device:0x4006fb85fa00 size:921600 thread:1
allocated block device:0x4006fb940a00 size:462336 thread:1
allocated block device:0x4006fb9c1400 size:98304 thread:1
allocated block device:0x4006fba00000 size:2799616 thread:1
allocated block device:0x4006fbe00000 size:7962624 thread:1
allocated block device:0x400f23400000 size:3612160 thread:1
allocated block device:0x400f23800000 size:3614720 thread:1
allocated block device:0x400f23c00000 size:3614720 thread:1
allocated block device:0x400f24000000 size:3614720 thread:1
allocated block device:0x400f24400000 size:453632 thread:1
allocated block device:0x400f2446ec00 size:453632 thread:1
allocated block device:0x400f2459d800 size:393216 thread:1
allocated block device:0x400f24600000 size:2799616 thread:1
allocated block device:0x400f24a00000 size:14400000 thread:1
allocated block device:0x400f25800000 size:28915200 thread:1
allocated block device:0x401063400000 size:230400000 thread:1
allocated block device:0x401071000000 size:230400000 thread:1
allocated block device:0x4010a3400000 size:230400000 thread:1
allocated block device:0x4010b1000000 size:230400000 thread:1
allocated block device:0x4010e3400000 size:29138944 thread:1
allocated block device:0x4010e5000000 size:29138944 thread:1
allocated block device:0x4010e6c00000 size:393216 thread:1
allocated block device:0x4010e6e00000 size:233111552 thread:1
allocated block device:0x4010f4e00000 size:3145728 thread:1
allocated block device:0x4010f5200000 size:7284736 thread:1
allocated block device:0x4010f5a00000 size:7284736 thread:1
allocated block device:0x4010f6200000 size:7284736 thread:1
Accelerator Fatal Error: call to cuMemAlloc returned error 2 (CUDA_ERROR_OUT_OF_MEMORY): Out of memory
 File: /lus/lfs1aip2/projects/u6cb/software/VASP/vasp.6.5.1/build/gam/wave.f90
 Function: newwav:1073
 Line: 1101

Out of memory allocating 921600000 bytes of device memory
Failing in Thread:1
total/free CUDA memory: 102005473280/402456576
Present table dump for device[1]: NVIDIA Tesla GPU 0, compute capability 9.0, threadid=1
Hint: specify 0x800 bit in NV_ACC_DEBUG for verbose info.
host:0x2557280 device:0x400683df6c00 size:32 presentcount:0+3 line:643 name:var%comm
host:0x25572a0 device:0x400683dbca00 size:32 presentcount:0+4 line:652 name:var%comm_kinter
host:0x25572c0 device:0x400683dbcc00 size:32 presentcount:0+6 line:655 name:var%comm_kin
host:0x25572e0 device:0x4003fe5ffa00 size:32 presentcount:0+3 line:646 name:var%comm_inter
host:0x2557300 device:0x4003fe5ffc00 size:32 presentcount:0+7 line:649 name:var%comm_inb
host:0x256be80 device:0x4003fa0ecd00 size:8 presentcount:0+1 line:-1 name:_setexm_struct_def_21
host:0x2576f40 device:0x4003fa0ece00 size:28 presentcount:0+1 line:-1 name:_ml_ff_constant_21
host:0x2577c80 device:0x4003fa0ecf00 size:30437 presentcount:0+1 line:-1 name:_ml_ff_taglist_21
host:0x25afc80 device:0x4003fa0f4600 size:8 presentcount:0+1 line:-1 name:_mopenacc_tutor_21
host:0x25c2740 device:0x4003fa0f4a00 size:32 presentcount:0+1 line:-1 name:_mbj_21
host:0x25cd640 device:0x4003fa0f4d00 size:8 presentcount:0+1 line:-1 name:_sym_prec_21
host:0x26030c0 device:0x4003fa0f4e00 size:344 presentcount:0+1 line:-1 name:_tet_21
host:0x261c840 device:0x4003fa0f5000 size:392 presentcount:0+1 line:-1 name:_mymath_21
host:0x2817368 device:0x400683dbd800 size:4800 presentcount:0+2 line:614 name:var
host:0x2818628 device:0x400683df5000 size:1984 presentcount:0+2 line:403 name:var
host:0x281a910 device:0x4005bc3ff600 size:864 presentcount:0+4 line:2639 name:hamiltonian
host:0x286ac80 device:0x400683dfe600 size:2712 presentcount:0+2 line:428 name:var
host:0x286b718 device:0x4005fc3fea00 size:2248 presentcount:0+1 line:742 name:var
host:0x286eb50 device:0x4006841ffa00 size:288 presentcount:0+1 line:195 name:latt_cur
host:0x2871658 device:0x4003fe5fc000 size:5088 presentcount:0+28 line:517 name:var
host:0x2872a38 device:0x40052c1fa600 size:5088 presentcount:0+6 line:517 name:var
host:0x2873e18 device:0x400683ff9c00 size:5088 presentcount:0+7 line:517 name:var
host:0x287a2a8 device:0x4006841eba00 size:304 presentcount:0+1 line:567 name:var
host:0x287a3d8 device:0x4006841ec800 size:304 presentcount:0+1 line:567 name:var
host:0x2e48ec0 device:0x4003fa002600 size:960024 presentcount:0+1 line:-1 name:_setexm_struct_def_16
host:0x2f8f080 device:0x4003fa0f4700 size:580 presentcount:0+1 line:-1 name:_wpbe_16
host:0x2f8f900 device:0x4003fa0f4b00 size:288 presentcount:0+1 line:-1 name:_mbj_16
host:0x9f446c0 device:0x4003fa0f5200 size:624 presentcount:0+1 line:-1 name:_mlr_optic_16
host:0x1e1c4e60 device:0x400683dbf600 size:1000 presentcount:0+4 line:519 name:var%lpctz(:)
host:0x1e1c7e70 device:0x4006841eae00 size:260 presentcount:0+1 line:499 name:var%ptri(:)
host:0x1e1c8160 device:0x40052c1ffc00 size:260 presentcount:0+1 line:499 name:var%n(:)
host:0x1f38b6d0 device:0x40052c1fd600 size:528 presentcount:0+1 line:480 name:var
host:0x235dc360 device:0x4003fe5ffe00 size:8 presentcount:0+4 line:405 name:var%nityp(:)
host:0x23a9e370 device:0x40052c1ffe00 size:260 presentcount:0+1 line:499 name:var%ptr(:)
host:0x23f59060 device:0x4006841eec00 size:28464 presentcount:0+1 line:853 name:var(:)
host:0x23f6b7c0 device:0x4006843eca00 size:40000 presentcount:0+1 line:857 name:var%psp(:,:)
host:0x23f75430 device:0x4006843f6800 size:8000 presentcount:0+1 line:857 name:var%psprho(:)
host:0x23f786c0 device:0x400683ff2000 size:24000 presentcount:0+2 line:466 name:var%psprnl(:,:,:)
host:0x23fa80a0 device:0x400683fe9c00 size:4320 presentcount:0+4 line:405 name:var%ityp(:)
host:0x23fa91b0 device:0x400683df8000 size:25920 presentcount:0+4 line:405 name:var%posion(:,:)
host:0x23fec530 device:0x4006841f5c00 size:40000 presentcount:0+1 line:857 name:var%psp(:,:)
host:0x23ff61a0 device:0x4006843e8a00 size:8000 presentcount:0+1 line:857 name:var%pspcor(:)
host:0x23ff8110 device:0x4006843eaa00 size:8000 presentcount:0+1 line:857 name:var%psprho(:)
host:0x23ffb3a0 device:0x400683fec000 size:24000 presentcount:0+2 line:466 name:var%psprnl(:,:,:)
host:0x24048360 device:0x4005fc3ff800 size:24 presentcount:0+3 line:466 name:var%lps(:)
host:0x24048410 device:0x4005fc3ffc00 size:24 presentcount:0+3 line:466 name:var%lps(:)
host:0x241b04d0 device:0x400683dff800 size:24 presentcount:0+3 line:616 name:var%vkpt(:,:)
host:0x241d5680 device:0x400683dffa00 size:8 presentcount:0+2 line:616 name:var%wtkpt(:)
host:0x241d56b0 device:0x400683dff400 size:8 presentcount:0+3 line:616 name:var%nityp(:)
host:0x241d58a0 device:0x400683dbd600 size:16 presentcount:0+2 line:430 name:var%psrmax(:)
host:0x241d5e60 device:0x400683fe8a00 size:4320 presentcount:0+3 line:616 name:var%ityp(:)
host:0x241d6f70 device:0x400683dff200 size:8 presentcount:0+3 line:616 name:var%lmmax(:)
host:0x241d6fa0 device:0x400683dff600 size:8 presentcount:0+3 line:616 name:var%nt_global(:)
host:0x241d6fd0 device:0x400683df6e00 size:4320 presentcount:0+3 line:616 name:var%npro_pos(:)
host:0x241d80e0 device:0x400683df5a00 size:4324 presentcount:0+3 line:616 name:var%lmbase(:)
host:0x241d91f0 device:0x400683dffe00 size:4 presentcount:0+2 line:616 name:var%nplwkp(:)
host:0x241d9220 device:0x400683ff1e00 size:4 presentcount:0+2 line:616 name:var%nplwkp_tot(:)
host:0x241d9250 device:0x400683ff7e00 size:4 presentcount:0+2 line:616 name:var%ngvector_pos(:)
host:0x241d9280 device:0x400683dffc00 size:4 presentcount:0+2 line:616 name:var%ngvector(:)
host:0x241d92b0 device:0x400683dbec00 size:1280 presentcount:0+4 line:519 name:var%lpctx(:)
host:0x241d97e0 device:0x400683dbf200 size:720 presentcount:0+4 line:519 name:var%lpcty(:)
host:0x241d9ae0 device:0x400683dbfa00 size:1280 presentcount:0+4 line:519 name:var%lpctx_(:)
host:0x241da010 device:0x400683dc0000 size:720 presentcount:0+4 line:519 name:var%lpcty_(:)
host:0x241da310 device:0x400683dc0400 size:1000 presentcount:0+4 line:519 name:var%lpctz_(:)
host:0x241da720 device:0x40052c1fba00 size:1280 presentcount:0+1 line:519 name:var%lpctx(:)
host:0x241dac50 device:0x40052c1fc000 size:720 presentcount:0+1 line:519 name:var%lpcty(:)
host:0x241daf50 device:0x40052c1fc400 size:1000 presentcount:0+1 line:519 name:var%lpctz(:)
host:0x241db360 device:0x40052c1fc800 size:1280 presentcount:0+1 line:519 name:var%lpctx_(:)
host:0x241db890 device:0x40052c1fce00 size:720 presentcount:0+1 line:519 name:var%lpcty_(:)
host:0x241dbb90 device:0x40052c1fd200 size:1000 presentcount:0+1 line:519 name:var%lpctz_(:)
host:0x241dbfa0 device:0x400683ff8200 size:2560 presentcount:0+1 line:519 name:var%lpctx(:)
host:0x241dc9d0 device:0x400683ffb000 size:1440 presentcount:0+1 line:519 name:var%lpcty(:)
host:0x241dcfa0 device:0x400683ff8e00 size:2000 presentcount:0+1 line:519 name:var%lpctz(:)
host:0x241dd7a0 device:0x400683ffb600 size:2560 presentcount:0+1 line:519 name:var%lpctx_(:)
host:0x241de1d0 device:0x400683ffc000 size:1440 presentcount:0+1 line:519 name:var%lpcty_(:)
host:0x241de7a0 device:0x400683ffc600 size:2000 presentcount:0+1 line:519 name:var%lpctz_(:)
host:0x242d1e00 device:0x400683ffce00 size:5648 presentcount:0+1 line:482 name:var%i2(:)
host:0x242d3440 device:0x400683ffe600 size:5648 presentcount:0+1 line:482 name:var%i3(:)
host:0x242d4a80 device:0x40052c1f4c00 size:10040 presentcount:0+1 line:482 name:var%i2(:)
host:0x242d71e0 device:0x40052c1f7400 size:10040 presentcount:0+1 line:482 name:var%i3(:)
host:0x242d9940 device:0x40052c1ed800 size:14400 presentcount:0+2 line:482 name:var%i2(:)
host:0x242dd1b0 device:0x40052c1f1200 size:14400 presentcount:0+2 line:482 name:var%i3(:)
host:0x242e0e40 device:0x40071b85fa00 size:921600 presentcount:0+2 line:482 name:var%index(:,:)
host:0x243c1e70 device:0x4006841eca00 size:2560 presentcount:0+1 line:569 name:var%ind1(:)
host:0x243c28a0 device:0x4006841ed400 size:5648 presentcount:0+1 line:569 name:var%indcol(:)
host:0x243c3ee0 device:0x40052c1fda00 size:5648 presentcount:0+1 line:482 name:var%i2(:)
host:0x243c5520 device:0x4006841e8a00 size:5648 presentcount:0+1 line:482 name:var%i3(:)
host:0x243c6b60 device:0x40052c1ff200 size:2520 presentcount:0+1 line:482 name:var%i2(:)
host:0x243c7560 device:0x4006841ea200 size:2520 presentcount:0+1 line:482 name:var%i3(:)
host:0x243c7f60 device:0x400683dc4c00 size:17132 presentcount:0+4 line:519 name:var%ind_in_sphere(:)
host:0x243cc280 device:0x4003fe5ff800 size:260 presentcount:0+1 line:499 name:var%ptr(:)
host:0x243cc3b0 device:0x4005fc3ffe00 size:260 presentcount:0+1 line:499 name:var%n(:)
host:0x243cc4e0 device:0x40052c1f9c00 size:260 presentcount:0+1 line:499 name:var%ptri(:)
host:0x243cc610 device:0x400683fffe00 size:260 presentcount:0+1 line:499 name:var%ni(:)
host:0x243cc740 device:0x40052c1fa000 size:260 presentcount:0+1 line:499 name:var%ptr(:)
host:0x243cc870 device:0x40052c1f9e00 size:260 presentcount:0+1 line:499 name:var%n(:)
host:0x243cc9a0 device:0x40052c1fa400 size:260 presentcount:0+1 line:499 name:var%ptri(:)
host:0x243ccad0 device:0x40052c1fa200 size:260 presentcount:0+1 line:499 name:var%ni(:)
host:0x243ccc80 device:0x4006841eac00 size:260 presentcount:0+1 line:499 name:var%ni(:)
host:0x243ccdb0 device:0x4006841eb200 size:260 presentcount:0+1 line:499 name:var%ptr(:)
host:0x243ccee0 device:0x4006841eb000 size:260 presentcount:0+1 line:499 name:var%n(:)
host:0x243cd010 device:0x4006841eb600 size:260 presentcount:0+1 line:499 name:var%ptri(:)
host:0x243cd140 device:0x4006841eb400 size:260 presentcount:0+1 line:499 name:var%ni(:)
host:0x24402010 device:0x4006841ebc00 size:1280 presentcount:0+1 line:569 name:var%ind1(:)
host:0x24402540 device:0x4006841ec200 size:1452 presentcount:0+1 line:569 name:var%indcol(:)
host:0x24402b20 device:0x40052c138600 size:180000 presentcount:0+4 line:482 name:var%i2(:)
host:0x2442ea70 device:0x40052c164600 size:180000 presentcount:0+4 line:482 name:var%i3(:)
host:0x2445a9c0 device:0x400683dc9000 size:180000 presentcount:0+8 line:482 name:var%index(:,:)
host:0x24486910 device:0x4006843bca00 size:180000 presentcount:0+8 line:482 name:var%i2(:)
host:0x244b2860 device:0x40052c191800 size:180000 presentcount:0+8 line:482 name:var%i3(:)
host:0x244dede0 device:0x400683e00000 size:1821184 presentcount:0+3 line:616 name:var%nindpw(:,:)
host:0x2469b810 device:0x400683df5800 size:8 presentcount:0+2 line:616 name:var%nb_totk(:,:)
host:0x2469b840 device:0x400683ff8000 size:4 presentcount:0+2 line:616 name:var%luseinv(:)
host:0x2469b870 device:0x400683dbd200 size:4 presentcount:0+2 line:616 name:var%at_gamma(:)
host:0x2469b8a0 device:0x400683fbca00 size:180000 presentcount:0+3 line:616 name:var%pl_index(:,:)
host:0x246c77f0 device:0x4006841bca00 size:180000 presentcount:0+3 line:616 name:var%pl_col(:,:)
host:0x246f3740 device:0x400683ff9a00 size:8 presentcount:0+2 line:405 name:var%lmmax(:)
host:0x246f3770 device:0x400683dbce00 size:8 presentcount:0+2 line:430 name:var%lmax(:)
host:0x246f37a0 device:0x400683feae00 size:4324 presentcount:0+2 line:405 name:var%lmbase(:)
host:0x246f48b0 device:0x400683dbd000 size:8 presentcount:0+2 line:430 name:var%lmmax(:)
host:0x246f48e0 device:0x400683dbd400 size:8 presentcount:0+2 line:430 name:var%channels(:)
host:0x246f4910 device:0x4005fc3ff400 size:16 presentcount:0+2 line:430 name:var%rsmooth(:)
host:0x246f4950 device:0x4005fc3ff600 size:400 presentcount:0+2 line:464 name:var
host:0x246f4ae0 device:0x4005fc3ffa00 size:400 presentcount:0+2 line:464 name:var
host:0x246f4ca0 device:0x4003fe5fd400 size:4320 presentcount:0+2 line:430 name:var%nlimax(:)
host:0x246f5db0 device:0x4003fe5fe600 size:4324 presentcount:0+2 line:430 name:var%lmbase(:)
host:0x246f6ec0 device:0x40052c190600 size:4324 presentcount:0+2 line:430 name:var%nlibase(:)
host:0x246f7fd0 device:0x400683dc0800 size:17132 presentcount:0+4 line:519 name:var%nindpwconjg(:)
host:0x246fd8b0 device:0x4006841eb800 size:4 presentcount:0+1 line:499 name:var%tbli(:)
host:0x24843a00 device:0x400684c00000 size:7284736 presentcount:0+3 line:616 name:var%datake(:,:,:)
host:0x24f36c80 device:0x400684000000 size:1821184 presentcount:0+3 line:616 name:var%igx(:,:)
host:0x250f4310 device:0x400683c00000 size:1821184 presentcount:0+3 line:616 name:var%igy(:,:)
host:0x252b1bb0 device:0x400684200000 size:1821184 presentcount:0+3 line:616 name:var%igz(:,:)
host:0x2546fa80 device:0x40069cc00000 size:7284272 presentcount:0+4 line:519 name:var%fftsca(:,:)
host:0x25bd2940 device:0x40071b940a00 size:464640 presentcount:0+1 line:499 name:var%tbl(:)
host:0x25cb57a0 device:0x400f44400000 size:453600 presentcount:0+1 line:499 name:var%tbli(:)
host:0x25d243b0 device:0x400f4446ec00 size:453600 presentcount:0+1 line:499 name:var%tbl(:)
host:0x25e95290 device:0x400f43400000 size:3614720 presentcount:0+1 line:499 name:var%tbl(:)
host:0x2657d680 device:0x400f43800000 size:3614400 presentcount:0+1 line:499 name:var%tbli(:)
host:0x268f1a50 device:0x400f43c00000 size:3614400 presentcount:0+1 line:499 name:var%tbl(:)
host:0x26c67f20 device:0x40071ba00000 size:2799360 presentcount:0+2 line:194 name:cdij(:,:,:,:)
host:0x26f72420 device:0x4003fe5f1e00 size:41472 presentcount:0+1 line:746 name:var%auxtot(:,:,:)
host:0x26f92420 device:0x40052c11a000 size:41472 presentcount:0+2 line:746 name:var%fertot(:,:,:)
host:0x26fa0030 device:0x40052c124200 size:82944 presentcount:0+2 line:746 name:var%celtot(:,:,:)
host:0x26fda820 device:0x400f44000000 size:3614400 presentcount:0+1 line:499 name:var%tbli(:)
host:0x2880ec70 device:0x400f44600000 size:2799360 presentcount:0+2 line:194 name:cqij(:,:,:,:)
host:0x28d6e920 device:0x40071be00000 size:7962624 presentcount:0+5 line:746 name:var%gproj(:,:,:,:)
host:0x29729e20 device:0x40052c1d5800 size:98304 presentcount:0+1 line:1101 name:w1%gproj(:)
host:0x297a8590 device:0x400f445fd800 size:2048 presentcount:0+1 line:179 name:w1(:)
host:0x297a8db0 device:0x4006843fbe00 size:2048 presentcount:0+1 line:179 name:wtmp(:)
host:0x29930410 device:0x400f4459d800 size:393216 presentcount:0+2 line:1226 name:wa%gproj(:,:)
host:0x29990440 device:0x401146c00000 size:393216 presentcount:0+2 line:1226 name:wa%gproj(:,:)
host:0x299f0470 device:0x40052c1bd800 size:98304 presentcount:0+1 line:1101 name:w1%gproj(:)
host:0x29a084a0 device:0x40071b9cc000 size:98304 presentcount:0+1 line:1101 name:w1%gproj(:)
host:0x29a204d0 device:0x40071b9e4000 size:98304 presentcount:0+1 line:1101 name:w1%gproj(:)
host:0x322efa20 device:0x401154e00000 size:3145728 presentcount:0+2 line:1226 name:wa%gproj(:,:)
host:0x3741d3d0 device:0x401155a00000 size:14569472 presentcount:0+1 line:202 name:precon(:,:)
host:0x38209ba0 device:0x400684400000 size:7284736 presentcount:0+1 line:1101 name:w1%cptwfp(:)
host:0x389041a0 device:0x400683400000 size:7284736 presentcount:0+1 line:1101 name:w1%cptwfp(:)
host:0x38ffedd0 device:0x400e8ce00000 size:7284736 presentcount:0+1 line:1101 name:w1%cptwfp(:)
host:0x396f1a20 device:0x401155200000 size:7284736 presentcount:0+1 line:1101 name:w1%cptwfp(:)
host:0x4004940010a0 device:0x400685400000 size:45593280 presentcount:0+2 line:430 name:var%nli(:,:)
host:0x400499c635c0 device:0x400f44a00000 size:14400000 presentcount:0+1 line:195 name:dencor(:)
host:0x40049b7f39e0 device:0x400f45800000 size:28917760 presentcount:0+1 line:195 name:cstrf(:,:)
host:0x4005400012b0 device:0x4006a0000000 size:807411968 presentcount:0+2 line:430 name:var%rproj(:)
host:0x4005702131a0 device:0x400700000000 size:230400000 presentcount:0+2 line:194 name:sv(:,:)
host:0x400620004a60 device:0x400660000000 size:590063616 presentcount:0+5 line:746 name:var%cptwfp(:,:,:,:)
host:0x4006432c6f80 device:0x401143400000 size:29138944 presentcount:0+2 line:1226 name:wa%cptwfp(:,:)
host:0x400644ea7190 device:0x401145000000 size:29138944 presentcount:0+2 line:1226 name:wa%cptwfp(:,:)
host:0x4006e00073a0 device:0x401146e00000 size:233111552 presentcount:0+2 line:1226 name:wa%cptwfp(:,:)
host:0x4006ede679d0 device:0x400f25600000 size:230400000 presentcount:0+1 line:1101 name:w1%cr(:)
host:0x4007432c7be0 device:0x4006d0400000 size:230400000 presentcount:0+1 line:1236 name:w1%cr(:)
host:0x400750e98000 device:0x40070dc00000 size:230400000 presentcount:0+1 line:1101 name:w1%cr(:)
host:0x4007a0008210 device:0x400688000000 size:230400000 presentcount:0+1 line:1236 name:w1%cr(:)
host:0x4007adbd0020 device:0x401103400000 size:230400000 presentcount:0+1 line:1101 name:w1%cr(:)
host:0x4007bb790230 device:0x401111000000 size:230400000 presentcount:0+1 line:1236 name:w1%cr(:)
host:0x4007c9350650 device:0x4010c3400000 size:230400000 presentcount:0+1 line:1101 name:w1%cr(:)
host:0x400ca0000860 device:0x4010d1000000 size:230400000 presentcount:0+1 line:1236 name:w1%cr(:)
host:0xffffd6d0f790 device:0x4006843fca00 size:3024 presentcount:0+12 line:682 name:var
host:0xffffd6d10360 device:0x4005bc3ffa00 size:1480 presentcount:0+1 line:174 name:w_ini
host:0xffffd6d10930 device:0x4006843fb400 size:1480 presentcount:0+1 line:174 name:wopt
host:0xffffd6d10f00 device:0x40059c3ff600 size:1480 presentcount:0+1 line:174 name:wtmpa
allocated block device:0x4003fe5f1e00 size:41472 thread:1
allocated block device:0x4003fe5fc000 size:5120 thread:1
allocated block device:0x4003fe5fd400 size:4608 thread:1
allocated block device:0x4003fe5fe600 size:4608 thread:1
allocated block device:0x4003fe5ff800 size:512 thread:1
allocated block device:0x4003fe5ffa00 size:512 thread:1
allocated block device:0x4003fe5ffc00 size:512 thread:1
allocated block device:0x4003fe5ffe00 size:512 thread:1
allocated block device:0x40052c11a000 size:41472 thread:1
allocated block device:0x40052c124200 size:82944 thread:1
allocated block device:0x40052c138600 size:180224 thread:1
allocated block device:0x40052c164600 size:180224 thread:1
allocated block device:0x40052c190600 size:4608 thread:1
allocated block device:0x40052c191800 size:180224 thread:1
allocated block device:0x40052c1bd800 size:98304 thread:1
allocated block device:0x40052c1d5800 size:98304 thread:1
allocated block device:0x40052c1ed800 size:14848 thread:1
allocated block device:0x40052c1f1200 size:14848 thread:1
allocated block device:0x40052c1f4c00 size:10240 thread:1
allocated block device:0x40052c1f7400 size:10240 thread:1
allocated block device:0x40052c1f9c00 size:512 thread:1
allocated block device:0x40052c1f9e00 size:512 thread:1
allocated block device:0x40052c1fa000 size:512 thread:1
allocated block device:0x40052c1fa200 size:512 thread:1
allocated block device:0x40052c1fa400 size:512 thread:1
allocated block device:0x40052c1fa600 size:5120 thread:1
allocated block device:0x40052c1fba00 size:1536 thread:1
allocated block device:0x40052c1fc000 size:1024 thread:1
allocated block device:0x40052c1fc400 size:1024 thread:1
allocated block device:0x40052c1fc800 size:1536 thread:1
allocated block device:0x40052c1fce00 size:1024 thread:1
allocated block device:0x40052c1fd200 size:1024 thread:1
allocated block device:0x40052c1fd600 size:1024 thread:1
allocated block device:0x40052c1fda00 size:6144 thread:1
allocated block device:0x40052c1ff200 size:2560 thread:1
allocated block device:0x40052c1ffc00 size:512 thread:1
allocated block device:0x40052c1ffe00 size:512 thread:1
allocated block device:0x40059c3ff600 size:2048 thread:1
allocated block device:0x4005bc3ff600 size:1024 thread:1
allocated block device:0x4005bc3ffa00 size:1536 thread:1
allocated block device:0x4005fc3fea00 size:2560 thread:1
allocated block device:0x4005fc3ff400 size:512 thread:1
allocated block device:0x4005fc3ff600 size:512 thread:1
allocated block device:0x4005fc3ff800 size:512 thread:1
allocated block device:0x4005fc3ffa00 size:512 thread:1
allocated block device:0x4005fc3ffc00 size:512 thread:1
allocated block device:0x4005fc3ffe00 size:512 thread:1
allocated block device:0x400660000000 size:590063616 thread:1
allocated block device:0x400683400000 size:7962624 thread:1
allocated block device:0x400683c00000 size:1821184 thread:1
allocated block device:0x400683dbca00 size:512 thread:1
allocated block device:0x400683dbcc00 size:512 thread:1
allocated block device:0x400683dbce00 size:512 thread:1
allocated block device:0x400683dbd000 size:512 thread:1
allocated block device:0x400683dbd200 size:512 thread:1
allocated block device:0x400683dbd400 size:512 thread:1
allocated block device:0x400683dbd600 size:512 thread:1
allocated block device:0x400683dbd800 size:5120 thread:1
allocated block device:0x400683dbec00 size:1536 thread:1
allocated block device:0x400683dbf200 size:1024 thread:1
allocated block device:0x400683dbf600 size:1024 thread:1
allocated block device:0x400683dbfa00 size:1536 thread:1
allocated block device:0x400683dc0000 size:1024 thread:1
allocated block device:0x400683dc0400 size:1024 thread:1
allocated block device:0x400683dc0800 size:17408 thread:1
allocated block device:0x400683dc4c00 size:17408 thread:1
allocated block device:0x400683dc9000 size:180224 thread:1
allocated block device:0x400683df5000 size:2048 thread:1
allocated block device:0x400683df5800 size:512 thread:1
allocated block device:0x400683df5a00 size:4608 thread:1
allocated block device:0x400683df6c00 size:512 thread:1
allocated block device:0x400683df6e00 size:4608 thread:1
allocated block device:0x400683df8000 size:26112 thread:1
allocated block device:0x400683dfe600 size:3072 thread:1
allocated block device:0x400683dff200 size:512 thread:1
allocated block device:0x400683dff400 size:512 thread:1
allocated block device:0x400683dff600 size:512 thread:1
allocated block device:0x400683dff800 size:512 thread:1
allocated block device:0x400683dffa00 size:512 thread:1
allocated block device:0x400683dffc00 size:512 thread:1
allocated block device:0x400683dffe00 size:512 thread:1
allocated block device:0x400683e00000 size:1821184 thread:1
allocated block device:0x400683fbca00 size:180224 thread:1
allocated block device:0x400683fe8a00 size:4608 thread:1
allocated block device:0x400683fe9c00 size:4608 thread:1
allocated block device:0x400683feae00 size:4608 thread:1
allocated block device:0x400683fec000 size:24064 thread:1
allocated block device:0x400683ff1e00 size:512 thread:1
allocated block device:0x400683ff2000 size:24064 thread:1
allocated block device:0x400683ff7e00 size:512 thread:1
allocated block device:0x400683ff8000 size:512 thread:1
allocated block device:0x400683ff8200 size:3072 thread:1
allocated block device:0x400683ff8e00 size:3072 thread:1
allocated block device:0x400683ff9a00 size:512 thread:1
allocated block device:0x400683ff9c00 size:5120 thread:1
allocated block device:0x400683ffb000 size:1536 thread:1
allocated block device:0x400683ffb600 size:2560 thread:1
allocated block device:0x400683ffc000 size:1536 thread:1
allocated block device:0x400683ffc600 size:2048 thread:1
allocated block device:0x400683ffce00 size:6144 thread:1
allocated block device:0x400683ffe600 size:6144 thread:1
allocated block device:0x400683fffe00 size:512 thread:1
allocated block device:0x400684000000 size:1821184 thread:1
allocated block device:0x4006841bca00 size:180224 thread:1
allocated block device:0x4006841e8a00 size:6144 thread:1
allocated block device:0x4006841ea200 size:2560 thread:1
allocated block device:0x4006841eac00 size:512 thread:1
allocated block device:0x4006841eae00 size:512 thread:1
allocated block device:0x4006841eb000 size:512 thread:1
allocated block device:0x4006841eb200 size:512 thread:1
allocated block device:0x4006841eb400 size:512 thread:1
allocated block device:0x4006841eb600 size:512 thread:1
allocated block device:0x4006841eb800 size:512 thread:1
allocated block device:0x4006841eba00 size:512 thread:1
allocated block device:0x4006841ebc00 size:1536 thread:1
allocated block device:0x4006841ec200 size:1536 thread:1
allocated block device:0x4006841ec800 size:512 thread:1
allocated block device:0x4006841eca00 size:2560 thread:1
allocated block device:0x4006841ed400 size:6144 thread:1
allocated block device:0x4006841eec00 size:28672 thread:1
allocated block device:0x4006841f5c00 size:40448 thread:1
allocated block device:0x4006841ffa00 size:512 thread:1
allocated block device:0x400684200000 size:1821184 thread:1
allocated block device:0x4006843bca00 size:180224 thread:1
allocated block device:0x4006843e8a00 size:8192 thread:1
allocated block device:0x4006843eaa00 size:8192 thread:1
allocated block device:0x4006843eca00 size:40448 thread:1
allocated block device:0x4006843f6800 size:8192 thread:1
allocated block device:0x4006843fb400 size:2560 thread:1
allocated block device:0x4006843fbe00 size:3072 thread:1
allocated block device:0x4006843fca00 size:3072 thread:1
allocated block device:0x400684400000 size:7284736 thread:1
allocated block device:0x400684c00000 size:7284736 thread:1
allocated block device:0x400685400000 size:45593600 thread:1
allocated block device:0x400688000000 size:230400000 thread:1
allocated block device:0x40069cc00000 size:7284736 thread:1
allocated block device:0x4006a0000000 size:807412224 thread:1
allocated block device:0x4006d0400000 size:230400000 thread:1
allocated block device:0x400700000000 size:230400000 thread:1
allocated block device:0x40070dc00000 size:230400000 thread:1
allocated block device:0x40071b85fa00 size:921600 thread:1
allocated block device:0x40071b940a00 size:464896 thread:1
allocated block device:0x40071b9cc000 size:98304 thread:1
allocated block device:0x40071b9e4000 size:98304 thread:1
allocated block device:0x40071ba00000 size:2799616 thread:1
allocated block device:0x40071be00000 size:7962624 thread:1
allocated block device:0x400e8ce00000 size:14400000 thread:1
allocated block device:0x400f25600000 size:230400000 thread:1
allocated block device:0x400f43400000 size:3614720 thread:1
allocated block device:0x400f43800000 size:3614720 thread:1
allocated block device:0x400f43c00000 size:3614720 thread:1
allocated block device:0x400f44000000 size:3614720 thread:1
allocated block device:0x400f44400000 size:453632 thread:1
allocated block device:0x400f4446ec00 size:453632 thread:1
allocated block device:0x400f4459d800 size:393216 thread:1
allocated block device:0x400f445fd800 size:2048 thread:1
allocated block device:0x400f44600000 size:2799616 thread:1
allocated block device:0x400f44a00000 size:14400000 thread:1
allocated block device:0x400f45800000 size:28917760 thread:1
allocated block device:0x4010c3400000 size:230400000 thread:1
allocated block device:0x4010d1000000 size:230400000 thread:1
allocated block device:0x401103400000 size:230400000 thread:1
allocated block device:0x401111000000 size:230400000 thread:1
allocated block device:0x401143400000 size:29138944 thread:1
allocated block device:0x401145000000 size:29138944 thread:1
allocated block device:0x401146c00000 size:393216 thread:1
allocated block device:0x401146e00000 size:233111552 thread:1
allocated block device:0x401154e00000 size:3145728 thread:1
allocated block device:0x401155200000 size:7284736 thread:1
allocated block device:0x401155a00000 size:14569472 thread:1
Accelerator Fatal Error: call to cuMemAlloc returned error 2 (CUDA_ERROR_OUT_OF_MEMORY): Out of memory
 File: /lus/lfs1aip2/projects/u6cb/software/VASP/vasp.6.5.1/build/gam/hamil.f90
 Function: hamiltmu:978
 Line: 1005

Out of memory allocating 921600000 bytes of device memory
Failing in Thread:1
total/free CUDA memory: 102005473280/504299520
Present table dump for device[1]: NVIDIA Tesla GPU 0, compute capability 9.0, threadid=1
Hint: specify 0x800 bit in NV_ACC_DEBUG for verbose info.
host:0x2557280 device:0x400763df6c00 size:32 presentcount:0+3 line:643 name:var%comm
host:0x25572a0 device:0x400763dbca00 size:32 presentcount:0+4 line:652 name:var%comm_kinter
host:0x25572c0 device:0x400763dbcc00 size:32 presentcount:0+6 line:655 name:var%comm_kin
host:0x25572e0 device:0x4004de5ffa00 size:32 presentcount:0+3 line:646 name:var%comm_inter
host:0x2557300 device:0x4004de5ffc00 size:32 presentcount:0+7 line:649 name:var%comm_inb
host:0x256be80 device:0x4004da0ecd00 size:8 presentcount:0+1 line:-1 name:_setexm_struct_def_21
host:0x2576f40 device:0x4004da0ece00 size:28 presentcount:0+1 line:-1 name:_ml_ff_constant_21
host:0x2577c80 device:0x4004da0ecf00 size:30437 presentcount:0+1 line:-1 name:_ml_ff_taglist_21
host:0x25afc80 device:0x4004da0f4600 size:8 presentcount:0+1 line:-1 name:_mopenacc_tutor_21
host:0x25c2740 device:0x4004da0f4a00 size:32 presentcount:0+1 line:-1 name:_mbj_21
host:0x25cd640 device:0x4004da0f4d00 size:8 presentcount:0+1 line:-1 name:_sym_prec_21
host:0x26030c0 device:0x4004da0f4e00 size:344 presentcount:0+1 line:-1 name:_tet_21
host:0x261c840 device:0x4004da0f5000 size:392 presentcount:0+1 line:-1 name:_mymath_21
host:0x2817368 device:0x400763dbd800 size:4800 presentcount:0+2 line:614 name:var
host:0x2818628 device:0x400763df5000 size:1984 presentcount:0+2 line:403 name:var
host:0x281a910 device:0x40069c3ff600 size:864 presentcount:0+4 line:2639 name:hamiltonian
host:0x286ac80 device:0x400763dfe600 size:2712 presentcount:0+2 line:428 name:var
host:0x286b718 device:0x4006dc3fea00 size:2248 presentcount:0+1 line:742 name:var
host:0x286eb50 device:0x4007641ffa00 size:288 presentcount:0+1 line:195 name:latt_cur
host:0x2871658 device:0x4004de5fc000 size:5088 presentcount:0+28 line:517 name:var
host:0x2872a38 device:0x40060e1fa600 size:5088 presentcount:0+6 line:517 name:var
host:0x2873e18 device:0x400763ff9c00 size:5088 presentcount:0+7 line:517 name:var
host:0x287a2a8 device:0x4007641eba00 size:304 presentcount:0+1 line:567 name:var
host:0x287a3d8 device:0x4007641ec800 size:304 presentcount:0+1 line:567 name:var
host:0x2e48ec0 device:0x4004da002600 size:960024 presentcount:0+1 line:-1 name:_setexm_struct_def_16
host:0x2f8f080 device:0x4004da0f4700 size:580 presentcount:0+1 line:-1 name:_wpbe_16
host:0x2f8f900 device:0x4004da0f4b00 size:288 presentcount:0+1 line:-1 name:_mbj_16
host:0x9f446c0 device:0x4004da0f5200 size:624 presentcount:0+1 line:-1 name:_mlr_optic_16
host:0x49074e60 device:0x400763dbf600 size:1000 presentcount:0+4 line:519 name:var%lpctz(:)
host:0x49077e70 device:0x4007641eae00 size:260 presentcount:0+1 line:499 name:var%ptri(:)
host:0x49078160 device:0x40060e1ffc00 size:260 presentcount:0+1 line:499 name:var%n(:)
host:0x4a23b270 device:0x40060e1fd600 size:528 presentcount:0+1 line:480 name:var
host:0x4e48c090 device:0x4004de5ffe00 size:8 presentcount:0+4 line:405 name:var%nityp(:)
host:0x4e94e0a0 device:0x40060e1ffe00 size:260 presentcount:0+1 line:499 name:var%ptr(:)
host:0x4ee08d90 device:0x4007641eec00 size:28464 presentcount:0+1 line:853 name:var(:)
host:0x4ee225b0 device:0x4007643eca00 size:40000 presentcount:0+1 line:857 name:var%psp(:,:)
host:0x4ee2c220 device:0x4007643f6800 size:8000 presentcount:0+1 line:857 name:var%psprho(:)
host:0x4ee2f600 device:0x400763ff2000 size:24000 presentcount:0+2 line:466 name:var%psprnl(:,:,:)
host:0x4ee5f130 device:0x400763fe9c00 size:4320 presentcount:0+4 line:405 name:var%ityp(:)
host:0x4ee60240 device:0x400763df8000 size:25920 presentcount:0+4 line:405 name:var%posion(:,:)
host:0x4eea3350 device:0x400763dff400 size:8 presentcount:0+3 line:616 name:var%nityp(:)
host:0x4eea33f0 device:0x400763dffa00 size:8 presentcount:0+2 line:616 name:var%wtkpt(:)
host:0x4eea3af0 device:0x4007641f5c00 size:40000 presentcount:0+1 line:857 name:var%psp(:,:)
host:0x4eead760 device:0x4007643e8a00 size:8000 presentcount:0+1 line:857 name:var%pspcor(:)
host:0x4eeaf6d0 device:0x4007643eaa00 size:8000 presentcount:0+1 line:857 name:var%psprho(:)
host:0x4eeb2960 device:0x400763fec000 size:24000 presentcount:0+2 line:466 name:var%psprnl(:,:,:)
host:0x4eef7ee0 device:0x4006dc3ff800 size:24 presentcount:0+3 line:466 name:var%lps(:)
host:0x4eef7f90 device:0x4006dc3ffc00 size:24 presentcount:0+3 line:466 name:var%lps(:)
host:0x4ef4e8c0 device:0x400763dff800 size:24 presentcount:0+3 line:616 name:var%vkpt(:,:)
host:0x4ef73ac0 device:0x400763dbd600 size:16 presentcount:0+2 line:430 name:var%psrmax(:)
host:0x4ef74080 device:0x400763fe8a00 size:4320 presentcount:0+3 line:616 name:var%ityp(:)
host:0x4ef75190 device:0x400763dff200 size:8 presentcount:0+3 line:616 name:var%lmmax(:)
host:0x4ef751c0 device:0x400763dff600 size:8 presentcount:0+3 line:616 name:var%nt_global(:)
host:0x4ef751f0 device:0x400763df6e00 size:4320 presentcount:0+3 line:616 name:var%npro_pos(:)
host:0x4ef76300 device:0x400763df5a00 size:4324 presentcount:0+3 line:616 name:var%lmbase(:)
host:0x4ef77410 device:0x400763dffe00 size:4 presentcount:0+2 line:616 name:var%nplwkp(:)
host:0x4ef77440 device:0x400763ff1e00 size:4 presentcount:0+2 line:616 name:var%nplwkp_tot(:)
host:0x4ef77470 device:0x400763ff7e00 size:4 presentcount:0+2 line:616 name:var%ngvector_pos(:)
host:0x4ef774a0 device:0x400763dffc00 size:4 presentcount:0+2 line:616 name:var%ngvector(:)
host:0x4ef774d0 device:0x400763dbec00 size:1280 presentcount:0+4 line:519 name:var%lpctx(:)
host:0x4ef77a00 device:0x400763dbf200 size:720 presentcount:0+4 line:519 name:var%lpcty(:)
host:0x4ef77d00 device:0x400763dbfa00 size:1280 presentcount:0+4 line:519 name:var%lpctx_(:)
host:0x4ef78230 device:0x400763dc0000 size:720 presentcount:0+4 line:519 name:var%lpcty_(:)
host:0x4ef78530 device:0x400763dc0400 size:1000 presentcount:0+4 line:519 name:var%lpctz_(:)
host:0x4ef78940 device:0x40060e1fba00 size:1280 presentcount:0+1 line:519 name:var%lpctx(:)
host:0x4ef78e70 device:0x40060e1fc000 size:720 presentcount:0+1 line:519 name:var%lpcty(:)
host:0x4ef79170 device:0x40060e1fc400 size:1000 presentcount:0+1 line:519 name:var%lpctz(:)
host:0x4ef79580 device:0x40060e1fc800 size:1280 presentcount:0+1 line:519 name:var%lpctx_(:)
host:0x4ef79ab0 device:0x40060e1fce00 size:720 presentcount:0+1 line:519 name:var%lpcty_(:)
host:0x4ef79db0 device:0x40060e1fd200 size:1000 presentcount:0+1 line:519 name:var%lpctz_(:)
host:0x4ef7a1c0 device:0x400763ff8200 size:2560 presentcount:0+1 line:519 name:var%lpctx(:)
host:0x4ef7abf0 device:0x400763ffb000 size:1440 presentcount:0+1 line:519 name:var%lpcty(:)
host:0x4ef7b1c0 device:0x400763ff8e00 size:2000 presentcount:0+1 line:519 name:var%lpctz(:)
host:0x4ef7b9c0 device:0x400763ffb600 size:2560 presentcount:0+1 line:519 name:var%lpctx_(:)
host:0x4ef7c3f0 device:0x400763ffc000 size:1440 presentcount:0+1 line:519 name:var%lpcty_(:)
host:0x4ef7c9c0 device:0x400763ffc600 size:2000 presentcount:0+1 line:519 name:var%lpctz_(:)
host:0x4f070020 device:0x400763ffce00 size:5648 presentcount:0+1 line:482 name:var%i2(:)
host:0x4f071660 device:0x400763ffe600 size:5648 presentcount:0+1 line:482 name:var%i3(:)
host:0x4f072ca0 device:0x40060e1f4c00 size:10040 presentcount:0+1 line:482 name:var%i2(:)
host:0x4f075400 device:0x40060e1f7400 size:10040 presentcount:0+1 line:482 name:var%i3(:)
host:0x4f077b60 device:0x40060e1ed800 size:14400 presentcount:0+2 line:482 name:var%i2(:)
host:0x4f07b3d0 device:0x40060e1f1200 size:14400 presentcount:0+2 line:482 name:var%i3(:)
host:0x4f07f060 device:0x4007fb85fa00 size:921600 presentcount:0+2 line:482 name:var%index(:,:)
host:0x4f160090 device:0x4007641eca00 size:2560 presentcount:0+1 line:569 name:var%ind1(:)
host:0x4f160ac0 device:0x4007641ed400 size:5648 presentcount:0+1 line:569 name:var%indcol(:)
host:0x4f162100 device:0x40060e1fda00 size:5648 presentcount:0+1 line:482 name:var%i2(:)
host:0x4f163740 device:0x4007641e8a00 size:5648 presentcount:0+1 line:482 name:var%i3(:)
host:0x4f164d80 device:0x40060e1ff200 size:2520 presentcount:0+1 line:482 name:var%i2(:)
host:0x4f165780 device:0x4007641ea200 size:2520 presentcount:0+1 line:482 name:var%i3(:)
host:0x4f166180 device:0x4004de5fd400 size:4320 presentcount:0+2 line:430 name:var%nlimax(:)
host:0x4f167290 device:0x4004de5fe600 size:4324 presentcount:0+2 line:430 name:var%lmbase(:)
host:0x4f1683a0 device:0x40060e190600 size:4324 presentcount:0+2 line:430 name:var%nlibase(:)
host:0x4f1694b0 device:0x400763dc0800 size:17132 presentcount:0+4 line:519 name:var%nindpwconjg(:)
host:0x4f16d7d0 device:0x400763dc4c00 size:17132 presentcount:0+4 line:519 name:var%ind_in_sphere(:)
host:0x4f173130 device:0x4006dc3ffe00 size:260 presentcount:0+1 line:499 name:var%n(:)
host:0x4f173260 device:0x40060e1f9c00 size:260 presentcount:0+1 line:499 name:var%ptri(:)
host:0x4f173390 device:0x400763fffe00 size:260 presentcount:0+1 line:499 name:var%ni(:)
host:0x4f1734c0 device:0x40060e1fa000 size:260 presentcount:0+1 line:499 name:var%ptr(:)
host:0x4f1735f0 device:0x40060e1f9e00 size:260 presentcount:0+1 line:499 name:var%n(:)
host:0x4f173720 device:0x40060e1fa400 size:260 presentcount:0+1 line:499 name:var%ptri(:)
host:0x4f173850 device:0x40060e1fa200 size:260 presentcount:0+1 line:499 name:var%ni(:)
host:0x4f173ab0 device:0x4007641eac00 size:260 presentcount:0+1 line:499 name:var%ni(:)
host:0x4f173be0 device:0x4007641eb200 size:260 presentcount:0+1 line:499 name:var%ptr(:)
host:0x4f173d10 device:0x4007641eb000 size:260 presentcount:0+1 line:499 name:var%n(:)
host:0x4f173e40 device:0x4007641eb800 size:4 presentcount:0+1 line:499 name:var%tbli(:)
host:0x4f173e70 device:0x4007641eb600 size:260 presentcount:0+1 line:499 name:var%ptri(:)
host:0x4f173fa0 device:0x4007641eb400 size:260 presentcount:0+1 line:499 name:var%ni(:)
host:0x4f1848e0 device:0x4004de5ff800 size:260 presentcount:0+1 line:499 name:var%ptr(:)
host:0x4f1a0230 device:0x4007641ebc00 size:1280 presentcount:0+1 line:569 name:var%ind1(:)
host:0x4f1a0760 device:0x4007641ec200 size:1452 presentcount:0+1 line:569 name:var%indcol(:)
host:0x4f1a0d40 device:0x40060e138600 size:180000 presentcount:0+4 line:482 name:var%i2(:)
host:0x4f1ccc90 device:0x40060e164600 size:180000 presentcount:0+4 line:482 name:var%i3(:)
host:0x4f1f8be0 device:0x400763dc9000 size:180000 presentcount:0+8 line:482 name:var%index(:,:)
host:0x4f224b30 device:0x4007643bca00 size:180000 presentcount:0+8 line:482 name:var%i2(:)
host:0x4f250a80 device:0x40060e191800 size:180000 presentcount:0+8 line:482 name:var%i3(:)
host:0x4f27d000 device:0x400763e00000 size:1821184 presentcount:0+3 line:616 name:var%nindpw(:,:)
host:0x4f439a30 device:0x400763df5800 size:8 presentcount:0+2 line:616 name:var%nb_totk(:,:)
host:0x4f439a60 device:0x400763ff8000 size:4 presentcount:0+2 line:616 name:var%luseinv(:)
host:0x4f439a90 device:0x400763dbd200 size:4 presentcount:0+2 line:616 name:var%at_gamma(:)
host:0x4f439ac0 device:0x400763fbca00 size:180000 presentcount:0+3 line:616 name:var%pl_index(:,:)
host:0x4f465a10 device:0x4007641bca00 size:180000 presentcount:0+3 line:616 name:var%pl_col(:,:)
host:0x4f491960 device:0x400763ff9a00 size:8 presentcount:0+2 line:405 name:var%lmmax(:)
host:0x4f491990 device:0x400763dbce00 size:8 presentcount:0+2 line:430 name:var%lmax(:)
host:0x4f4919c0 device:0x400763feae00 size:4324 presentcount:0+2 line:405 name:var%lmbase(:)
host:0x4f492ad0 device:0x400763dbd000 size:8 presentcount:0+2 line:430 name:var%lmmax(:)
host:0x4f492b00 device:0x400763dbd400 size:8 presentcount:0+2 line:430 name:var%channels(:)
host:0x4f492b30 device:0x4006dc3ff400 size:16 presentcount:0+2 line:430 name:var%rsmooth(:)
host:0x4f492b70 device:0x4006dc3ff600 size:400 presentcount:0+2 line:464 name:var
host:0x4f492d00 device:0x4006dc3ffa00 size:400 presentcount:0+2 line:464 name:var
host:0x4f503720 device:0x4007fb940a00 size:464640 presentcount:0+1 line:499 name:var%tbl(:)
host:0x4f6f3730 device:0x400764c00000 size:7284736 presentcount:0+3 line:616 name:var%datake(:,:,:)
host:0x4fde69b0 device:0x400764000000 size:1821184 presentcount:0+3 line:616 name:var%igx(:,:)
host:0x4ffa4040 device:0x400763c00000 size:1821184 presentcount:0+3 line:616 name:var%igy(:,:)
host:0x501618e0 device:0x400764200000 size:1821184 presentcount:0+3 line:616 name:var%igz(:,:)
host:0x5031f7b0 device:0x40077cc00000 size:7284272 presentcount:0+4 line:519 name:var%fftsca(:,:)
host:0x50a83540 device:0x401024400000 size:453600 presentcount:0+1 line:499 name:var%tbli(:)
host:0x50af2150 device:0x40102446ec00 size:453600 presentcount:0+1 line:499 name:var%tbl(:)
host:0x50c63030 device:0x401023400000 size:3614720 presentcount:0+1 line:499 name:var%tbl(:)
host:0x5134b420 device:0x401023800000 size:3614400 presentcount:0+1 line:499 name:var%tbli(:)
host:0x516bf7f0 device:0x401023c00000 size:3614400 presentcount:0+1 line:499 name:var%tbl(:)
host:0x51c12420 device:0x4004de5f1e00 size:41472 presentcount:0+1 line:746 name:var%auxtot(:,:,:)
host:0x51c32420 device:0x40060e11a000 size:41472 presentcount:0+2 line:746 name:var%fertot(:,:,:)
host:0x51c40030 device:0x40060e124200 size:82944 presentcount:0+2 line:746 name:var%celtot(:,:,:)
host:0x51da85c0 device:0x401024000000 size:3614400 presentcount:0+1 line:499 name:var%tbli(:)
host:0x52ef2170 device:0x4007fba00000 size:2799360 presentcount:0+2 line:194 name:cdij(:,:,:,:)
host:0x535dca10 device:0x401024600000 size:2799360 presentcount:0+2 line:194 name:cqij(:,:,:,:)
host:0x53b3c6c0 device:0x4007fbe00000 size:7962624 presentcount:0+5 line:746 name:var%gproj(:,:,:,:)
host:0x544f8090 device:0x40060e1d5800 size:98304 presentcount:0+1 line:1101 name:w1%gproj(:)
host:0x54576800 device:0x4010245fd800 size:2048 presentcount:0+1 line:179 name:w1(:)
host:0x54577020 device:0x4007643fbe00 size:2048 presentcount:0+1 line:179 name:wtmp(:)
host:0x546fe680 device:0x40102459d800 size:393216 presentcount:0+2 line:1226 name:wa%gproj(:,:)
host:0x5475e6b0 device:0x401226c00000 size:393216 presentcount:0+2 line:1226 name:wa%gproj(:,:)
host:0x547be6e0 device:0x40060e1bd800 size:98304 presentcount:0+1 line:1101 name:w1%gproj(:)
host:0x547d6710 device:0x4007fb9cc000 size:98304 presentcount:0+1 line:1101 name:w1%gproj(:)
host:0x547ee740 device:0x4007fb9e4000 size:98304 presentcount:0+1 line:1101 name:w1%gproj(:)
host:0x5d08e820 device:0x401234e00000 size:3145728 presentcount:0+2 line:1226 name:wa%gproj(:,:)
host:0x621bc7e0 device:0x401235a00000 size:14569472 presentcount:0+1 line:202 name:precon(:,:)
host:0x62fa8fb0 device:0x400764400000 size:7284736 presentcount:0+1 line:1101 name:w1%cptwfp(:)
host:0x636a35b0 device:0x400763400000 size:7284736 presentcount:0+1 line:1101 name:w1%cptwfp(:)
host:0x63d9e1e0 device:0x400f6ce00000 size:7284736 presentcount:0+1 line:1101 name:w1%cptwfp(:)
host:0x64490e30 device:0x401235200000 size:7284736 presentcount:0+1 line:1101 name:w1%cptwfp(:)
host:0x4005140010a0 device:0x400765400000 size:45593280 presentcount:0+2 line:430 name:var%nli(:,:)
host:0x40057b0e35c0 device:0x401024a00000 size:14400000 presentcount:0+1 line:195 name:dencor(:)
host:0x40057cc739e0 device:0x401025800000 size:28917760 presentcount:0+1 line:195 name:cstrf(:,:)
host:0x4006200012b0 device:0x400780000000 size:807411968 presentcount:0+2 line:430 name:var%rproj(:)
host:0x4006502131a0 device:0x4007e0000000 size:230400000 presentcount:0+2 line:194 name:sv(:,:)
host:0x400700004a60 device:0x400740000000 size:590063616 presentcount:0+5 line:746 name:var%cptwfp(:,:,:,:)
host:0x400724e66f80 device:0x401223400000 size:29138944 presentcount:0+2 line:1226 name:wa%cptwfp(:,:)
host:0x400726a47190 device:0x401225000000 size:29138944 presentcount:0+2 line:1226 name:wa%cptwfp(:,:)
host:0x4007c00079d0 device:0x401005600000 size:230400000 presentcount:0+1 line:1101 name:w1%cr(:)
host:0x4007cf7573a0 device:0x401226e00000 size:233111552 presentcount:0+2 line:1226 name:wa%cptwfp(:,:)
host:0x4008232c7be0 device:0x4007b0400000 size:230400000 presentcount:0+1 line:1236 name:w1%cr(:)
host:0x400830e98000 device:0x4007edc00000 size:230400000 presentcount:0+1 line:1101 name:w1%cr(:)
host:0x400880008210 device:0x400768000000 size:230400000 presentcount:0+1 line:1236 name:w1%cr(:)
host:0x40088dbd0020 device:0x4011e3400000 size:230400000 presentcount:0+1 line:1101 name:w1%cr(:)
host:0x40089b790230 device:0x4011f1000000 size:230400000 presentcount:0+1 line:1236 name:w1%cr(:)
host:0x4008a9350650 device:0x4011a3400000 size:230400000 presentcount:0+1 line:1101 name:w1%cr(:)
host:0x400d80000860 device:0x4011b1000000 size:230400000 presentcount:0+1 line:1236 name:w1%cr(:)
host:0xfffff26bfe50 device:0x4007643fca00 size:3024 presentcount:0+12 line:682 name:var
host:0xfffff26c0a20 device:0x40069c3ffa00 size:1480 presentcount:0+1 line:174 name:w_ini
host:0xfffff26c0ff0 device:0x4007643fb400 size:1480 presentcount:0+1 line:174 name:wopt
host:0xfffff26c15c0 device:0x40067c3ff600 size:1480 presentcount:0+1 line:174 name:wtmpa
allocated block device:0x4004de5f1e00 size:41472 thread:1
allocated block device:0x4004de5fc000 size:5120 thread:1
allocated block device:0x4004de5fd400 size:4608 thread:1
allocated block device:0x4004de5fe600 size:4608 thread:1
allocated block device:0x4004de5ff800 size:512 thread:1
allocated block device:0x4004de5ffa00 size:512 thread:1
allocated block device:0x4004de5ffc00 size:512 thread:1
allocated block device:0x4004de5ffe00 size:512 thread:1
allocated block device:0x40060e11a000 size:41472 thread:1
allocated block device:0x40060e124200 size:82944 thread:1
allocated block device:0x40060e138600 size:180224 thread:1
allocated block device:0x40060e164600 size:180224 thread:1
allocated block device:0x40060e190600 size:4608 thread:1
allocated block device:0x40060e191800 size:180224 thread:1
allocated block device:0x40060e1bd800 size:98304 thread:1
allocated block device:0x40060e1d5800 size:98304 thread:1
allocated block device:0x40060e1ed800 size:14848 thread:1
allocated block device:0x40060e1f1200 size:14848 thread:1
allocated block device:0x40060e1f4c00 size:10240 thread:1
allocated block device:0x40060e1f7400 size:10240 thread:1
allocated block device:0x40060e1f9c00 size:512 thread:1
allocated block device:0x40060e1f9e00 size:512 thread:1
allocated block device:0x40060e1fa000 size:512 thread:1
allocated block device:0x40060e1fa200 size:512 thread:1
allocated block device:0x40060e1fa400 size:512 thread:1
allocated block device:0x40060e1fa600 size:5120 thread:1
allocated block device:0x40060e1fba00 size:1536 thread:1
allocated block device:0x40060e1fc000 size:1024 thread:1
allocated block device:0x40060e1fc400 size:1024 thread:1
allocated block device:0x40060e1fc800 size:1536 thread:1
allocated block device:0x40060e1fce00 size:1024 thread:1
allocated block device:0x40060e1fd200 size:1024 thread:1
allocated block device:0x40060e1fd600 size:1024 thread:1
allocated block device:0x40060e1fda00 size:6144 thread:1
allocated block device:0x40060e1ff200 size:2560 thread:1
allocated block device:0x40060e1ffc00 size:512 thread:1
allocated block device:0x40060e1ffe00 size:512 thread:1
allocated block device:0x40067c3ff600 size:2048 thread:1
allocated block device:0x40069c3ff600 size:1024 thread:1
allocated block device:0x40069c3ffa00 size:1536 thread:1
allocated block device:0x4006dc3fea00 size:2560 thread:1
allocated block device:0x4006dc3ff400 size:512 thread:1
allocated block device:0x4006dc3ff600 size:512 thread:1
allocated block device:0x4006dc3ff800 size:512 thread:1
allocated block device:0x4006dc3ffa00 size:512 thread:1
allocated block device:0x4006dc3ffc00 size:512 thread:1
allocated block device:0x4006dc3ffe00 size:512 thread:1
allocated block device:0x400740000000 size:590063616 thread:1
allocated block device:0x400763400000 size:7962624 thread:1
allocated block device:0x400763c00000 size:1821184 thread:1
allocated block device:0x400763dbca00 size:512 thread:1
allocated block device:0x400763dbcc00 size:512 thread:1
allocated block device:0x400763dbce00 size:512 thread:1
allocated block device:0x400763dbd000 size:512 thread:1
allocated block device:0x400763dbd200 size:512 thread:1
allocated block device:0x400763dbd400 size:512 thread:1
allocated block device:0x400763dbd600 size:512 thread:1
allocated block device:0x400763dbd800 size:5120 thread:1
allocated block device:0x400763dbec00 size:1536 thread:1
allocated block device:0x400763dbf200 size:1024 thread:1
allocated block device:0x400763dbf600 size:1024 thread:1
allocated block device:0x400763dbfa00 size:1536 thread:1
allocated block device:0x400763dc0000 size:1024 thread:1
allocated block device:0x400763dc0400 size:1024 thread:1
allocated block device:0x400763dc0800 size:17408 thread:1
allocated block device:0x400763dc4c00 size:17408 thread:1
allocated block device:0x400763dc9000 size:180224 thread:1
allocated block device:0x400763df5000 size:2048 thread:1
allocated block device:0x400763df5800 size:512 thread:1
allocated block device:0x400763df5a00 size:4608 thread:1
allocated block device:0x400763df6c00 size:512 thread:1
allocated block device:0x400763df6e00 size:4608 thread:1
allocated block device:0x400763df8000 size:26112 thread:1
allocated block device:0x400763dfe600 size:3072 thread:1
allocated block device:0x400763dff200 size:512 thread:1
allocated block device:0x400763dff400 size:512 thread:1
allocated block device:0x400763dff600 size:512 thread:1
allocated block device:0x400763dff800 size:512 thread:1
allocated block device:0x400763dffa00 size:512 thread:1
allocated block device:0x400763dffc00 size:512 thread:1
allocated block device:0x400763dffe00 size:512 thread:1
allocated block device:0x400763e00000 size:1821184 thread:1
allocated block device:0x400763fbca00 size:180224 thread:1
allocated block device:0x400763fe8a00 size:4608 thread:1
allocated block device:0x400763fe9c00 size:4608 thread:1
allocated block device:0x400763feae00 size:4608 thread:1
allocated block device:0x400763fec000 size:24064 thread:1
allocated block device:0x400763ff1e00 size:512 thread:1
allocated block device:0x400763ff2000 size:24064 thread:1
allocated block device:0x400763ff7e00 size:512 thread:1
allocated block device:0x400763ff8000 size:512 thread:1
allocated block device:0x400763ff8200 size:3072 thread:1
allocated block device:0x400763ff8e00 size:3072 thread:1
allocated block device:0x400763ff9a00 size:512 thread:1
allocated block device:0x400763ff9c00 size:5120 thread:1
allocated block device:0x400763ffb000 size:1536 thread:1
allocated block device:0x400763ffb600 size:2560 thread:1
allocated block device:0x400763ffc000 size:1536 thread:1
allocated block device:0x400763ffc600 size:2048 thread:1
allocated block device:0x400763ffce00 size:6144 thread:1
allocated block device:0x400763ffe600 size:6144 thread:1
allocated block device:0x400763fffe00 size:512 thread:1
allocated block device:0x400764000000 size:1821184 thread:1
allocated block device:0x4007641bca00 size:180224 thread:1
allocated block device:0x4007641e8a00 size:6144 thread:1
allocated block device:0x4007641ea200 size:2560 thread:1
allocated block device:0x4007641eac00 size:512 thread:1
allocated block device:0x4007641eae00 size:512 thread:1
allocated block device:0x4007641eb000 size:512 thread:1
allocated block device:0x4007641eb200 size:512 thread:1
allocated block device:0x4007641eb400 size:512 thread:1
allocated block device:0x4007641eb600 size:512 thread:1
allocated block device:0x4007641eb800 size:512 thread:1
allocated block device:0x4007641eba00 size:512 thread:1
allocated block device:0x4007641ebc00 size:1536 thread:1
allocated block device:0x4007641ec200 size:1536 thread:1
allocated block device:0x4007641ec800 size:512 thread:1
allocated block device:0x4007641eca00 size:2560 thread:1
allocated block device:0x4007641ed400 size:6144 thread:1
allocated block device:0x4007641eec00 size:28672 thread:1
allocated block device:0x4007641f5c00 size:40448 thread:1
allocated block device:0x4007641ffa00 size:512 thread:1
allocated block device:0x400764200000 size:1821184 thread:1
allocated block device:0x4007643bca00 size:180224 thread:1
allocated block device:0x4007643e8a00 size:8192 thread:1
allocated block device:0x4007643eaa00 size:8192 thread:1
allocated block device:0x4007643eca00 size:40448 thread:1
allocated block device:0x4007643f6800 size:8192 thread:1
allocated block device:0x4007643fb400 size:2560 thread:1
allocated block device:0x4007643fbe00 size:3072 thread:1
allocated block device:0x4007643fca00 size:3072 thread:1
allocated block device:0x400764400000 size:7284736 thread:1
allocated block device:0x400764c00000 size:7284736 thread:1
allocated block device:0x400765400000 size:45593600 thread:1
allocated block device:0x400768000000 size:230400000 thread:1
allocated block device:0x40077cc00000 size:7284736 thread:1
allocated block device:0x400780000000 size:807412224 thread:1
allocated block device:0x4007b0400000 size:230400000 thread:1
allocated block device:0x4007e0000000 size:230400000 thread:1
allocated block device:0x4007edc00000 size:230400000 thread:1
allocated block device:0x4007fb85fa00 size:921600 thread:1
allocated block device:0x4007fb940a00 size:464896 thread:1
allocated block device:0x4007fb9cc000 size:98304 thread:1
allocated block device:0x4007fb9e4000 size:98304 thread:1
allocated block device:0x4007fba00000 size:2799616 thread:1
allocated block device:0x4007fbe00000 size:7962624 thread:1
allocated block device:0x400f6ce00000 size:14400000 thread:1
allocated block device:0x401005600000 size:230400000 thread:1
allocated block device:0x401023400000 size:3614720 thread:1
allocated block device:0x401023800000 size:3614720 thread:1
allocated block device:0x401023c00000 size:3614720 thread:1
allocated block device:0x401024000000 size:3614720 thread:1
allocated block device:0x401024400000 size:453632 thread:1
allocated block device:0x40102446ec00 size:453632 thread:1
allocated block device:0x40102459d800 size:393216 thread:1
allocated block device:0x4010245fd800 size:2048 thread:1
allocated block device:0x401024600000 size:2799616 thread:1
allocated block device:0x401024a00000 size:14400000 thread:1
allocated block device:0x401025800000 size:28917760 thread:1
allocated block device:0x4011a3400000 size:230400000 thread:1
allocated block device:0x4011b1000000 size:230400000 thread:1
allocated block device:0x4011e3400000 size:230400000 thread:1
allocated block device:0x4011f1000000 size:230400000 thread:1
allocated block device:0x401223400000 size:29138944 thread:1
allocated block device:0x401225000000 size:29138944 thread:1
allocated block device:0x401226c00000 size:393216 thread:1
allocated block device:0x401226e00000 size:233111552 thread:1
allocated block device:0x401234e00000 size:3145728 thread:1
allocated block device:0x401235200000 size:7284736 thread:1
allocated block device:0x401235a00000 size:14569472 thread:1
Accelerator Fatal Error: call to cuMemAlloc returned error 2 (CUDA_ERROR_OUT_OF_MEMORY): Out of memory
 File: /lus/lfs1aip2/projects/u6cb/software/VASP/vasp.6.5.1/build/gam/hamil.f90
 Function: hamiltmu:978
 Line: 1005

Out of memory allocating 921600000 bytes of device memory
Failing in Thread:1
total/free CUDA memory: 102005473280/508493824
Present table dump for device[1]: NVIDIA Tesla GPU 0, compute capability 9.0, threadid=1
Hint: specify 0x800 bit in NV_ACC_DEBUG for verbose info.
host:0x2557280 device:0x4007e3df6600 size:32 presentcount:0+3 line:643 name:var%comm
host:0x25572a0 device:0x40055e3ffa00 size:32 presentcount:0+4 line:652 name:var%comm_kinter
host:0x25572c0 device:0x40055e3ffc00 size:32 presentcount:0+6 line:655 name:var%comm_kin
host:0x25572e0 device:0x40055e3ff400 size:32 presentcount:0+3 line:646 name:var%comm_inter
host:0x2557300 device:0x40055e3ff600 size:32 presentcount:0+7 line:649 name:var%comm_inb
host:0x256be80 device:0x40055a0ecd00 size:8 presentcount:0+1 line:-1 name:_setexm_struct_def_21
host:0x2576f40 device:0x40055a0ece00 size:28 presentcount:0+1 line:-1 name:_ml_ff_constant_21
host:0x2577c80 device:0x40055a0ecf00 size:30437 presentcount:0+1 line:-1 name:_ml_ff_taglist_21
host:0x25afc80 device:0x40055a0f4600 size:8 presentcount:0+1 line:-1 name:_mopenacc_tutor_21
host:0x25c2740 device:0x40055a0f4a00 size:32 presentcount:0+1 line:-1 name:_mbj_21
host:0x25cd640 device:0x40055a0f4d00 size:8 presentcount:0+1 line:-1 name:_sym_prec_21
host:0x26030c0 device:0x40055a0f4e00 size:344 presentcount:0+1 line:-1 name:_tet_21
host:0x261c840 device:0x40055a0f5000 size:392 presentcount:0+1 line:-1 name:_mymath_21
host:0x2817368 device:0x4007e3dbd200 size:4800 presentcount:0+2 line:614 name:var
host:0x2818628 device:0x4007e3df4a00 size:1984 presentcount:0+2 line:403 name:var
host:0x281a910 device:0x4007071ff400 size:864 presentcount:0+4 line:2639 name:hamiltonian
host:0x286ac80 device:0x4007e3dfe000 size:2712 presentcount:0+2 line:428 name:var
host:0x286b718 device:0x40055e3f0600 size:2248 presentcount:0+1 line:742 name:var
host:0x286eb50 device:0x4007e41ff400 size:288 presentcount:0+1 line:195 name:latt_cur
host:0x2871658 device:0x40055e3fb200 size:5088 presentcount:0+28 line:517 name:var
host:0x2872a38 device:0x4006903fa000 size:5088 presentcount:0+6 line:517 name:var
host:0x2873e18 device:0x4007e3ff9600 size:5088 presentcount:0+7 line:517 name:var
host:0x287a2a8 device:0x4007e41eb400 size:304 presentcount:0+1 line:567 name:var
host:0x287a3d8 device:0x4007e41ec200 size:304 presentcount:0+1 line:567 name:var
host:0x2e48ec0 device:0x40055a002600 size:960024 presentcount:0+1 line:-1 name:_setexm_struct_def_16
host:0x2f8f080 device:0x40055a0f4700 size:580 presentcount:0+1 line:-1 name:_wpbe_16
host:0x2f8f900 device:0x40055a0f4b00 size:288 presentcount:0+1 line:-1 name:_mbj_16
host:0x9f446c0 device:0x40055a0f5200 size:624 presentcount:0+1 line:-1 name:_mlr_optic_16
host:0x1cdc4e60 device:0x4007e3dbf000 size:1000 presentcount:0+4 line:519 name:var%lpctz(:)
host:0x1cdc7e70 device:0x4007e41ea600 size:260 presentcount:0+1 line:499 name:var%ni(:)
host:0x1cdc8160 device:0x4007e41ea800 size:260 presentcount:0+1 line:499 name:var%ptri(:)
host:0x1d543990 device:0x4006903fd000 size:528 presentcount:0+1 line:480 name:var
host:0x1d544230 device:0x4007e41ea200 size:260 presentcount:0+1 line:499 name:var%n(:)
host:0x21590200 device:0x4007471ffe00 size:400 presentcount:0+2 line:464 name:var
host:0x21590390 device:0x40055e3fc800 size:400 presentcount:0+2 line:464 name:var
host:0x25c5de60 device:0x40055e3ff800 size:8 presentcount:0+4 line:405 name:var%nityp(:)
host:0x2611fe70 device:0x4007e41ea400 size:260 presentcount:0+1 line:499 name:var%ptr(:)
host:0x265dac90 device:0x4007e41ee600 size:28464 presentcount:0+1 line:853 name:var(:)
host:0x265ed3f0 device:0x4007e43eca00 size:40000 presentcount:0+1 line:857 name:var%psp(:,:)
host:0x265f7060 device:0x4007e43f6800 size:8000 presentcount:0+1 line:857 name:var%psprho(:)
host:0x265fa2f0 device:0x4007e3ff1e00 size:24000 presentcount:0+2 line:466 name:var%psprnl(:,:,:)
host:0x26629cd0 device:0x4007e3fe9c00 size:4320 presentcount:0+4 line:405 name:var%ityp(:)
host:0x2662ade0 device:0x4007e3df7a00 size:25920 presentcount:0+4 line:405 name:var%posion(:,:)
host:0x2666bec0 device:0x4007e3dffa00 size:4 presentcount:0+2 line:616 name:var%nplwkp_tot(:)
host:0x2666df80 device:0x4007e3dff800 size:4 presentcount:0+2 line:616 name:var%nplwkp(:)
host:0x2666dfb0 device:0x4007e43e8a00 size:8000 presentcount:0+1 line:857 name:var%pspcor(:)
host:0x2666ff20 device:0x4007e43eaa00 size:8000 presentcount:0+1 line:857 name:var%psprho(:)
host:0x26673a90 device:0x4007e41f5600 size:40000 presentcount:0+1 line:857 name:var%psp(:,:)
host:0x2667d700 device:0x4007e3fec000 size:24000 presentcount:0+2 line:466 name:var%psprnl(:,:,:)
host:0x26690700 device:0x4007e3dff000 size:8 presentcount:0+3 line:616 name:var%nt_global(:)
host:0x266907f0 device:0x4007e3dfec00 size:8 presentcount:0+3 line:616 name:var%lmmax(:)
host:0x26690820 device:0x4007e3dff400 size:8 presentcount:0+2 line:616 name:var%wtkpt(:)
host:0x26690850 device:0x4007e3dfee00 size:8 presentcount:0+3 line:616 name:var%nityp(:)
host:0x266bd7b0 device:0x40055e3fc600 size:24 presentcount:0+3 line:466 name:var%lps(:)
host:0x266bd860 device:0x40055e3fca00 size:24 presentcount:0+3 line:466 name:var%lps(:)
host:0x2672ab50 device:0x4007e3dff200 size:24 presentcount:0+3 line:616 name:var%vkpt(:,:)
host:0x2674fe00 device:0x4007e3dbd000 size:16 presentcount:0+2 line:430 name:var%psrmax(:)
host:0x267503c0 device:0x4007e3fe8a00 size:4320 presentcount:0+3 line:616 name:var%ityp(:)
host:0x267514d0 device:0x4007e3df6800 size:4320 presentcount:0+3 line:616 name:var%npro_pos(:)
host:0x267525e0 device:0x4007e3df5400 size:4324 presentcount:0+3 line:616 name:var%lmbase(:)
host:0x267536f0 device:0x4007e3dffc00 size:4 presentcount:0+2 line:616 name:var%ngvector_pos(:)
host:0x26753720 device:0x4007e3dff600 size:4 presentcount:0+2 line:616 name:var%ngvector(:)
host:0x26753750 device:0x4007e3dbe600 size:1280 presentcount:0+4 line:519 name:var%lpctx(:)
host:0x26753c80 device:0x4007e3dbec00 size:720 presentcount:0+4 line:519 name:var%lpcty(:)
host:0x26753f80 device:0x4007e3dbf400 size:1280 presentcount:0+4 line:519 name:var%lpctx_(:)
host:0x267544b0 device:0x4007e3dbfa00 size:720 presentcount:0+4 line:519 name:var%lpcty_(:)
host:0x267547b0 device:0x4007e3dbfe00 size:1000 presentcount:0+4 line:519 name:var%lpctz_(:)
host:0x26754bc0 device:0x4006903fb400 size:1280 presentcount:0+1 line:519 name:var%lpctx(:)
host:0x267550f0 device:0x4006903fba00 size:720 presentcount:0+1 line:519 name:var%lpcty(:)
host:0x267553f0 device:0x4006903fbe00 size:1000 presentcount:0+1 line:519 name:var%lpctz(:)
host:0x26755800 device:0x4006903fc200 size:1280 presentcount:0+1 line:519 name:var%lpctx_(:)
host:0x26755d30 device:0x4006903fc800 size:720 presentcount:0+1 line:519 name:var%lpcty_(:)
host:0x26756030 device:0x4006903fcc00 size:1000 presentcount:0+1 line:519 name:var%lpctz_(:)
host:0x26756440 device:0x4007e3ff7c00 size:2560 presentcount:0+1 line:519 name:var%lpctx(:)
host:0x26756e70 device:0x4007e3ffaa00 size:1440 presentcount:0+1 line:519 name:var%lpcty(:)
host:0x26757440 device:0x4007e3ff8800 size:2000 presentcount:0+1 line:519 name:var%lpctz(:)
host:0x26757c40 device:0x4007e3ffb000 size:2560 presentcount:0+1 line:519 name:var%lpctx_(:)
host:0x26758670 device:0x4007e3ffba00 size:1440 presentcount:0+1 line:519 name:var%lpcty_(:)
host:0x26758c40 device:0x4007e3ffc000 size:2000 presentcount:0+1 line:519 name:var%lpctz_(:)
host:0x2684c2a0 device:0x4007e3ffc800 size:5648 presentcount:0+1 line:482 name:var%i2(:)
host:0x2684d8e0 device:0x4007e3ffe000 size:5648 presentcount:0+1 line:482 name:var%i3(:)
host:0x2684ef20 device:0x4006903f4c00 size:10040 presentcount:0+1 line:482 name:var%i2(:)
host:0x26851680 device:0x4006903f7400 size:10040 presentcount:0+1 line:482 name:var%i3(:)
host:0x26853de0 device:0x4006903ed800 size:14400 presentcount:0+2 line:482 name:var%i2(:)
host:0x26857650 device:0x4006903f1200 size:14400 presentcount:0+2 line:482 name:var%i3(:)
host:0x2685b2e0 device:0x40087b85fa00 size:921600 presentcount:0+2 line:482 name:var%index(:,:)
host:0x2693c310 device:0x4007e41ec400 size:2560 presentcount:0+1 line:569 name:var%ind1(:)
host:0x2693cd40 device:0x4007e41ece00 size:5648 presentcount:0+1 line:569 name:var%indcol(:)
host:0x2693e380 device:0x4006903fd400 size:5648 presentcount:0+1 line:482 name:var%i2(:)
host:0x2693f9c0 device:0x4007e41e8a00 size:5648 presentcount:0+1 line:482 name:var%i3(:)
host:0x26941000 device:0x4006903fec00 size:2520 presentcount:0+1 line:482 name:var%i2(:)
host:0x26941a00 device:0x4006903ff600 size:2520 presentcount:0+1 line:482 name:var%i3(:)
host:0x26942400 device:0x40055e3fcc00 size:4320 presentcount:0+2 line:430 name:var%nlimax(:)
host:0x26943510 device:0x40055e3fe000 size:4324 presentcount:0+2 line:430 name:var%lmbase(:)
host:0x26944620 device:0x400690390600 size:4324 presentcount:0+2 line:430 name:var%nlibase(:)
host:0x26945730 device:0x4007e3dc0200 size:17132 presentcount:0+4 line:519 name:var%nindpwconjg(:)
host:0x26949a50 device:0x4007e3dc4600 size:17132 presentcount:0+4 line:519 name:var%ind_in_sphere(:)
host:0x2694f3b0 device:0x40055e3ff200 size:260 presentcount:0+1 line:499 name:var%ptr(:)
host:0x2694f4e0 device:0x40055e3fde00 size:260 presentcount:0+1 line:499 name:var%n(:)
host:0x2694f610 device:0x4007e3fffa00 size:260 presentcount:0+1 line:499 name:var%ptri(:)
host:0x2694f740 device:0x4007e3fff800 size:260 presentcount:0+1 line:499 name:var%ni(:)
host:0x2694f870 device:0x4007e3fffe00 size:260 presentcount:0+1 line:499 name:var%ptr(:)
host:0x2694f9a0 device:0x4007e3fffc00 size:260 presentcount:0+1 line:499 name:var%n(:)
host:0x2694fad0 device:0x4006903f9e00 size:260 presentcount:0+1 line:499 name:var%ptri(:)
host:0x2694fc00 device:0x4006903f9c00 size:260 presentcount:0+1 line:499 name:var%ni(:)
host:0x2694fd30 device:0x4007e41eac00 size:260 presentcount:0+1 line:499 name:var%ptr(:)
host:0x2694fe60 device:0x4007e41eaa00 size:260 presentcount:0+1 line:499 name:var%n(:)
host:0x2694ff90 device:0x4007e41eb200 size:4 presentcount:0+1 line:499 name:var%tbli(:)
host:0x2694ffc0 device:0x4007e41eb000 size:260 presentcount:0+1 line:499 name:var%ptri(:)
host:0x269500f0 device:0x4007e41eae00 size:260 presentcount:0+1 line:499 name:var%ni(:)
host:0x2697c4b0 device:0x4007e41eb600 size:1280 presentcount:0+1 line:569 name:var%ind1(:)
host:0x2697c9e0 device:0x4007e41ebc00 size:1388 presentcount:0+1 line:569 name:var%indcol(:)
host:0x2697cf80 device:0x400690338600 size:180000 presentcount:0+4 line:482 name:var%i2(:)
host:0x269a8ed0 device:0x400690364600 size:180000 presentcount:0+4 line:482 name:var%i3(:)
host:0x269d4e20 device:0x4007e3dc8a00 size:180000 presentcount:0+8 line:482 name:var%index(:,:)
host:0x26a00d70 device:0x4007e43bca00 size:180000 presentcount:0+8 line:482 name:var%i2(:)
host:0x26a2ccc0 device:0x400690391800 size:180000 presentcount:0+8 line:482 name:var%i3(:)
host:0x26a59240 device:0x4007e3e00000 size:1821184 presentcount:0+3 line:616 name:var%nindpw(:,:)
host:0x26c15c70 device:0x4007e3df5200 size:8 presentcount:0+2 line:616 name:var%nb_totk(:,:)
host:0x26c15ca0 device:0x4007e3dffe00 size:4 presentcount:0+2 line:616 name:var%luseinv(:)
host:0x26c15cd0 device:0x4007e3dbcc00 size:4 presentcount:0+2 line:616 name:var%at_gamma(:)
host:0x26c15d00 device:0x4007e3fbca00 size:180000 presentcount:0+3 line:616 name:var%pl_index(:,:)
host:0x26c41c50 device:0x4007e41bca00 size:180000 presentcount:0+3 line:616 name:var%pl_col(:,:)
host:0x26c6dba0 device:0x4007e3ff9400 size:8 presentcount:0+2 line:405 name:var%lmmax(:)
host:0x26c6dbd0 device:0x40055e3ffe00 size:8 presentcount:0+2 line:430 name:var%lmax(:)
host:0x26c6dc00 device:0x4007e3feae00 size:4324 presentcount:0+2 line:405 name:var%lmbase(:)
host:0x26c6ed10 device:0x4007e3dbca00 size:8 presentcount:0+2 line:430 name:var%lmmax(:)
host:0x26c6ed40 device:0x4007e3dbce00 size:8 presentcount:0+2 line:430 name:var%channels(:)
host:0x26c6ed70 device:0x4007471ffc00 size:16 presentcount:0+2 line:430 name:var%rsmooth(:)
host:0x26cdf610 device:0x40087b940a00 size:444160 presentcount:0+1 line:499 name:var%tbl(:)
host:0x26ec5630 device:0x4007e4c00000 size:7284736 presentcount:0+3 line:616 name:var%datake(:,:,:)
host:0x275b88b0 device:0x4007e4000000 size:1821184 presentcount:0+3 line:616 name:var%igx(:,:)
host:0x27775f40 device:0x4007e3c00000 size:1821184 presentcount:0+3 line:616 name:var%igy(:,:)
host:0x279337e0 device:0x4007e4200000 size:1821184 presentcount:0+3 line:616 name:var%igz(:,:)
host:0x27af16b0 device:0x4007fcc00000 size:7284272 presentcount:0+4 line:519 name:var%fftsca(:,:)
host:0x28250440 device:0x4010a4400000 size:453600 presentcount:0+1 line:499 name:var%tbli(:)
host:0x282bf050 device:0x4010a446ec00 size:453600 presentcount:0+1 line:499 name:var%tbl(:)
host:0x2842ff30 device:0x4010a3400000 size:3614720 presentcount:0+1 line:499 name:var%tbl(:)
host:0x28b18320 device:0x4010a3800000 size:3614400 presentcount:0+1 line:499 name:var%tbli(:)
host:0x28e8c6f0 device:0x4010a3c00000 size:3614400 presentcount:0+1 line:499 name:var%tbl(:)
host:0x295754c0 device:0x4010a4000000 size:3614400 presentcount:0+1 line:499 name:var%tbli(:)
host:0x2a6bf070 device:0x40087ba00000 size:2799360 presentcount:0+2 line:194 name:cdij(:,:,:,:)
host:0x2a9b2420 device:0x40055e3f1000 size:41472 presentcount:0+1 line:746 name:var%auxtot(:,:,:)
host:0x2a9c0030 device:0x400690324200 size:82944 presentcount:0+2 line:746 name:var%celtot(:,:,:)
host:0x2aa13ec0 device:0x40069031a000 size:41472 presentcount:0+2 line:746 name:var%fertot(:,:,:)
host:0x2ada9910 device:0x4010a4600000 size:2799360 presentcount:0+2 line:194 name:cqij(:,:,:,:)
host:0x2b3095c0 device:0x40087be00000 size:7962624 presentcount:0+5 line:746 name:var%gproj(:,:,:,:)
host:0x2bcc4fe0 device:0x4006903d5800 size:98304 presentcount:0+1 line:1101 name:w1%gproj(:)
host:0x2bd43750 device:0x4007e43fb800 size:2048 presentcount:0+1 line:179 name:wtmp(:)
host:0x2becb5d0 device:0x4010a459d800 size:393216 presentcount:0+2 line:1226 name:wa%gproj(:,:)
host:0x2bf2b600 device:0x4012a6c00000 size:393216 presentcount:0+2 line:1226 name:wa%gproj(:,:)
host:0x2bf8b630 device:0x4006903bd800 size:98304 presentcount:0+1 line:1101 name:w1%gproj(:)
host:0x2bfa3660 device:0x40087b9c7000 size:98304 presentcount:0+1 line:1101 name:w1%gproj(:)
host:0x2bfbb690 device:0x40087b9df000 size:98304 presentcount:0+1 line:1101 name:w1%gproj(:)
host:0x348640e0 device:0x4012b4e00000 size:3145728 presentcount:0+2 line:1226 name:wa%gproj(:,:)
host:0x39988670 device:0x4010a45fd800 size:2048 presentcount:0+1 line:179 name:w1(:)
host:0x39990000 device:0x4012b5a00000 size:14569472 presentcount:0+1 line:202 name:precon(:,:)
host:0x3a77c3b0 device:0x4007e4400000 size:7284736 presentcount:0+1 line:1101 name:w1%cptwfp(:)
host:0x3ae76590 device:0x4007e3400000 size:7284736 presentcount:0+1 line:1101 name:w1%cptwfp(:)
host:0x3b570da0 device:0x400fece00000 size:7284736 presentcount:0+1 line:1101 name:w1%cptwfp(:)
host:0x3bc635d0 device:0x4012b5200000 size:7284736 presentcount:0+1 line:1101 name:w1%cptwfp(:)
host:0x4005954610a0 device:0x4007e5400000 size:45593280 presentcount:0+2 line:430 name:var%nli(:,:)
host:0x4006a00012b0 device:0x400800000000 size:807411968 presentcount:0+2 line:430 name:var%rproj(:)
host:0x4006d02131a0 device:0x400860000000 size:230400000 presentcount:0+2 line:194 name:sv(:,:)
host:0x4006dddd35c0 device:0x4010a4a00000 size:14400000 presentcount:0+1 line:195 name:dencor(:)
host:0x4007800039e0 device:0x4010a5800000 size:28917760 presentcount:0+1 line:195 name:cstrf(:,:)
host:0x400781ba4a60 device:0x4007c0000000 size:590063616 presentcount:0+5 line:746 name:var%cptwfp(:,:,:,:)
host:0x4007a85a6b60 device:0x4012a3400000 size:29138944 presentcount:0+2 line:1226 name:wa%cptwfp(:,:)
host:0x4007b31b6d70 device:0x4012a5000000 size:29138944 presentcount:0+2 line:1226 name:wa%cptwfp(:,:)
host:0x4008400075b0 device:0x401085e00000 size:230400000 presentcount:0+1 line:1101 name:w1%cr(:)
host:0x4008a32c6f80 device:0x4012a6e00000 size:233111552 presentcount:0+2 line:1226 name:wa%cptwfp(:,:)
host:0x4008b11277c0 device:0x400830400000 size:230400000 presentcount:0+1 line:1236 name:w1%cr(:)
host:0x400900007be0 device:0x40086dc00000 size:230400000 presentcount:0+1 line:1101 name:w1%cr(:)
host:0x40090dbd7df0 device:0x4007e8000000 size:230400000 presentcount:0+1 line:1236 name:w1%cr(:)
host:0x40091b7a8210 device:0x401263400000 size:230400000 presentcount:0+1 line:1101 name:w1%cr(:)
host:0x400929378420 device:0x401271000000 size:230400000 presentcount:0+1 line:1236 name:w1%cr(:)
host:0x400e00000230 device:0x401223400000 size:230400000 presentcount:0+1 line:1101 name:w1%cr(:)
host:0x400e0dbc0440 device:0x401231000000 size:230400000 presentcount:0+1 line:1236 name:w1%cr(:)
host:0xfffffd5ad750 device:0x4007e43fc400 size:3024 presentcount:0+12 line:682 name:var
host:0xfffffd5ae320 device:0x4007071ff800 size:1480 presentcount:0+1 line:174 name:w_ini
host:0xfffffd5ae8f0 device:0x4007e43fae00 size:1480 presentcount:0+1 line:174 name:wopt
host:0xfffffd5aeec0 device:0x4007471ff400 size:1480 presentcount:0+1 line:174 name:wtmpa
allocated block device:0x40055e3f0600 size:2560 thread:1
allocated block device:0x40055e3f1000 size:41472 thread:1
allocated block device:0x40055e3fb200 size:5120 thread:1
allocated block device:0x40055e3fc600 size:512 thread:1
allocated block device:0x40055e3fc800 size:512 thread:1
allocated block device:0x40055e3fca00 size:512 thread:1
allocated block device:0x40055e3fcc00 size:4608 thread:1
allocated block device:0x40055e3fde00 size:512 thread:1
allocated block device:0x40055e3fe000 size:4608 thread:1
allocated block device:0x40055e3ff200 size:512 thread:1
allocated block device:0x40055e3ff400 size:512 thread:1
allocated block device:0x40055e3ff600 size:512 thread:1
allocated block device:0x40055e3ff800 size:512 thread:1
allocated block device:0x40055e3ffa00 size:512 thread:1
allocated block device:0x40055e3ffc00 size:512 thread:1
allocated block device:0x40055e3ffe00 size:512 thread:1
allocated block device:0x40069031a000 size:41472 thread:1
allocated block device:0x400690324200 size:82944 thread:1
allocated block device:0x400690338600 size:180224 thread:1
allocated block device:0x400690364600 size:180224 thread:1
allocated block device:0x400690390600 size:4608 thread:1
allocated block device:0x400690391800 size:180224 thread:1
allocated block device:0x4006903bd800 size:98304 thread:1
allocated block device:0x4006903d5800 size:98304 thread:1
allocated block device:0x4006903ed800 size:14848 thread:1
allocated block device:0x4006903f1200 size:14848 thread:1
allocated block device:0x4006903f4c00 size:10240 thread:1
allocated block device:0x4006903f7400 size:10240 thread:1
allocated block device:0x4006903f9c00 size:512 thread:1
allocated block device:0x4006903f9e00 size:512 thread:1
allocated block device:0x4006903fa000 size:5120 thread:1
allocated block device:0x4006903fb400 size:1536 thread:1
allocated block device:0x4006903fba00 size:1024 thread:1
allocated block device:0x4006903fbe00 size:1024 thread:1
allocated block device:0x4006903fc200 size:1536 thread:1
allocated block device:0x4006903fc800 size:1024 thread:1
allocated block device:0x4006903fcc00 size:1024 thread:1
allocated block device:0x4006903fd000 size:1024 thread:1
allocated block device:0x4006903fd400 size:6144 thread:1
allocated block device:0x4006903fec00 size:2560 thread:1
allocated block device:0x4006903ff600 size:2560 thread:1
allocated block device:0x4007071ff400 size:1024 thread:1
allocated block device:0x4007071ff800 size:1536 thread:1
allocated block device:0x4007471ff400 size:2048 thread:1
allocated block device:0x4007471ffc00 size:512 thread:1
allocated block device:0x4007471ffe00 size:512 thread:1
allocated block device:0x4007c0000000 size:590063616 thread:1
allocated block device:0x4007e3400000 size:7962624 thread:1
allocated block device:0x4007e3c00000 size:1821184 thread:1
allocated block device:0x4007e3dbca00 size:512 thread:1
allocated block device:0x4007e3dbcc00 size:512 thread:1
allocated block device:0x4007e3dbce00 size:512 thread:1
allocated block device:0x4007e3dbd000 size:512 thread:1
allocated block device:0x4007e3dbd200 size:5120 thread:1
allocated block device:0x4007e3dbe600 size:1536 thread:1
allocated block device:0x4007e3dbec00 size:1024 thread:1
allocated block device:0x4007e3dbf000 size:1024 thread:1
allocated block device:0x4007e3dbf400 size:1536 thread:1
allocated block device:0x4007e3dbfa00 size:1024 thread:1
allocated block device:0x4007e3dbfe00 size:1024 thread:1
allocated block device:0x4007e3dc0200 size:17408 thread:1
allocated block device:0x4007e3dc4600 size:17408 thread:1
allocated block device:0x4007e3dc8a00 size:180224 thread:1
allocated block device:0x4007e3df4a00 size:2048 thread:1
allocated block device:0x4007e3df5200 size:512 thread:1
allocated block device:0x4007e3df5400 size:4608 thread:1
allocated block device:0x4007e3df6600 size:512 thread:1
allocated block device:0x4007e3df6800 size:4608 thread:1
allocated block device:0x4007e3df7a00 size:26112 thread:1
allocated block device:0x4007e3dfe000 size:3072 thread:1
allocated block device:0x4007e3dfec00 size:512 thread:1
allocated block device:0x4007e3dfee00 size:512 thread:1
allocated block device:0x4007e3dff000 size:512 thread:1
allocated block device:0x4007e3dff200 size:512 thread:1
allocated block device:0x4007e3dff400 size:512 thread:1
allocated block device:0x4007e3dff600 size:512 thread:1
allocated block device:0x4007e3dff800 size:512 thread:1
allocated block device:0x4007e3dffa00 size:512 thread:1
allocated block device:0x4007e3dffc00 size:512 thread:1
allocated block device:0x4007e3dffe00 size:512 thread:1
allocated block device:0x4007e3e00000 size:1821184 thread:1
allocated block device:0x4007e3fbca00 size:180224 thread:1
allocated block device:0x4007e3fe8a00 size:4608 thread:1
allocated block device:0x4007e3fe9c00 size:4608 thread:1
allocated block device:0x4007e3feae00 size:4608 thread:1
allocated block device:0x4007e3fec000 size:24064 thread:1
allocated block device:0x4007e3ff1e00 size:24064 thread:1
allocated block device:0x4007e3ff7c00 size:3072 thread:1
allocated block device:0x4007e3ff8800 size:3072 thread:1
allocated block device:0x4007e3ff9400 size:512 thread:1
allocated block device:0x4007e3ff9600 size:5120 thread:1
allocated block device:0x4007e3ffaa00 size:1536 thread:1
allocated block device:0x4007e3ffb000 size:2560 thread:1
allocated block device:0x4007e3ffba00 size:1536 thread:1
allocated block device:0x4007e3ffc000 size:2048 thread:1
allocated block device:0x4007e3ffc800 size:6144 thread:1
allocated block device:0x4007e3ffe000 size:6144 thread:1
allocated block device:0x4007e3fff800 size:512 thread:1
allocated block device:0x4007e3fffa00 size:512 thread:1
allocated block device:0x4007e3fffc00 size:512 thread:1
allocated block device:0x4007e3fffe00 size:512 thread:1
allocated block device:0x4007e4000000 size:1821184 thread:1
allocated block device:0x4007e41bca00 size:180224 thread:1
allocated block device:0x4007e41e8a00 size:6144 thread:1
allocated block device:0x4007e41ea200 size:512 thread:1
allocated block device:0x4007e41ea400 size:512 thread:1
allocated block device:0x4007e41ea600 size:512 thread:1
allocated block device:0x4007e41ea800 size:512 thread:1
allocated block device:0x4007e41eaa00 size:512 thread:1
allocated block device:0x4007e41eac00 size:512 thread:1
allocated block device:0x4007e41eae00 size:512 thread:1
allocated block device:0x4007e41eb000 size:512 thread:1
allocated block device:0x4007e41eb200 size:512 thread:1
allocated block device:0x4007e41eb400 size:512 thread:1
allocated block device:0x4007e41eb600 size:1536 thread:1
allocated block device:0x4007e41ebc00 size:1536 thread:1
allocated block device:0x4007e41ec200 size:512 thread:1
allocated block device:0x4007e41ec400 size:2560 thread:1
allocated block device:0x4007e41ece00 size:6144 thread:1
allocated block device:0x4007e41ee600 size:28672 thread:1
allocated block device:0x4007e41f5600 size:40448 thread:1
allocated block device:0x4007e41ff400 size:512 thread:1
allocated block device:0x4007e4200000 size:1821184 thread:1
allocated block device:0x4007e43bca00 size:180224 thread:1
allocated block device:0x4007e43e8a00 size:8192 thread:1
allocated block device:0x4007e43eaa00 size:8192 thread:1
allocated block device:0x4007e43eca00 size:40448 thread:1
allocated block device:0x4007e43f6800 size:8192 thread:1
allocated block device:0x4007e43fae00 size:2560 thread:1
allocated block device:0x4007e43fb800 size:3072 thread:1
allocated block device:0x4007e43fc400 size:3072 thread:1
allocated block device:0x4007e4400000 size:7284736 thread:1
allocated block device:0x4007e4c00000 size:7284736 thread:1
allocated block device:0x4007e5400000 size:45593600 thread:1
allocated block device:0x4007e8000000 size:230400000 thread:1
allocated block device:0x4007fcc00000 size:7284736 thread:1
allocated block device:0x400800000000 size:807412224 thread:1
allocated block device:0x400830400000 size:230400000 thread:1
allocated block device:0x400860000000 size:230400000 thread:1
allocated block device:0x40086dc00000 size:230400000 thread:1
allocated block device:0x40087b85fa00 size:921600 thread:1
allocated block device:0x40087b940a00 size:444416 thread:1
allocated block device:0x40087b9c7000 size:98304 thread:1
allocated block device:0x40087b9df000 size:98304 thread:1
allocated block device:0x40087ba00000 size:2799616 thread:1
allocated block device:0x40087be00000 size:7962624 thread:1
allocated block device:0x400fece00000 size:14400000 thread:1
allocated block device:0x401085e00000 size:230400000 thread:1
allocated block device:0x4010a3400000 size:3614720 thread:1
allocated block device:0x4010a3800000 size:3614720 thread:1
allocated block device:0x4010a3c00000 size:3614720 thread:1
allocated block device:0x4010a4000000 size:3614720 thread:1
allocated block device:0x4010a4400000 size:453632 thread:1
allocated block device:0x4010a446ec00 size:453632 thread:1
allocated block device:0x4010a459d800 size:393216 thread:1
allocated block device:0x4010a45fd800 size:2048 thread:1
allocated block device:0x4010a4600000 size:2799616 thread:1
allocated block device:0x4010a4a00000 size:14400000 thread:1
allocated block device:0x4010a5800000 size:28917760 thread:1
allocated block device:0x401223400000 size:230400000 thread:1
allocated block device:0x401231000000 size:230400000 thread:1
allocated block device:0x401263400000 size:230400000 thread:1
allocated block device:0x401271000000 size:230400000 thread:1
allocated block device:0x4012a3400000 size:29138944 thread:1
allocated block device:0x4012a5000000 size:29138944 thread:1
allocated block device:0x4012a6c00000 size:393216 thread:1
allocated block device:0x4012a6e00000 size:233111552 thread:1
allocated block device:0x4012b4e00000 size:3145728 thread:1
allocated block device:0x4012b5200000 size:7284736 thread:1
allocated block device:0x4012b5a00000 size:14569472 thread:1
Accelerator Fatal Error: call to cuMemAlloc returned error 2 (CUDA_ERROR_OUT_OF_MEMORY): Out of memory
 File: /lus/lfs1aip2/projects/u6cb/software/VASP/vasp.6.5.1/build/gam/hamil.f90
 Function: hamiltmu:978
 Line: 1005

Out of memory allocating 230400000 bytes of device memory
Failing in Thread:1
total/free CUDA memory: 102005473280/540409856
Present table dump for device[1]: NVIDIA Tesla GPU 0, compute capability 9.0, threadid=1
Hint: specify 0x800 bit in NV_ACC_DEBUG for verbose info.
host:0x2557280 device:0x400743df6600 size:32 presentcount:0+3 line:643 name:var%comm
host:0x25572a0 device:0x4004be3ffa00 size:32 presentcount:0+4 line:652 name:var%comm_kinter
host:0x25572c0 device:0x4004be3ffc00 size:32 presentcount:0+6 line:655 name:var%comm_kin
host:0x25572e0 device:0x4004be3ff400 size:32 presentcount:0+3 line:646 name:var%comm_inter
host:0x2557300 device:0x4004be3ff600 size:32 presentcount:0+7 line:649 name:var%comm_inb
host:0x256be80 device:0x4004ba0ecd00 size:8 presentcount:0+1 line:-1 name:_setexm_struct_def_21
host:0x2576f40 device:0x4004ba0ece00 size:28 presentcount:0+1 line:-1 name:_ml_ff_constant_21
host:0x2577c80 device:0x4004ba0ecf00 size:30437 presentcount:0+1 line:-1 name:_ml_ff_taglist_21
host:0x25afc80 device:0x4004ba0f4600 size:8 presentcount:0+1 line:-1 name:_mopenacc_tutor_21
host:0x25c2740 device:0x4004ba0f4a00 size:32 presentcount:0+1 line:-1 name:_mbj_21
host:0x25cd640 device:0x4004ba0f4d00 size:8 presentcount:0+1 line:-1 name:_sym_prec_21
host:0x26030c0 device:0x4004ba0f4e00 size:344 presentcount:0+1 line:-1 name:_tet_21
host:0x261c840 device:0x4004ba0f5000 size:392 presentcount:0+1 line:-1 name:_mymath_21
host:0x2817368 device:0x400743dbd200 size:4800 presentcount:0+2 line:614 name:var
host:0x2818628 device:0x400743df4a00 size:1984 presentcount:0+2 line:403 name:var
host:0x281a910 device:0x40065c5ff400 size:864 presentcount:0+4 line:2639 name:hamiltonian
host:0x286ac80 device:0x400743dfe000 size:2712 presentcount:0+2 line:428 name:var
host:0x286b718 device:0x4004be3f0600 size:2248 presentcount:0+1 line:742 name:var
host:0x286eb50 device:0x4007441ff400 size:288 presentcount:0+1 line:195 name:latt_cur
host:0x2871658 device:0x4004be3fb200 size:5088 presentcount:0+28 line:517 name:var
host:0x2872a38 device:0x4005f03fa000 size:5088 presentcount:0+6 line:517 name:var
host:0x2873e18 device:0x400743ff9600 size:5088 presentcount:0+7 line:517 name:var
host:0x287a2a8 device:0x4007441eb400 size:304 presentcount:0+1 line:567 name:var
host:0x287a3d8 device:0x4007441ec200 size:304 presentcount:0+1 line:567 name:var
host:0x2e48ec0 device:0x4004ba002600 size:960024 presentcount:0+1 line:-1 name:_setexm_struct_def_16
host:0x2f8f080 device:0x4004ba0f4700 size:580 presentcount:0+1 line:-1 name:_wpbe_16
host:0x2f8f900 device:0x4004ba0f4b00 size:288 presentcount:0+1 line:-1 name:_mbj_16
host:0x9f446c0 device:0x4004ba0f5200 size:624 presentcount:0+1 line:-1 name:_mlr_optic_16
host:0x2de44e60 device:0x400743dbf000 size:1000 presentcount:0+4 line:519 name:var%lpctz(:)
host:0x2de47e70 device:0x4007441ea600 size:260 presentcount:0+1 line:499 name:var%ni(:)
host:0x2de48160 device:0x4007441ea800 size:260 presentcount:0+1 line:499 name:var%ptri(:)
host:0x2deef740 device:0x400743dff400 size:8 presentcount:0+2 line:616 name:var%wtkpt(:)
host:0x2e589280 device:0x4005f03fd000 size:528 presentcount:0+1 line:480 name:var
host:0x2e589a80 device:0x4007441ea200 size:260 presentcount:0+1 line:499 name:var%n(:)
host:0x32646840 device:0x40069c3ffe00 size:400 presentcount:0+2 line:464 name:var
host:0x326469d0 device:0x4004be3fc800 size:400 presentcount:0+2 line:464 name:var
host:0x36cde4b0 device:0x4004be3ff800 size:8 presentcount:0+4 line:405 name:var%nityp(:)
host:0x371a04c0 device:0x4007441ea400 size:260 presentcount:0+1 line:499 name:var%ptr(:)
host:0x3765b2e0 device:0x4007441ee600 size:28464 presentcount:0+1 line:853 name:var(:)
host:0x3766da40 device:0x4007443eca00 size:40000 presentcount:0+1 line:857 name:var%psp(:,:)
host:0x376776b0 device:0x4007443f6800 size:8000 presentcount:0+1 line:857 name:var%psprho(:)
host:0x3767a940 device:0x400743ff1e00 size:24000 presentcount:0+2 line:466 name:var%psprnl(:,:,:)
host:0x376aa320 device:0x400743fe9c00 size:4320 presentcount:0+4 line:405 name:var%ityp(:)
host:0x376ab430 device:0x400743df7a00 size:25920 presentcount:0+4 line:405 name:var%posion(:,:)
host:0x376ee600 device:0x4007443e8a00 size:8000 presentcount:0+1 line:857 name:var%pspcor(:)
host:0x376f0570 device:0x4007443eaa00 size:8000 presentcount:0+1 line:857 name:var%psprho(:)
host:0x376f40e0 device:0x4007441f5600 size:40000 presentcount:0+1 line:857 name:var%psp(:,:)
host:0x376fdd50 device:0x400743fec000 size:24000 presentcount:0+2 line:466 name:var%psprnl(:,:,:)
host:0x3773de00 device:0x4004be3fc600 size:24 presentcount:0+3 line:466 name:var%lps(:)
host:0x3773deb0 device:0x4004be3fca00 size:24 presentcount:0+3 line:466 name:var%lps(:)
host:0x3789c2b0 device:0x400743dff200 size:24 presentcount:0+3 line:616 name:var%vkpt(:,:)
host:0x378c13d0 device:0x400743dfee00 size:8 presentcount:0+3 line:616 name:var%nityp(:)
host:0x378c1590 device:0x400743dbd000 size:16 presentcount:0+2 line:430 name:var%psrmax(:)
host:0x378c1b50 device:0x400743fe8a00 size:4320 presentcount:0+3 line:616 name:var%ityp(:)
host:0x378c2c60 device:0x400743dfec00 size:8 presentcount:0+3 line:616 name:var%lmmax(:)
host:0x378c2c90 device:0x400743dff000 size:8 presentcount:0+3 line:616 name:var%nt_global(:)
host:0x378c2cc0 device:0x400743df6800 size:4320 presentcount:0+3 line:616 name:var%npro_pos(:)
host:0x378c3dd0 device:0x400743df5400 size:4324 presentcount:0+3 line:616 name:var%lmbase(:)
host:0x378c4ee0 device:0x400743dff800 size:4 presentcount:0+2 line:616 name:var%nplwkp(:)
host:0x378c4f10 device:0x400743dffa00 size:4 presentcount:0+2 line:616 name:var%nplwkp_tot(:)
host:0x378c4f40 device:0x400743dffc00 size:4 presentcount:0+2 line:616 name:var%ngvector_pos(:)
host:0x378c4f70 device:0x400743dff600 size:4 presentcount:0+2 line:616 name:var%ngvector(:)
host:0x378c4fa0 device:0x400743dbe600 size:1280 presentcount:0+4 line:519 name:var%lpctx(:)
host:0x378c54d0 device:0x400743dbec00 size:720 presentcount:0+4 line:519 name:var%lpcty(:)
host:0x378c57d0 device:0x400743dbf400 size:1280 presentcount:0+4 line:519 name:var%lpctx_(:)
host:0x378c5d00 device:0x400743dbfa00 size:720 presentcount:0+4 line:519 name:var%lpcty_(:)
host:0x378c6000 device:0x400743dbfe00 size:1000 presentcount:0+4 line:519 name:var%lpctz_(:)
host:0x378c6410 device:0x4005f03fb400 size:1280 presentcount:0+1 line:519 name:var%lpctx(:)
host:0x378c6940 device:0x4005f03fba00 size:720 presentcount:0+1 line:519 name:var%lpcty(:)
host:0x378c6c40 device:0x4005f03fbe00 size:1000 presentcount:0+1 line:519 name:var%lpctz(:)
host:0x378c7050 device:0x4005f03fc200 size:1280 presentcount:0+1 line:519 name:var%lpctx_(:)
host:0x378c7580 device:0x4005f03fc800 size:720 presentcount:0+1 line:519 name:var%lpcty_(:)
host:0x378c7880 device:0x4005f03fcc00 size:1000 presentcount:0+1 line:519 name:var%lpctz_(:)
host:0x378c7c90 device:0x400743ff7c00 size:2560 presentcount:0+1 line:519 name:var%lpctx(:)
host:0x378c86c0 device:0x400743ffaa00 size:1440 presentcount:0+1 line:519 name:var%lpcty(:)
host:0x378c8c90 device:0x400743ff8800 size:2000 presentcount:0+1 line:519 name:var%lpctz(:)
host:0x378c9490 device:0x400743ffb000 size:2560 presentcount:0+1 line:519 name:var%lpctx_(:)
host:0x378c9ec0 device:0x400743ffba00 size:1440 presentcount:0+1 line:519 name:var%lpcty_(:)
host:0x378ca490 device:0x400743ffc000 size:2000 presentcount:0+1 line:519 name:var%lpctz_(:)
host:0x379bdaf0 device:0x400743ffc800 size:5648 presentcount:0+1 line:482 name:var%i2(:)
host:0x379bf130 device:0x400743ffe000 size:5648 presentcount:0+1 line:482 name:var%i3(:)
host:0x379c0770 device:0x4005f03f4c00 size:10040 presentcount:0+1 line:482 name:var%i2(:)
host:0x379c2ed0 device:0x4005f03f7400 size:10040 presentcount:0+1 line:482 name:var%i3(:)
host:0x379c5630 device:0x4005f03ed800 size:14400 presentcount:0+2 line:482 name:var%i2(:)
host:0x379c8ea0 device:0x4005f03f1200 size:14400 presentcount:0+2 line:482 name:var%i3(:)
host:0x379ccb30 device:0x4007db85fa00 size:921600 presentcount:0+2 line:482 name:var%index(:,:)
host:0x37aadb60 device:0x4007441ec400 size:2560 presentcount:0+1 line:569 name:var%ind1(:)
host:0x37aae590 device:0x4007441ece00 size:5648 presentcount:0+1 line:569 name:var%indcol(:)
host:0x37aafbd0 device:0x4005f03fd400 size:5648 presentcount:0+1 line:482 name:var%i2(:)
host:0x37ab1210 device:0x4007441e8a00 size:5648 presentcount:0+1 line:482 name:var%i3(:)
host:0x37ab2850 device:0x4005f03fec00 size:2520 presentcount:0+1 line:482 name:var%i2(:)
host:0x37ab3250 device:0x4005f03ff600 size:2520 presentcount:0+1 line:482 name:var%i3(:)
host:0x37aec080 device:0x4007441eac00 size:260 presentcount:0+1 line:499 name:var%ptr(:)
host:0x37aec1b0 device:0x4007441eaa00 size:260 presentcount:0+1 line:499 name:var%n(:)
host:0x37aec2e0 device:0x4007441eb200 size:4 presentcount:0+1 line:499 name:var%tbli(:)
host:0x37aec310 device:0x4007441eb000 size:260 presentcount:0+1 line:499 name:var%ptri(:)
host:0x37aec440 device:0x4007441eae00 size:260 presentcount:0+1 line:499 name:var%ni(:)
host:0x37aed000 device:0x4004be3ff200 size:260 presentcount:0+1 line:499 name:var%ptr(:)
host:0x37aed130 device:0x4004be3fde00 size:260 presentcount:0+1 line:499 name:var%n(:)
host:0x37aedd00 device:0x4007441eb600 size:1280 presentcount:0+1 line:569 name:var%ind1(:)
host:0x37aee230 device:0x4007441ebc00 size:1388 presentcount:0+1 line:569 name:var%indcol(:)
host:0x37aee7d0 device:0x4005f0338600 size:180000 presentcount:0+4 line:482 name:var%i2(:)
host:0x37b1a720 device:0x4005f0364600 size:180000 presentcount:0+4 line:482 name:var%i3(:)
host:0x37b46670 device:0x400743dc8a00 size:180000 presentcount:0+8 line:482 name:var%index(:,:)
host:0x37b725c0 device:0x4007443bca00 size:180000 presentcount:0+8 line:482 name:var%i2(:)
host:0x37b9e510 device:0x4005f0391800 size:180000 presentcount:0+8 line:482 name:var%i3(:)
host:0x37bcaa90 device:0x400743e00000 size:1821184 presentcount:0+3 line:616 name:var%nindpw(:,:)
host:0x37d874c0 device:0x400743df5200 size:8 presentcount:0+2 line:616 name:var%nb_totk(:,:)
host:0x37d874f0 device:0x400743dffe00 size:4 presentcount:0+2 line:616 name:var%luseinv(:)
host:0x37d87520 device:0x400743dbcc00 size:4 presentcount:0+2 line:616 name:var%at_gamma(:)
host:0x37d87550 device:0x400743fbca00 size:180000 presentcount:0+3 line:616 name:var%pl_index(:,:)
host:0x37db34a0 device:0x4007441bca00 size:180000 presentcount:0+3 line:616 name:var%pl_col(:,:)
host:0x37ddf3f0 device:0x400743ff9400 size:8 presentcount:0+2 line:405 name:var%lmmax(:)
host:0x37ddf420 device:0x4004be3ffe00 size:8 presentcount:0+2 line:430 name:var%lmax(:)
host:0x37ddf450 device:0x400743feae00 size:4324 presentcount:0+2 line:405 name:var%lmbase(:)
host:0x37de0560 device:0x400743dbca00 size:8 presentcount:0+2 line:430 name:var%lmmax(:)
host:0x37de0590 device:0x400743dbce00 size:8 presentcount:0+2 line:430 name:var%channels(:)
host:0x37de05c0 device:0x40069c3ffc00 size:16 presentcount:0+2 line:430 name:var%rsmooth(:)
host:0x37de0600 device:0x4004be3fcc00 size:4320 presentcount:0+2 line:430 name:var%nlimax(:)
host:0x37de1710 device:0x4004be3fe000 size:4324 presentcount:0+2 line:430 name:var%lmbase(:)
host:0x37de2820 device:0x4005f0390600 size:4324 presentcount:0+2 line:430 name:var%nlibase(:)
host:0x37de3930 device:0x400743dc0200 size:17132 presentcount:0+4 line:519 name:var%nindpwconjg(:)
host:0x37de7c50 device:0x400743dc4600 size:17132 presentcount:0+4 line:519 name:var%ind_in_sphere(:)
host:0x37ded5b0 device:0x4005f03f9c00 size:260 presentcount:0+1 line:499 name:var%ni(:)
host:0x37dff580 device:0x400743fffa00 size:260 presentcount:0+1 line:499 name:var%ptri(:)
host:0x37dff6b0 device:0x400743fff800 size:260 presentcount:0+1 line:499 name:var%ni(:)
host:0x37dff7e0 device:0x400743fffe00 size:260 presentcount:0+1 line:499 name:var%ptr(:)
host:0x37dff910 device:0x400743fffc00 size:260 presentcount:0+1 line:499 name:var%n(:)
host:0x37dffa40 device:0x4005f03f9e00 size:260 presentcount:0+1 line:499 name:var%ptri(:)
host:0x37f45c80 device:0x400744c00000 size:7284736 presentcount:0+3 line:616 name:var%datake(:,:,:)
host:0x38638f00 device:0x400744000000 size:1821184 presentcount:0+3 line:616 name:var%igx(:,:)
host:0x387f6590 device:0x400743c00000 size:1821184 presentcount:0+3 line:616 name:var%igy(:,:)
host:0x389b3e30 device:0x400744200000 size:1821184 presentcount:0+3 line:616 name:var%igz(:,:)
host:0x38b71d00 device:0x40075cc00000 size:7284272 presentcount:0+4 line:519 name:var%fftsca(:,:)
host:0x3929c790 device:0x4007db940a00 size:444160 presentcount:0+1 line:499 name:var%tbl(:)
host:0x393755f0 device:0x401004400000 size:453600 presentcount:0+1 line:499 name:var%tbli(:)
host:0x393e4200 device:0x40100446ec00 size:453600 presentcount:0+1 line:499 name:var%tbl(:)
host:0x395550e0 device:0x401003400000 size:3614720 presentcount:0+1 line:499 name:var%tbl(:)
host:0x398cb900 device:0x401004600000 size:2799360 presentcount:0+2 line:194 name:cqij(:,:,:,:)
host:0x39ba2420 device:0x4004be3f1000 size:41472 presentcount:0+1 line:746 name:var%auxtot(:,:,:)
host:0x39bb0030 device:0x4005f0324200 size:82944 presentcount:0+2 line:746 name:var%celtot(:,:,:)
host:0x39bc4460 device:0x4005f031a000 size:41472 presentcount:0+2 line:746 name:var%fertot(:,:,:)
host:0x39c3d4d0 device:0x401003800000 size:3614400 presentcount:0+1 line:499 name:var%tbli(:)
host:0x39fb18a0 device:0x401003c00000 size:3614400 presentcount:0+1 line:499 name:var%tbl(:)
host:0x3a69a670 device:0x401004000000 size:3614400 presentcount:0+1 line:499 name:var%tbli(:)
host:0x3b7e4220 device:0x4007dba00000 size:2799360 presentcount:0+2 line:194 name:cdij(:,:,:,:)
host:0x3c17f050 device:0x4007dbe00000 size:7962624 presentcount:0+5 line:746 name:var%gproj(:,:,:,:)
host:0x3cbf3d20 device:0x4005f03d5800 size:98304 presentcount:0+1 line:1101 name:w1%gproj(:)
host:0x3cc72490 device:0x4010045fd800 size:2048 presentcount:0+1 line:179 name:w1(:)
host:0x3cc72cb0 device:0x4007443fb800 size:2048 presentcount:0+1 line:179 name:wtmp(:)
host:0x3cdfa310 device:0x40100459d800 size:393216 presentcount:0+2 line:1226 name:wa%gproj(:,:)
host:0x3ce5a340 device:0x401206c00000 size:393216 presentcount:0+2 line:1226 name:wa%gproj(:,:)
host:0x3ceba370 device:0x4005f03bd800 size:98304 presentcount:0+1 line:1101 name:w1%gproj(:)
host:0x3ced23a0 device:0x4007db9c7000 size:98304 presentcount:0+1 line:1101 name:w1%gproj(:)
host:0x3ceea3d0 device:0x4007db9df000 size:98304 presentcount:0+1 line:1101 name:w1%gproj(:)
host:0x459d5b00 device:0x401214e00000 size:3145728 presentcount:0+2 line:1226 name:wa%gproj(:,:)
host:0x4ab02170 device:0x401215200000 size:14569472 presentcount:0+1 line:202 name:precon(:,:)
host:0x4b8ee310 device:0x400744400000 size:7284736 presentcount:0+1 line:1101 name:w1%cptwfp(:)
host:0x4bfe82e0 device:0x400743400000 size:7284736 presentcount:0+1 line:1101 name:w1%cptwfp(:)
host:0x4c6e28e0 device:0x400f4ce00000 size:7284736 presentcount:0+1 line:1101 name:w1%cptwfp(:)
host:0x4cddd510 device:0x400f4f800000 size:7284736 presentcount:0+1 line:1101 name:w1%cptwfp(:)
host:0x4004f99a10a0 device:0x400745400000 size:45593280 presentcount:0+2 line:430 name:var%nli(:,:)
host:0x400558dd35c0 device:0x401004a00000 size:14400000 presentcount:0+1 line:195 name:dencor(:)
host:0x40055a9639e0 device:0x401005800000 size:28917760 presentcount:0+1 line:195 name:cstrf(:,:)
host:0x4006000012b0 device:0x400760000000 size:807411968 presentcount:0+2 line:430 name:var%rproj(:)
host:0x4006302131a0 device:0x4007c0000000 size:230400000 presentcount:0+2 line:194 name:sv(:,:)
host:0x4006e0004a60 device:0x400720000000 size:590063616 presentcount:0+5 line:746 name:var%cptwfp(:,:,:,:)
host:0x4007032c6950 device:0x401203400000 size:29138944 presentcount:0+2 line:1226 name:wa%cptwfp(:,:)
host:0x400704ea6b60 device:0x401205000000 size:29138944 presentcount:0+2 line:1226 name:wa%cptwfp(:,:)
host:0x4007a0006d70 device:0x401206e00000 size:233111552 presentcount:0+2 line:1226 name:wa%cptwfp(:,:)
host:0x4007ade673a0 device:0x400fe5600000 size:230400000 presentcount:0+1 line:1101 name:w1%cr(:)
host:0x4008032c75b0 device:0x400790400000 size:230400000 presentcount:0+1 line:1236 name:w1%cr(:)
host:0x400810e979d0 device:0x4007cdc00000 size:230400000 presentcount:0+1 line:1101 name:w1%cr(:)
host:0x400860007be0 device:0x400748000000 size:230400000 presentcount:0+1 line:1236 name:w1%cr(:)
host:0x40086dbd8000 device:0x4011c3400000 size:230400000 presentcount:0+1 line:1101 name:w1%cr(:)
host:0x40087b7a8210 device:0x4011d1000000 size:230400000 presentcount:0+1 line:1236 name:w1%cr(:)
host:0x400889370020 device:0x401183400000 size:230400000 presentcount:0+1 line:1101 name:w1%cr(:)
host:0x400d60000230 device:0x401191000000 size:230400000 presentcount:0+1 line:1236 name:w1%cr(:)
host:0x400ee0002750 device:0x401220000000 size:921600000 presentcount:0+1 line:1005 name:cwork1(:,:)
host:0xffffddfd0ff0 device:0x4007443fc400 size:3024 presentcount:0+12 line:682 name:var
host:0xffffddfd1bc0 device:0x40065c5ff800 size:1480 presentcount:0+1 line:174 name:w_ini
host:0xffffddfd2190 device:0x4007443fae00 size:1480 presentcount:0+1 line:174 name:wopt
host:0xffffddfd2760 device:0x40069c3ff400 size:1480 presentcount:0+1 line:174 name:wtmpa
allocated block device:0x4004be3f0600 size:2560 thread:1
allocated block device:0x4004be3f1000 size:41472 thread:1
allocated block device:0x4004be3fb200 size:5120 thread:1
allocated block device:0x4004be3fc600 size:512 thread:1
allocated block device:0x4004be3fc800 size:512 thread:1
allocated block device:0x4004be3fca00 size:512 thread:1
allocated block device:0x4004be3fcc00 size:4608 thread:1
allocated block device:0x4004be3fde00 size:512 thread:1
allocated block device:0x4004be3fe000 size:4608 thread:1
allocated block device:0x4004be3ff200 size:512 thread:1
allocated block device:0x4004be3ff400 size:512 thread:1
allocated block device:0x4004be3ff600 size:512 thread:1
allocated block device:0x4004be3ff800 size:512 thread:1
allocated block device:0x4004be3ffa00 size:512 thread:1
allocated block device:0x4004be3ffc00 size:512 thread:1
allocated block device:0x4004be3ffe00 size:512 thread:1
allocated block device:0x4005f031a000 size:41472 thread:1
allocated block device:0x4005f0324200 size:82944 thread:1
allocated block device:0x4005f0338600 size:180224 thread:1
allocated block device:0x4005f0364600 size:180224 thread:1
allocated block device:0x4005f0390600 size:4608 thread:1
allocated block device:0x4005f0391800 size:180224 thread:1
allocated block device:0x4005f03bd800 size:98304 thread:1
allocated block device:0x4005f03d5800 size:98304 thread:1
allocated block device:0x4005f03ed800 size:14848 thread:1
allocated block device:0x4005f03f1200 size:14848 thread:1
allocated block device:0x4005f03f4c00 size:10240 thread:1
allocated block device:0x4005f03f7400 size:10240 thread:1
allocated block device:0x4005f03f9c00 size:512 thread:1
allocated block device:0x4005f03f9e00 size:512 thread:1
allocated block device:0x4005f03fa000 size:5120 thread:1
allocated block device:0x4005f03fb400 size:1536 thread:1
allocated block device:0x4005f03fba00 size:1024 thread:1
allocated block device:0x4005f03fbe00 size:1024 thread:1
allocated block device:0x4005f03fc200 size:1536 thread:1
allocated block device:0x4005f03fc800 size:1024 thread:1
allocated block device:0x4005f03fcc00 size:1024 thread:1
allocated block device:0x4005f03fd000 size:1024 thread:1
allocated block device:0x4005f03fd400 size:6144 thread:1
allocated block device:0x4005f03fec00 size:2560 thread:1
allocated block device:0x4005f03ff600 size:2560 thread:1
allocated block device:0x40065c5ff400 size:1024 thread:1
allocated block device:0x40065c5ff800 size:1536 thread:1
allocated block device:0x40069c3ff400 size:2048 thread:1
allocated block device:0x40069c3ffc00 size:512 thread:1
allocated block device:0x40069c3ffe00 size:512 thread:1
allocated block device:0x400720000000 size:590063616 thread:1
allocated block device:0x400743400000 size:7962624 thread:1
allocated block device:0x400743c00000 size:1821184 thread:1
allocated block device:0x400743dbca00 size:512 thread:1
allocated block device:0x400743dbcc00 size:512 thread:1
allocated block device:0x400743dbce00 size:512 thread:1
allocated block device:0x400743dbd000 size:512 thread:1
allocated block device:0x400743dbd200 size:5120 thread:1
allocated block device:0x400743dbe600 size:1536 thread:1
allocated block device:0x400743dbec00 size:1024 thread:1
allocated block device:0x400743dbf000 size:1024 thread:1
allocated block device:0x400743dbf400 size:1536 thread:1
allocated block device:0x400743dbfa00 size:1024 thread:1
allocated block device:0x400743dbfe00 size:1024 thread:1
allocated block device:0x400743dc0200 size:17408 thread:1
allocated block device:0x400743dc4600 size:17408 thread:1
allocated block device:0x400743dc8a00 size:180224 thread:1
allocated block device:0x400743df4a00 size:2048 thread:1
allocated block device:0x400743df5200 size:512 thread:1
allocated block device:0x400743df5400 size:4608 thread:1
allocated block device:0x400743df6600 size:512 thread:1
allocated block device:0x400743df6800 size:4608 thread:1
allocated block device:0x400743df7a00 size:26112 thread:1
allocated block device:0x400743dfe000 size:3072 thread:1
allocated block device:0x400743dfec00 size:512 thread:1
allocated block device:0x400743dfee00 size:512 thread:1
allocated block device:0x400743dff000 size:512 thread:1
allocated block device:0x400743dff200 size:512 thread:1
allocated block device:0x400743dff400 size:512 thread:1
allocated block device:0x400743dff600 size:512 thread:1
allocated block device:0x400743dff800 size:512 thread:1
allocated block device:0x400743dffa00 size:512 thread:1
allocated block device:0x400743dffc00 size:512 thread:1
allocated block device:0x400743dffe00 size:512 thread:1
allocated block device:0x400743e00000 size:1821184 thread:1
allocated block device:0x400743fbca00 size:180224 thread:1
allocated block device:0x400743fe8a00 size:4608 thread:1
allocated block device:0x400743fe9c00 size:4608 thread:1
allocated block device:0x400743feae00 size:4608 thread:1
allocated block device:0x400743fec000 size:24064 thread:1
allocated block device:0x400743ff1e00 size:24064 thread:1
allocated block device:0x400743ff7c00 size:3072 thread:1
allocated block device:0x400743ff8800 size:3072 thread:1
allocated block device:0x400743ff9400 size:512 thread:1
allocated block device:0x400743ff9600 size:5120 thread:1
allocated block device:0x400743ffaa00 size:1536 thread:1
allocated block device:0x400743ffb000 size:2560 thread:1
allocated block device:0x400743ffba00 size:1536 thread:1
allocated block device:0x400743ffc000 size:2048 thread:1
allocated block device:0x400743ffc800 size:6144 thread:1
allocated block device:0x400743ffe000 size:6144 thread:1
allocated block device:0x400743fff800 size:512 thread:1
allocated block device:0x400743fffa00 size:512 thread:1
allocated block device:0x400743fffc00 size:512 thread:1
allocated block device:0x400743fffe00 size:512 thread:1
allocated block device:0x400744000000 size:1821184 thread:1
allocated block device:0x4007441bca00 size:180224 thread:1
allocated block device:0x4007441e8a00 size:6144 thread:1
allocated block device:0x4007441ea200 size:512 thread:1
allocated block device:0x4007441ea400 size:512 thread:1
allocated block device:0x4007441ea600 size:512 thread:1
allocated block device:0x4007441ea800 size:512 thread:1
allocated block device:0x4007441eaa00 size:512 thread:1
allocated block device:0x4007441eac00 size:512 thread:1
allocated block device:0x4007441eae00 size:512 thread:1
allocated block device:0x4007441eb000 size:512 thread:1
allocated block device:0x4007441eb200 size:512 thread:1
allocated block device:0x4007441eb400 size:512 thread:1
allocated block device:0x4007441eb600 size:1536 thread:1
allocated block device:0x4007441ebc00 size:1536 thread:1
allocated block device:0x4007441ec200 size:512 thread:1
allocated block device:0x4007441ec400 size:2560 thread:1
allocated block device:0x4007441ece00 size:6144 thread:1
allocated block device:0x4007441ee600 size:28672 thread:1
allocated block device:0x4007441f5600 size:40448 thread:1
allocated block device:0x4007441ff400 size:512 thread:1
allocated block device:0x400744200000 size:1821184 thread:1
allocated block device:0x4007443bca00 size:180224 thread:1
allocated block device:0x4007443e8a00 size:8192 thread:1
allocated block device:0x4007443eaa00 size:8192 thread:1
allocated block device:0x4007443eca00 size:40448 thread:1
allocated block device:0x4007443f6800 size:8192 thread:1
allocated block device:0x4007443fae00 size:2560 thread:1
allocated block device:0x4007443fb800 size:3072 thread:1
allocated block device:0x4007443fc400 size:3072 thread:1
allocated block device:0x400744400000 size:7284736 thread:1
allocated block device:0x400744c00000 size:7284736 thread:1
allocated block device:0x400745400000 size:45593600 thread:1
allocated block device:0x400748000000 size:230400000 thread:1
allocated block device:0x40075cc00000 size:7284736 thread:1
allocated block device:0x400760000000 size:807412224 thread:1
allocated block device:0x400790400000 size:230400000 thread:1
allocated block device:0x4007c0000000 size:230400000 thread:1
allocated block device:0x4007cdc00000 size:230400000 thread:1
allocated block device:0x4007db85fa00 size:921600 thread:1
allocated block device:0x4007db940a00 size:444416 thread:1
allocated block device:0x4007db9c7000 size:98304 thread:1
allocated block device:0x4007db9df000 size:98304 thread:1
allocated block device:0x4007dba00000 size:2799616 thread:1
allocated block device:0x4007dbe00000 size:7962624 thread:1
allocated block device:0x400f4ce00000 size:14400000 thread:1
allocated block device:0x400f4f800000 size:14400000 thread:1
allocated block device:0x400fe5600000 size:230400000 thread:1
allocated block device:0x401003400000 size:3614720 thread:1
allocated block device:0x401003800000 size:3614720 thread:1
allocated block device:0x401003c00000 size:3614720 thread:1
allocated block device:0x401004000000 size:3614720 thread:1
allocated block device:0x401004400000 size:453632 thread:1
allocated block device:0x40100446ec00 size:453632 thread:1
allocated block device:0x40100459d800 size:393216 thread:1
allocated block device:0x4010045fd800 size:2048 thread:1
allocated block device:0x401004600000 size:2799616 thread:1
allocated block device:0x401004a00000 size:14400000 thread:1
allocated block device:0x401005800000 size:28917760 thread:1
allocated block device:0x401183400000 size:230400000 thread:1
allocated block device:0x401191000000 size:230400000 thread:1
allocated block device:0x4011c3400000 size:230400000 thread:1
allocated block device:0x4011d1000000 size:230400000 thread:1
allocated block device:0x401203400000 size:29138944 thread:1
allocated block device:0x401205000000 size:29138944 thread:1
allocated block device:0x401206c00000 size:393216 thread:1
allocated block device:0x401206e00000 size:233111552 thread:1
allocated block device:0x401214e00000 size:3145728 thread:1
allocated block device:0x401215200000 size:14569472 thread:1
allocated block device:0x401220000000 size:921600000 thread:1
Accelerator Fatal Error: call to cuMemAlloc returned error 2 (CUDA_ERROR_OUT_OF_MEMORY): Out of memory
 File: /lus/lfs1aip2/projects/u6cb/software/VASP/vasp.6.5.1/build/gam/fft_base.f90
 Function: restride_r2q_cmplx:945
 Line: 964

Out of memory allocating 921600000 bytes of device memory
Failing in Thread:1
total/free CUDA memory: 102005473280/626786304
Present table dump for device[1]: NVIDIA Tesla GPU 0, compute capability 9.0, threadid=1
Hint: specify 0x800 bit in NV_ACC_DEBUG for verbose info.
host:0x2557280 device:0x4005e3df6600 size:32 presentcount:0+3 line:643 name:var%comm
host:0x25572a0 device:0x40033e3ffa00 size:32 presentcount:0+4 line:652 name:var%comm_kinter
host:0x25572c0 device:0x40033e3ffc00 size:32 presentcount:0+6 line:655 name:var%comm_kin
host:0x25572e0 device:0x40033e3ff400 size:32 presentcount:0+3 line:646 name:var%comm_inter
host:0x2557300 device:0x40033e3ff600 size:32 presentcount:0+7 line:649 name:var%comm_inb
host:0x256be80 device:0x40033a0ecd00 size:8 presentcount:0+1 line:-1 name:_setexm_struct_def_21
host:0x2576f40 device:0x40033a0ece00 size:28 presentcount:0+1 line:-1 name:_ml_ff_constant_21
host:0x2577c80 device:0x40033a0ecf00 size:30437 presentcount:0+1 line:-1 name:_ml_ff_taglist_21
host:0x25afc80 device:0x40033a0f4600 size:8 presentcount:0+1 line:-1 name:_mopenacc_tutor_21
host:0x25c2740 device:0x40033a0f4a00 size:32 presentcount:0+1 line:-1 name:_mbj_21
host:0x25cd640 device:0x40033a0f4d00 size:8 presentcount:0+1 line:-1 name:_sym_prec_21
host:0x26030c0 device:0x40033a0f4e00 size:344 presentcount:0+1 line:-1 name:_tet_21
host:0x261c840 device:0x40033a0f5000 size:392 presentcount:0+1 line:-1 name:_mymath_21
host:0x2817368 device:0x4005e3dbd200 size:4800 presentcount:0+2 line:614 name:var
host:0x2818628 device:0x4005e3df4a00 size:1984 presentcount:0+2 line:403 name:var
host:0x281a910 device:0x4005071ff400 size:864 presentcount:0+4 line:2639 name:hamiltonian
host:0x286ac80 device:0x4005e3dfe000 size:2712 presentcount:0+2 line:428 name:var
host:0x286b718 device:0x40033e3f0600 size:2248 presentcount:0+1 line:742 name:var
host:0x286eb50 device:0x4005e41ff400 size:288 presentcount:0+1 line:195 name:latt_cur
host:0x2871658 device:0x40033e3fb200 size:5088 presentcount:0+28 line:517 name:var
host:0x2872a38 device:0x4004943fa000 size:5088 presentcount:0+6 line:517 name:var
host:0x2873e18 device:0x4005e3ff9600 size:5088 presentcount:0+7 line:517 name:var
host:0x287a2a8 device:0x4005e41eb400 size:304 presentcount:0+1 line:567 name:var
host:0x287a3d8 device:0x4005e41ec200 size:304 presentcount:0+1 line:567 name:var
host:0x2e48ec0 device:0x40033a002600 size:960024 presentcount:0+1 line:-1 name:_setexm_struct_def_16
host:0x2f8f080 device:0x40033a0f4700 size:580 presentcount:0+1 line:-1 name:_wpbe_16
host:0x2f8f900 device:0x40033a0f4b00 size:288 presentcount:0+1 line:-1 name:_mbj_16
host:0x9f446c0 device:0x40033a0f5200 size:624 presentcount:0+1 line:-1 name:_mlr_optic_16
host:0x3f504e60 device:0x4005e3dbf000 size:1000 presentcount:0+4 line:519 name:var%lpctz(:)
host:0x3f507e30 device:0x4005e41ea800 size:260 presentcount:0+1 line:499 name:var%ptri(:)
host:0x3f508120 device:0x4005e41ea200 size:260 presentcount:0+1 line:499 name:var%n(:)
host:0x3fc494b0 device:0x4004943fd000 size:528 presentcount:0+1 line:480 name:var
host:0x3fc49b70 device:0x4005e41ea400 size:260 presentcount:0+1 line:499 name:var%ptr(:)
host:0x43d06720 device:0x4005471ffe00 size:400 presentcount:0+2 line:464 name:var
host:0x43d068b0 device:0x40033e3fc800 size:400 presentcount:0+2 line:464 name:var
host:0x4839e610 device:0x40033e3ff800 size:8 presentcount:0+4 line:405 name:var%nityp(:)
host:0x48d1b440 device:0x4005e41ee600 size:28464 presentcount:0+1 line:853 name:var(:)
host:0x48d263c0 device:0x4005e41f5600 size:40000 presentcount:0+1 line:857 name:var%psp(:,:)
host:0x48d30030 device:0x4005e43e8a00 size:8000 presentcount:0+1 line:857 name:var%pspcor(:)
host:0x48d31fa0 device:0x4005e43eaa00 size:8000 presentcount:0+1 line:857 name:var%psprho(:)
host:0x48d35230 device:0x4005e3fec000 size:24000 presentcount:0+2 line:466 name:var%psprnl(:,:,:)
host:0x48d52120 device:0x4005e43eca00 size:40000 presentcount:0+1 line:857 name:var%psp(:,:)
host:0x48d5bd90 device:0x4005e43f6800 size:8000 presentcount:0+1 line:857 name:var%psprho(:)
host:0x48d5f020 device:0x4005e3ff1e00 size:24000 presentcount:0+2 line:466 name:var%psprnl(:,:,:)
host:0x48d8ea00 device:0x4005e3fe9c00 size:4320 presentcount:0+4 line:405 name:var%ityp(:)
host:0x48d8fb10 device:0x4005e3df7a00 size:25920 presentcount:0+4 line:405 name:var%posion(:,:)
host:0x48dfdd20 device:0x40033e3fc600 size:24 presentcount:0+3 line:466 name:var%lps(:)
host:0x48dfddd0 device:0x40033e3fca00 size:24 presentcount:0+3 line:466 name:var%lps(:)
host:0x4949cb60 device:0x4005e3dff400 size:8 presentcount:0+2 line:616 name:var%wtkpt(:)
host:0x4949cb90 device:0x4005e3dfee00 size:8 presentcount:0+3 line:616 name:var%nityp(:)
host:0x49643a90 device:0x4005e3dff200 size:24 presentcount:0+3 line:616 name:var%vkpt(:,:)
host:0x49668d40 device:0x4005e3dbd000 size:16 presentcount:0+2 line:430 name:var%psrmax(:)
host:0x49669300 device:0x4005e3fe8a00 size:4320 presentcount:0+3 line:616 name:var%ityp(:)
host:0x4966a410 device:0x4005e3dfec00 size:8 presentcount:0+3 line:616 name:var%lmmax(:)
host:0x4966a440 device:0x4005e3dff000 size:8 presentcount:0+3 line:616 name:var%nt_global(:)
host:0x4966a470 device:0x4005e3df6800 size:4320 presentcount:0+3 line:616 name:var%npro_pos(:)
host:0x4966b580 device:0x4005e3df5400 size:4324 presentcount:0+3 line:616 name:var%lmbase(:)
host:0x4966c690 device:0x4005e3dff800 size:4 presentcount:0+2 line:616 name:var%nplwkp(:)
host:0x4966c6c0 device:0x4005e3dffa00 size:4 presentcount:0+2 line:616 name:var%nplwkp_tot(:)
host:0x4966c6f0 device:0x4005e3dffc00 size:4 presentcount:0+2 line:616 name:var%ngvector_pos(:)
host:0x4966c720 device:0x4005e3dff600 size:4 presentcount:0+2 line:616 name:var%ngvector(:)
host:0x4966c750 device:0x4005e3dbe600 size:1280 presentcount:0+4 line:519 name:var%lpctx(:)
host:0x4966cc80 device:0x4005e3dbec00 size:720 presentcount:0+4 line:519 name:var%lpcty(:)
host:0x4966cf80 device:0x4005e3dbf400 size:1280 presentcount:0+4 line:519 name:var%lpctx_(:)
host:0x4966d4b0 device:0x4005e3dbfa00 size:720 presentcount:0+4 line:519 name:var%lpcty_(:)
host:0x4966d7b0 device:0x4005e3dbfe00 size:1000 presentcount:0+4 line:519 name:var%lpctz_(:)
host:0x4966dbc0 device:0x4004943fb400 size:1280 presentcount:0+1 line:519 name:var%lpctx(:)
host:0x4966e0f0 device:0x4004943fba00 size:720 presentcount:0+1 line:519 name:var%lpcty(:)
host:0x4966e3f0 device:0x4004943fbe00 size:1000 presentcount:0+1 line:519 name:var%lpctz(:)
host:0x4966e800 device:0x4004943fc200 size:1280 presentcount:0+1 line:519 name:var%lpctx_(:)
host:0x4966ed30 device:0x4004943fc800 size:720 presentcount:0+1 line:519 name:var%lpcty_(:)
host:0x4966f030 device:0x4004943fcc00 size:1000 presentcount:0+1 line:519 name:var%lpctz_(:)
host:0x4966f440 device:0x4005e3ff7c00 size:2560 presentcount:0+1 line:519 name:var%lpctx(:)
host:0x4966fe70 device:0x4005e3ffaa00 size:1440 presentcount:0+1 line:519 name:var%lpcty(:)
host:0x49670440 device:0x4005e3ff8800 size:2000 presentcount:0+1 line:519 name:var%lpctz(:)
host:0x49670c40 device:0x4005e3ffb000 size:2560 presentcount:0+1 line:519 name:var%lpctx_(:)
host:0x49671670 device:0x4005e3ffba00 size:1440 presentcount:0+1 line:519 name:var%lpcty_(:)
host:0x49671c40 device:0x4005e3ffc000 size:2000 presentcount:0+1 line:519 name:var%lpctz_(:)
host:0x497652a0 device:0x4005e3ffc800 size:5644 presentcount:0+1 line:482 name:var%i2(:)
host:0x497668e0 device:0x4005e3ffe000 size:5644 presentcount:0+1 line:482 name:var%i3(:)
host:0x49767f20 device:0x4004943f4c00 size:10040 presentcount:0+1 line:482 name:var%i2(:)
host:0x4976a680 device:0x4004943f7400 size:10040 presentcount:0+1 line:482 name:var%i3(:)
host:0x4976cde0 device:0x4004943ed800 size:14400 presentcount:0+2 line:482 name:var%i2(:)
host:0x49770650 device:0x4004943f1200 size:14400 presentcount:0+2 line:482 name:var%i3(:)
host:0x497742e0 device:0x40065b85fa00 size:921600 presentcount:0+2 line:482 name:var%index(:,:)
host:0x49855310 device:0x4005e41ec400 size:2560 presentcount:0+1 line:569 name:var%ind1(:)
host:0x49855d40 device:0x4005e41ece00 size:5644 presentcount:0+1 line:569 name:var%indcol(:)
host:0x49857380 device:0x4004943fd400 size:5644 presentcount:0+1 line:482 name:var%i2(:)
host:0x498589c0 device:0x4005e41e8a00 size:5644 presentcount:0+1 line:482 name:var%i3(:)
host:0x4985a000 device:0x4004943fec00 size:2520 presentcount:0+1 line:482 name:var%i2(:)
host:0x4985aa00 device:0x4004943ff600 size:2520 presentcount:0+1 line:482 name:var%i3(:)
host:0x4985b400 device:0x40033e3fcc00 size:4320 presentcount:0+2 line:430 name:var%nlimax(:)
host:0x4985c510 device:0x40033e3fe000 size:4324 presentcount:0+2 line:430 name:var%lmbase(:)
host:0x4985d620 device:0x400494390600 size:4324 presentcount:0+2 line:430 name:var%nlibase(:)
host:0x4985e730 device:0x4005e3dc0200 size:17132 presentcount:0+4 line:519 name:var%nindpwconjg(:)
host:0x49862a50 device:0x4005e3dc4600 size:17132 presentcount:0+4 line:519 name:var%ind_in_sphere(:)
host:0x498683b0 device:0x4005e3fffa00 size:260 presentcount:0+1 line:499 name:var%ptri(:)
host:0x498684e0 device:0x4005e3fff800 size:260 presentcount:0+1 line:499 name:var%ni(:)
host:0x49868610 device:0x4005e3fffe00 size:260 presentcount:0+1 line:499 name:var%ptr(:)
host:0x49868740 device:0x4005e3fffc00 size:260 presentcount:0+1 line:499 name:var%n(:)
host:0x49868870 device:0x4004943f9e00 size:260 presentcount:0+1 line:499 name:var%ptri(:)
host:0x498689a0 device:0x4004943f9c00 size:260 presentcount:0+1 line:499 name:var%ni(:)
host:0x49868d30 device:0x4005e41ea600 size:260 presentcount:0+1 line:499 name:var%ni(:)
host:0x49868e60 device:0x4005e41eac00 size:260 presentcount:0+1 line:499 name:var%ptr(:)
host:0x49868f90 device:0x4005e41eaa00 size:260 presentcount:0+1 line:499 name:var%n(:)
host:0x498690c0 device:0x4005e41eb200 size:4 presentcount:0+1 line:499 name:var%tbli(:)
host:0x498690f0 device:0x4005e41eb000 size:260 presentcount:0+1 line:499 name:var%ptri(:)
host:0x49869220 device:0x4005e41eae00 size:260 presentcount:0+1 line:499 name:var%ni(:)
host:0x49879ef0 device:0x40033e3ff200 size:260 presentcount:0+1 line:499 name:var%ptr(:)
host:0x4987a020 device:0x40033e3fde00 size:260 presentcount:0+1 line:499 name:var%n(:)
host:0x498954b0 device:0x4005e41eb600 size:1280 presentcount:0+1 line:569 name:var%ind1(:)
host:0x498959e0 device:0x4005e41ebc00 size:1384 presentcount:0+1 line:569 name:var%indcol(:)
host:0x49895f70 device:0x400494338600 size:180000 presentcount:0+4 line:482 name:var%i2(:)
host:0x498c1ec0 device:0x400494364600 size:180000 presentcount:0+4 line:482 name:var%i3(:)
host:0x498ede10 device:0x4005e3dc8a00 size:180000 presentcount:0+8 line:482 name:var%index(:,:)
host:0x49919d60 device:0x4005e43bca00 size:180000 presentcount:0+8 line:482 name:var%i2(:)
host:0x49945cb0 device:0x400494391800 size:180000 presentcount:0+8 line:482 name:var%i3(:)
host:0x49972230 device:0x4005e3e00000 size:1821184 presentcount:0+3 line:616 name:var%nindpw(:,:)
host:0x49b2ec60 device:0x4005e3df5200 size:8 presentcount:0+2 line:616 name:var%nb_totk(:,:)
host:0x49b2ec90 device:0x4005e3dffe00 size:4 presentcount:0+2 line:616 name:var%luseinv(:)
host:0x49b2ecc0 device:0x4005e3dbcc00 size:4 presentcount:0+2 line:616 name:var%at_gamma(:)
host:0x49b2ecf0 device:0x4005e3fbca00 size:180000 presentcount:0+3 line:616 name:var%pl_index(:,:)
host:0x49b5ac40 device:0x4005e41bca00 size:180000 presentcount:0+3 line:616 name:var%pl_col(:,:)
host:0x49b873d0 device:0x4005e4c00000 size:7284736 presentcount:0+3 line:616 name:var%datake(:,:,:)
host:0x4a27a650 device:0x4005e4000000 size:1821184 presentcount:0+3 line:616 name:var%igx(:,:)
host:0x4a437ce0 device:0x4005e3c00000 size:1821184 presentcount:0+3 line:616 name:var%igy(:,:)
host:0x4a5f5580 device:0x4005e4200000 size:1821184 presentcount:0+3 line:616 name:var%igz(:,:)
host:0x4a7b1fb0 device:0x4005e3ff9400 size:8 presentcount:0+2 line:405 name:var%lmmax(:)
host:0x4a7b1fe0 device:0x40033e3ffe00 size:8 presentcount:0+2 line:430 name:var%lmax(:)
host:0x4a7b2010 device:0x4005e3feae00 size:4324 presentcount:0+2 line:405 name:var%lmbase(:)
host:0x4a7b3120 device:0x4005e3dbca00 size:8 presentcount:0+2 line:430 name:var%lmmax(:)
host:0x4a7b3150 device:0x4005e3dbce00 size:8 presentcount:0+2 line:430 name:var%channels(:)
host:0x4a7b3180 device:0x4005471ffc00 size:16 presentcount:0+2 line:430 name:var%rsmooth(:)
host:0x4a7b4660 device:0x4005fcc00000 size:7284272 presentcount:0+4 line:519 name:var%fftsca(:,:)
host:0x4af17520 device:0x40065b940a00 size:442880 presentcount:0+1 line:499 name:var%tbl(:)
host:0x4afef980 device:0x400ec4400000 size:453600 presentcount:0+1 line:499 name:var%tbli(:)
host:0x4b05e590 device:0x400ec446ec00 size:453600 presentcount:0+1 line:499 name:var%tbl(:)
host:0x4b1cf470 device:0x400ec3400000 size:3612160 presentcount:0+1 line:499 name:var%tbl(:)
host:0x4b8b6460 device:0x400ec3800000 size:3614400 presentcount:0+1 line:499 name:var%tbli(:)
host:0x4bc2a830 device:0x400ec3c00000 size:3614400 presentcount:0+1 line:499 name:var%tbl(:)
host:0x4c313600 device:0x400ec4000000 size:3614400 presentcount:0+1 line:499 name:var%tbli(:)
host:0x4c8c2420 device:0x40049431a000 size:41472 presentcount:0+2 line:746 name:var%fertot(:,:,:)
host:0x4c8e2420 device:0x40033e3f1000 size:41472 presentcount:0+1 line:746 name:var%auxtot(:,:,:)
host:0x4c8f0030 device:0x400494324200 size:82944 presentcount:0+2 line:746 name:var%celtot(:,:,:)
host:0x4d7d2300 device:0x40065ba00000 size:2799360 presentcount:0+2 line:194 name:cdij(:,:,:,:)
host:0x4da81a20 device:0x400ec4600000 size:2799360 presentcount:0+2 line:194 name:cqij(:,:,:,:)
host:0x4dfe16d0 device:0x40065be00000 size:7962624 presentcount:0+5 line:746 name:var%gproj(:,:,:,:)
host:0x4e99dde0 device:0x4004943d5800 size:98304 presentcount:0+1 line:1101 name:w1%gproj(:)
host:0x4ea1c550 device:0x4005e43fb800 size:2048 presentcount:0+1 line:179 name:wtmp(:)
host:0x4eba43d0 device:0x400ec459d800 size:393216 presentcount:0+2 line:1226 name:wa%gproj(:,:)
host:0x4ec04400 device:0x400fc6c00000 size:393216 presentcount:0+2 line:1226 name:wa%gproj(:,:)
host:0x4ec64430 device:0x4004943bd800 size:98304 presentcount:0+1 line:1101 name:w1%gproj(:)
host:0x4ec7c460 device:0x40065b9c6a00 size:98304 presentcount:0+1 line:1101 name:w1%gproj(:)
host:0x4ec94490 device:0x40065b9dea00 size:98304 presentcount:0+1 line:1101 name:w1%gproj(:)
host:0x57622cd0 device:0x400fd4e00000 size:3145728 presentcount:0+2 line:1226 name:wa%gproj(:,:)
host:0x5c72f720 device:0x400ec45fd800 size:2048 presentcount:0+1 line:179 name:w1(:)
host:0x5c74ebe0 device:0x400fd5200000 size:14569472 presentcount:0+1 line:202 name:precon(:,:)
host:0x5d53b3b0 device:0x4005e4400000 size:7284736 presentcount:0+1 line:1101 name:w1%cptwfp(:)
host:0x5dc359b0 device:0x4005e3400000 size:7284736 presentcount:0+1 line:1101 name:w1%cptwfp(:)
host:0x5e3305e0 device:0x400e8ce00000 size:7284736 presentcount:0+1 line:1101 name:w1%cptwfp(:)
host:0x5ea23230 device:0x400e8f800000 size:7284736 presentcount:0+1 line:1101 name:w1%cptwfp(:)
host:0x40038d4610a0 device:0x4005e5400000 size:45593280 presentcount:0+2 line:430 name:var%nli(:,:)
host:0x40039dba35c0 device:0x400ec4a00000 size:14400000 presentcount:0+1 line:195 name:dencor(:)
host:0x4003e80031a0 device:0x400640000000 size:230400000 presentcount:0+2 line:194 name:sv(:,:)
host:0x4003f5bc39e0 device:0x400ec5800000 size:28915200 presentcount:0+1 line:195 name:cstrf(:,:)
host:0x4003fbd46f80 device:0x400fc3400000 size:29138944 presentcount:0+2 line:1226 name:wa%cptwfp(:,:)
host:0x4004a00012b0 device:0x400600000000 size:807411968 presentcount:0+2 line:430 name:var%rproj(:)
host:0x4004d0217190 device:0x400fc5000000 size:29138944 presentcount:0+2 line:1226 name:wa%cptwfp(:,:)
host:0x400580004a60 device:0x4005c0000000 size:590063616 presentcount:0+5 line:746 name:var%cptwfp(:,:,:,:)
host:0x4005a32c79d0 device:0x400e92200000 size:230400000 presentcount:0+1 line:1101 name:w1%cr(:)
host:0x4006600073a0 device:0x400fc6e00000 size:233111552 presentcount:0+2 line:1226 name:wa%cptwfp(:,:)
host:0x40066de67be0 device:0x400630400000 size:230400000 presentcount:0+1 line:1236 name:w1%cr(:)
host:0x40067ba38000 device:0x40064dc00000 size:230400000 presentcount:0+1 line:1101 name:w1%cr(:)
host:0x400689608210 device:0x4005e8000000 size:230400000 presentcount:0+1 line:1236 name:w1%cr(:)
host:0x4006c32c0020 device:0x400f83400000 size:230400000 presentcount:0+1 line:1101 name:w1%cr(:)
host:0x4006d0e80230 device:0x400f91000000 size:230400000 presentcount:0+1 line:1236 name:w1%cr(:)
host:0x400c20000650 device:0x400f43400000 size:230400000 presentcount:0+1 line:1101 name:w1%cr(:)
host:0x400c2dbc0860 device:0x400f51000000 size:230400000 presentcount:0+1 line:1236 name:w1%cr(:)
host:0xffffcf7f8810 device:0x4005e43fc400 size:3024 presentcount:0+12 line:682 name:var
host:0xffffcf7f93e0 device:0x4005071ff800 size:1480 presentcount:0+1 line:174 name:w_ini
host:0xffffcf7f99b0 device:0x4005e43fae00 size:1480 presentcount:0+1 line:174 name:wopt
host:0xffffcf7f9f80 device:0x4005471ff400 size:1480 presentcount:0+1 line:174 name:wtmpa
allocated block device:0x40033e3f0600 size:2560 thread:1
allocated block device:0x40033e3f1000 size:41472 thread:1
allocated block device:0x40033e3fb200 size:5120 thread:1
allocated block device:0x40033e3fc600 size:512 thread:1
allocated block device:0x40033e3fc800 size:512 thread:1
allocated block device:0x40033e3fca00 size:512 thread:1
allocated block device:0x40033e3fcc00 size:4608 thread:1
allocated block device:0x40033e3fde00 size:512 thread:1
allocated block device:0x40033e3fe000 size:4608 thread:1
allocated block device:0x40033e3ff200 size:512 thread:1
allocated block device:0x40033e3ff400 size:512 thread:1
allocated block device:0x40033e3ff600 size:512 thread:1
allocated block device:0x40033e3ff800 size:512 thread:1
allocated block device:0x40033e3ffa00 size:512 thread:1
allocated block device:0x40033e3ffc00 size:512 thread:1
allocated block device:0x40033e3ffe00 size:512 thread:1
allocated block device:0x40049431a000 size:41472 thread:1
allocated block device:0x400494324200 size:82944 thread:1
allocated block device:0x400494338600 size:180224 thread:1
allocated block device:0x400494364600 size:180224 thread:1
allocated block device:0x400494390600 size:4608 thread:1
allocated block device:0x400494391800 size:180224 thread:1
allocated block device:0x4004943bd800 size:98304 thread:1
allocated block device:0x4004943d5800 size:98304 thread:1
allocated block device:0x4004943ed800 size:14848 thread:1
allocated block device:0x4004943f1200 size:14848 thread:1
allocated block device:0x4004943f4c00 size:10240 thread:1
allocated block device:0x4004943f7400 size:10240 thread:1
allocated block device:0x4004943f9c00 size:512 thread:1
allocated block device:0x4004943f9e00 size:512 thread:1
allocated block device:0x4004943fa000 size:5120 thread:1
allocated block device:0x4004943fb400 size:1536 thread:1
allocated block device:0x4004943fba00 size:1024 thread:1
allocated block device:0x4004943fbe00 size:1024 thread:1
allocated block device:0x4004943fc200 size:1536 thread:1
allocated block device:0x4004943fc800 size:1024 thread:1
allocated block device:0x4004943fcc00 size:1024 thread:1
allocated block device:0x4004943fd000 size:1024 thread:1
allocated block device:0x4004943fd400 size:6144 thread:1
allocated block device:0x4004943fec00 size:2560 thread:1
allocated block device:0x4004943ff600 size:2560 thread:1
allocated block device:0x4005071ff400 size:1024 thread:1
allocated block device:0x4005071ff800 size:1536 thread:1
allocated block device:0x4005471ff400 size:2048 thread:1
allocated block device:0x4005471ffc00 size:512 thread:1
allocated block device:0x4005471ffe00 size:512 thread:1
allocated block device:0x4005c0000000 size:590063616 thread:1
allocated block device:0x4005e3400000 size:7962624 thread:1
allocated block device:0x4005e3c00000 size:1821184 thread:1
allocated block device:0x4005e3dbca00 size:512 thread:1
allocated block device:0x4005e3dbcc00 size:512 thread:1
allocated block device:0x4005e3dbce00 size:512 thread:1
allocated block device:0x4005e3dbd000 size:512 thread:1
allocated block device:0x4005e3dbd200 size:5120 thread:1
allocated block device:0x4005e3dbe600 size:1536 thread:1
allocated block device:0x4005e3dbec00 size:1024 thread:1
allocated block device:0x4005e3dbf000 size:1024 thread:1
allocated block device:0x4005e3dbf400 size:1536 thread:1
allocated block device:0x4005e3dbfa00 size:1024 thread:1
allocated block device:0x4005e3dbfe00 size:1024 thread:1
allocated block device:0x4005e3dc0200 size:17408 thread:1
allocated block device:0x4005e3dc4600 size:17408 thread:1
allocated block device:0x4005e3dc8a00 size:180224 thread:1
allocated block device:0x4005e3df4a00 size:2048 thread:1
allocated block device:0x4005e3df5200 size:512 thread:1
allocated block device:0x4005e3df5400 size:4608 thread:1
allocated block device:0x4005e3df6600 size:512 thread:1
allocated block device:0x4005e3df6800 size:4608 thread:1
allocated block device:0x4005e3df7a00 size:26112 thread:1
allocated block device:0x4005e3dfe000 size:3072 thread:1
allocated block device:0x4005e3dfec00 size:512 thread:1
allocated block device:0x4005e3dfee00 size:512 thread:1
allocated block device:0x4005e3dff000 size:512 thread:1
allocated block device:0x4005e3dff200 size:512 thread:1
allocated block device:0x4005e3dff400 size:512 thread:1
allocated block device:0x4005e3dff600 size:512 thread:1
allocated block device:0x4005e3dff800 size:512 thread:1
allocated block device:0x4005e3dffa00 size:512 thread:1
allocated block device:0x4005e3dffc00 size:512 thread:1
allocated block device:0x4005e3dffe00 size:512 thread:1
allocated block device:0x4005e3e00000 size:1821184 thread:1
allocated block device:0x4005e3fbca00 size:180224 thread:1
allocated block device:0x4005e3fe8a00 size:4608 thread:1
allocated block device:0x4005e3fe9c00 size:4608 thread:1
allocated block device:0x4005e3feae00 size:4608 thread:1
allocated block device:0x4005e3fec000 size:24064 thread:1
allocated block device:0x4005e3ff1e00 size:24064 thread:1
allocated block device:0x4005e3ff7c00 size:3072 thread:1
allocated block device:0x4005e3ff8800 size:3072 thread:1
allocated block device:0x4005e3ff9400 size:512 thread:1
allocated block device:0x4005e3ff9600 size:5120 thread:1
allocated block device:0x4005e3ffaa00 size:1536 thread:1
allocated block device:0x4005e3ffb000 size:2560 thread:1
allocated block device:0x4005e3ffba00 size:1536 thread:1
allocated block device:0x4005e3ffc000 size:2048 thread:1
allocated block device:0x4005e3ffc800 size:6144 thread:1
allocated block device:0x4005e3ffe000 size:6144 thread:1
allocated block device:0x4005e3fff800 size:512 thread:1
allocated block device:0x4005e3fffa00 size:512 thread:1
allocated block device:0x4005e3fffc00 size:512 thread:1
allocated block device:0x4005e3fffe00 size:512 thread:1
allocated block device:0x4005e4000000 size:1821184 thread:1
allocated block device:0x4005e41bca00 size:180224 thread:1
allocated block device:0x4005e41e8a00 size:6144 thread:1
allocated block device:0x4005e41ea200 size:512 thread:1
allocated block device:0x4005e41ea400 size:512 thread:1
allocated block device:0x4005e41ea600 size:512 thread:1
allocated block device:0x4005e41ea800 size:512 thread:1
allocated block device:0x4005e41eaa00 size:512 thread:1
allocated block device:0x4005e41eac00 size:512 thread:1
allocated block device:0x4005e41eae00 size:512 thread:1
allocated block device:0x4005e41eb000 size:512 thread:1
allocated block device:0x4005e41eb200 size:512 thread:1
allocated block device:0x4005e41eb400 size:512 thread:1
allocated block device:0x4005e41eb600 size:1536 thread:1
allocated block device:0x4005e41ebc00 size:1536 thread:1
allocated block device:0x4005e41ec200 size:512 thread:1
allocated block device:0x4005e41ec400 size:2560 thread:1
allocated block device:0x4005e41ece00 size:6144 thread:1
allocated block device:0x4005e41ee600 size:28672 thread:1
allocated block device:0x4005e41f5600 size:40448 thread:1
allocated block device:0x4005e41ff400 size:512 thread:1
allocated block device:0x4005e4200000 size:1821184 thread:1
allocated block device:0x4005e43bca00 size:180224 thread:1
allocated block device:0x4005e43e8a00 size:8192 thread:1
allocated block device:0x4005e43eaa00 size:8192 thread:1
allocated block device:0x4005e43eca00 size:40448 thread:1
allocated block device:0x4005e43f6800 size:8192 thread:1
allocated block device:0x4005e43fae00 size:2560 thread:1
allocated block device:0x4005e43fb800 size:3072 thread:1
allocated block device:0x4005e43fc400 size:3072 thread:1
allocated block device:0x4005e4400000 size:7284736 thread:1
allocated block device:0x4005e4c00000 size:7284736 thread:1
allocated block device:0x4005e5400000 size:45593600 thread:1
allocated block device:0x4005e8000000 size:230400000 thread:1
allocated block device:0x4005fcc00000 size:7284736 thread:1
allocated block device:0x400600000000 size:807412224 thread:1
allocated block device:0x400630400000 size:230400000 thread:1
allocated block device:0x400640000000 size:230400000 thread:1
allocated block device:0x40064dc00000 size:230400000 thread:1
allocated block device:0x40065b85fa00 size:921600 thread:1
allocated block device:0x40065b940a00 size:442880 thread:1
allocated block device:0x40065b9c6a00 size:98304 thread:1
allocated block device:0x40065b9dea00 size:98304 thread:1
allocated block device:0x40065ba00000 size:2799616 thread:1
allocated block device:0x40065be00000 size:7962624 thread:1
allocated block device:0x400e8ce00000 size:14400000 thread:1
allocated block device:0x400e8f800000 size:14400000 thread:1
allocated block device:0x400e92200000 size:230400000 thread:1
allocated block device:0x400ec3400000 size:3612160 thread:1
allocated block device:0x400ec3800000 size:3614720 thread:1
allocated block device:0x400ec3c00000 size:3614720 thread:1
allocated block device:0x400ec4000000 size:3614720 thread:1
allocated block device:0x400ec4400000 size:453632 thread:1
allocated block device:0x400ec446ec00 size:453632 thread:1
allocated block device:0x400ec459d800 size:393216 thread:1
allocated block device:0x400ec45fd800 size:2048 thread:1
allocated block device:0x400ec4600000 size:2799616 thread:1
allocated block device:0x400ec4a00000 size:14400000 thread:1
allocated block device:0x400ec5800000 size:28915200 thread:1
allocated block device:0x400f43400000 size:230400000 thread:1
allocated block device:0x400f51000000 size:230400000 thread:1
allocated block device:0x400f83400000 size:230400000 thread:1
allocated block device:0x400f91000000 size:230400000 thread:1
allocated block device:0x400fc3400000 size:29138944 thread:1
allocated block device:0x400fc5000000 size:29138944 thread:1
allocated block device:0x400fc6c00000 size:393216 thread:1
allocated block device:0x400fc6e00000 size:233111552 thread:1
allocated block device:0x400fd4e00000 size:3145728 thread:1
allocated block device:0x400fd5200000 size:14569472 thread:1
Accelerator Fatal Error: call to cuMemAlloc returned error 2 (CUDA_ERROR_OUT_OF_MEMORY): Out of memory
 File: /lus/lfs1aip2/projects/u6cb/software/VASP/vasp.6.5.1/build/gam/hamil.f90
 Function: hamiltmu:978
 Line: 1005

Out of memory allocating 921600000 bytes of device memory
Failing in Thread:1
total/free CUDA memory: 102005473280/630980608
Present table dump for device[1]: NVIDIA Tesla GPU 0, compute capability 9.0, threadid=1
Hint: specify 0x800 bit in NV_ACC_DEBUG for verbose info.
host:0x2557280 device:0x4006a3df6c00 size:32 presentcount:0+3 line:643 name:var%comm
host:0x25572a0 device:0x4006a3dbca00 size:32 presentcount:0+4 line:652 name:var%comm_kinter
host:0x25572c0 device:0x4006a3dbcc00 size:32 presentcount:0+6 line:655 name:var%comm_kin
host:0x25572e0 device:0x40041e3ffa00 size:32 presentcount:0+3 line:646 name:var%comm_inter
host:0x2557300 device:0x40041e3ffc00 size:32 presentcount:0+7 line:649 name:var%comm_inb
host:0x256be80 device:0x40041a0ecd00 size:8 presentcount:0+1 line:-1 name:_setexm_struct_def_21
host:0x2576f40 device:0x40041a0ece00 size:28 presentcount:0+1 line:-1 name:_ml_ff_constant_21
host:0x2577c80 device:0x40041a0ecf00 size:30437 presentcount:0+1 line:-1 name:_ml_ff_taglist_21
host:0x25afc80 device:0x40041a0f4600 size:8 presentcount:0+1 line:-1 name:_mopenacc_tutor_21
host:0x25c2740 device:0x40041a0f4a00 size:32 presentcount:0+1 line:-1 name:_mbj_21
host:0x25cd640 device:0x40041a0f4d00 size:8 presentcount:0+1 line:-1 name:_sym_prec_21
host:0x26030c0 device:0x40041a0f4e00 size:344 presentcount:0+1 line:-1 name:_tet_21
host:0x261c840 device:0x40041a0f5000 size:392 presentcount:0+1 line:-1 name:_mymath_21
host:0x2817368 device:0x4006a3dbd800 size:4800 presentcount:0+2 line:614 name:var
host:0x2818628 device:0x4006a3df5000 size:1984 presentcount:0+2 line:403 name:var
host:0x281a910 device:0x4005e71ff600 size:864 presentcount:0+4 line:2639 name:hamiltonian
host:0x286ac80 device:0x4006a3dfe600 size:2712 presentcount:0+2 line:428 name:var
host:0x286b718 device:0x4006271fea00 size:2248 presentcount:0+1 line:742 name:var
host:0x286eb50 device:0x4006a41ffa00 size:288 presentcount:0+1 line:195 name:latt_cur
host:0x2871658 device:0x40041e3fc000 size:5088 presentcount:0+28 line:517 name:var
host:0x2872a38 device:0x40054e3fa600 size:5088 presentcount:0+6 line:517 name:var
host:0x2873e18 device:0x4006a3ff9c00 size:5088 presentcount:0+7 line:517 name:var
host:0x287a2a8 device:0x4006a41eba00 size:304 presentcount:0+1 line:567 name:var
host:0x287a3d8 device:0x4006a41ec800 size:304 presentcount:0+1 line:567 name:var
host:0x2e48ec0 device:0x40041a002600 size:960024 presentcount:0+1 line:-1 name:_setexm_struct_def_16
host:0x2f8f080 device:0x40041a0f4700 size:580 presentcount:0+1 line:-1 name:_wpbe_16
host:0x2f8f900 device:0x40041a0f4b00 size:288 presentcount:0+1 line:-1 name:_mbj_16
host:0x9f446c0 device:0x40041a0f5200 size:624 presentcount:0+1 line:-1 name:_mlr_optic_16
host:0x43e197a0 device:0x4006a3dffa00 size:8 presentcount:0+2 line:616 name:var%wtkpt(:)
host:0x43e197d0 device:0x4006a3dff400 size:8 presentcount:0+3 line:616 name:var%nityp(:)
host:0x43ff4e60 device:0x4006a3dbf600 size:1000 presentcount:0+4 line:519 name:var%lpctz(:)
host:0x43ff7e30 device:0x4006a41eac00 size:260 presentcount:0+1 line:499 name:var%ni(:)
host:0x43ff8120 device:0x4006a41eae00 size:260 presentcount:0+1 line:499 name:var%ptri(:)
host:0x440dcd60 device:0x4006a3dbd600 size:16 presentcount:0+2 line:430 name:var%psrmax(:)
host:0x440dcda0 device:0x4006a3dff200 size:8 presentcount:0+3 line:616 name:var%lmmax(:)
host:0x440dcdd0 device:0x4006a3dff600 size:8 presentcount:0+3 line:616 name:var%nt_global(:)
host:0x44739470 device:0x40054e3fd600 size:528 presentcount:0+1 line:480 name:var
host:0x44739d90 device:0x40054e3ffc00 size:260 presentcount:0+1 line:499 name:var%n(:)
host:0x487f67b0 device:0x4006271ff600 size:400 presentcount:0+2 line:464 name:var
host:0x487f6940 device:0x4006271ffa00 size:400 presentcount:0+2 line:464 name:var
host:0x4ce8e340 device:0x40041e3ffe00 size:8 presentcount:0+4 line:405 name:var%nityp(:)
host:0x4d350350 device:0x40054e3ffe00 size:260 presentcount:0+1 line:499 name:var%ptr(:)
host:0x4d80b230 device:0x4006a41eec00 size:28464 presentcount:0+1 line:853 name:var(:)
host:0x4d8161b0 device:0x4006a41f5c00 size:40000 presentcount:0+1 line:857 name:var%psp(:,:)
host:0x4d81fe20 device:0x4006a43e8a00 size:8000 presentcount:0+1 line:857 name:var%pspcor(:)
host:0x4d821d90 device:0x4006a43eaa00 size:8000 presentcount:0+1 line:857 name:var%psprho(:)
host:0x4d825020 device:0x4006a3fec000 size:24000 presentcount:0+2 line:466 name:var%psprnl(:,:,:)
host:0x4d841f10 device:0x4006a43eca00 size:40000 presentcount:0+1 line:857 name:var%psp(:,:)
host:0x4d84bb80 device:0x4006a43f6800 size:8000 presentcount:0+1 line:857 name:var%psprho(:)
host:0x4d84ee10 device:0x4006a3ff2000 size:24000 presentcount:0+2 line:466 name:var%psprnl(:,:,:)
host:0x4d87e7f0 device:0x4006a3fe9c00 size:4320 presentcount:0+4 line:405 name:var%ityp(:)
host:0x4d87f900 device:0x4006a3df8000 size:25920 presentcount:0+4 line:405 name:var%posion(:,:)
host:0x4d8edb10 device:0x4006271ff800 size:24 presentcount:0+3 line:466 name:var%lps(:)
host:0x4d8edbc0 device:0x4006271ffc00 size:24 presentcount:0+3 line:466 name:var%lps(:)
host:0x4da68750 device:0x4006a3dff800 size:24 presentcount:0+3 line:616 name:var%vkpt(:,:)
host:0x4da8ddf0 device:0x4006a3fe8a00 size:4320 presentcount:0+3 line:616 name:var%ityp(:)
host:0x4da8ef00 device:0x4006a3df6e00 size:4320 presentcount:0+3 line:616 name:var%npro_pos(:)
host:0x4da90010 device:0x4006a3df5a00 size:4324 presentcount:0+3 line:616 name:var%lmbase(:)
host:0x4da91120 device:0x4006a3dffe00 size:4 presentcount:0+2 line:616 name:var%nplwkp(:)
host:0x4da91150 device:0x4006a3ff1e00 size:4 presentcount:0+2 line:616 name:var%nplwkp_tot(:)
host:0x4da91180 device:0x4006a3ff7e00 size:4 presentcount:0+2 line:616 name:var%ngvector_pos(:)
host:0x4da911b0 device:0x4006a3dffc00 size:4 presentcount:0+2 line:616 name:var%ngvector(:)
host:0x4da911e0 device:0x4006a3dbec00 size:1280 presentcount:0+4 line:519 name:var%lpctx(:)
host:0x4da91710 device:0x4006a3dbf200 size:720 presentcount:0+4 line:519 name:var%lpcty(:)
host:0x4da91a10 device:0x4006a3dbfa00 size:1280 presentcount:0+4 line:519 name:var%lpctx_(:)
host:0x4da91f40 device:0x4006a3dc0000 size:720 presentcount:0+4 line:519 name:var%lpcty_(:)
host:0x4da92240 device:0x4006a3dc0400 size:1000 presentcount:0+4 line:519 name:var%lpctz_(:)
host:0x4da92650 device:0x40054e3fba00 size:1280 presentcount:0+1 line:519 name:var%lpctx(:)
host:0x4da92b80 device:0x40054e3fc000 size:720 presentcount:0+1 line:519 name:var%lpcty(:)
host:0x4da92e80 device:0x40054e3fc400 size:1000 presentcount:0+1 line:519 name:var%lpctz(:)
host:0x4da93290 device:0x40054e3fc800 size:1280 presentcount:0+1 line:519 name:var%lpctx_(:)
host:0x4da937c0 device:0x40054e3fce00 size:720 presentcount:0+1 line:519 name:var%lpcty_(:)
host:0x4da93ac0 device:0x40054e3fd200 size:1000 presentcount:0+1 line:519 name:var%lpctz_(:)
host:0x4da93ed0 device:0x4006a3ff8200 size:2560 presentcount:0+1 line:519 name:var%lpctx(:)
host:0x4da94900 device:0x4006a3ffb000 size:1440 presentcount:0+1 line:519 name:var%lpcty(:)
host:0x4da94ed0 device:0x4006a3ff8e00 size:2000 presentcount:0+1 line:519 name:var%lpctz(:)
host:0x4da956d0 device:0x4006a3ffb600 size:2560 presentcount:0+1 line:519 name:var%lpctx_(:)
host:0x4da96100 device:0x4006a3ffc000 size:1440 presentcount:0+1 line:519 name:var%lpcty_(:)
host:0x4da966d0 device:0x4006a3ffc600 size:2000 presentcount:0+1 line:519 name:var%lpctz_(:)
host:0x4db89d30 device:0x4006a3ffce00 size:5648 presentcount:0+1 line:482 name:var%i2(:)
host:0x4db8b370 device:0x4006a3ffe600 size:5648 presentcount:0+1 line:482 name:var%i3(:)
host:0x4db8c9b0 device:0x40054e3f4c00 size:10040 presentcount:0+1 line:482 name:var%i2(:)
host:0x4db8f110 device:0x40054e3f7400 size:10040 presentcount:0+1 line:482 name:var%i3(:)
host:0x4db91870 device:0x40054e3ed800 size:14400 presentcount:0+2 line:482 name:var%i2(:)
host:0x4db950e0 device:0x40054e3f1200 size:14400 presentcount:0+2 line:482 name:var%i3(:)
host:0x4db98d70 device:0x40073b85fa00 size:921600 presentcount:0+2 line:482 name:var%index(:,:)
host:0x4dc79da0 device:0x4006a41eca00 size:2560 presentcount:0+1 line:569 name:var%ind1(:)
host:0x4dc7a7d0 device:0x4006a41ed400 size:5648 presentcount:0+1 line:569 name:var%indcol(:)
host:0x4dc7be10 device:0x40054e3fda00 size:5648 presentcount:0+1 line:482 name:var%i2(:)
host:0x4dc7d450 device:0x4006a41e8a00 size:5648 presentcount:0+1 line:482 name:var%i3(:)
host:0x4dc7ea90 device:0x40054e3ff200 size:2520 presentcount:0+1 line:482 name:var%i2(:)
host:0x4dc7f490 device:0x4006a41ea200 size:2520 presentcount:0+1 line:482 name:var%i3(:)
host:0x4dc7fe90 device:0x40054e390600 size:4324 presentcount:0+2 line:430 name:var%nlibase(:)
host:0x4dc80fa0 device:0x4006a3dc0800 size:17132 presentcount:0+4 line:519 name:var%nindpwconjg(:)
host:0x4dc852c0 device:0x4006a3dc4c00 size:17132 presentcount:0+4 line:519 name:var%ind_in_sphere(:)
host:0x4dc9b600 device:0x40041e3ff800 size:260 presentcount:0+1 line:499 name:var%ptr(:)
host:0x4dc9b730 device:0x4006271ffe00 size:260 presentcount:0+1 line:499 name:var%n(:)
host:0x4dcb9f40 device:0x4006a41ebc00 size:1280 presentcount:0+1 line:569 name:var%ind1(:)
host:0x4dcba470 device:0x4006a41ec200 size:1444 presentcount:0+1 line:569 name:var%indcol(:)
host:0x4dcbaa40 device:0x40054e338600 size:180000 presentcount:0+4 line:482 name:var%i2(:)
host:0x4dce6990 device:0x40054e364600 size:180000 presentcount:0+4 line:482 name:var%i3(:)
host:0x4dd128e0 device:0x4006a3dc9000 size:180000 presentcount:0+8 line:482 name:var%index(:,:)
host:0x4dd3e830 device:0x4006a43bca00 size:180000 presentcount:0+8 line:482 name:var%i2(:)
host:0x4dd6a780 device:0x40054e391800 size:180000 presentcount:0+8 line:482 name:var%i3(:)
host:0x4dd96d00 device:0x4006a3e00000 size:1821184 presentcount:0+3 line:616 name:var%nindpw(:,:)
host:0x4df53730 device:0x4006a3df5800 size:8 presentcount:0+2 line:616 name:var%nb_totk(:,:)
host:0x4df53760 device:0x4006a3ff8000 size:4 presentcount:0+2 line:616 name:var%luseinv(:)
host:0x4df53790 device:0x4006a3dbd200 size:4 presentcount:0+2 line:616 name:var%at_gamma(:)
host:0x4df537c0 device:0x4006a3fbca00 size:180000 presentcount:0+3 line:616 name:var%pl_index(:,:)
host:0x4df7f710 device:0x4006a41bca00 size:180000 presentcount:0+3 line:616 name:var%pl_col(:,:)
host:0x4dfab660 device:0x4006a3ff9a00 size:8 presentcount:0+2 line:405 name:var%lmmax(:)
host:0x4dfab690 device:0x4006a3dbce00 size:8 presentcount:0+2 line:430 name:var%lmax(:)
host:0x4dfab6c0 device:0x4006a3feae00 size:4324 presentcount:0+2 line:405 name:var%lmbase(:)
host:0x4dfac7d0 device:0x4006a3dbd000 size:8 presentcount:0+2 line:430 name:var%lmmax(:)
host:0x4dfac800 device:0x4006a3dbd400 size:8 presentcount:0+2 line:430 name:var%channels(:)
host:0x4dfac830 device:0x4006271ff400 size:16 presentcount:0+2 line:430 name:var%rsmooth(:)
host:0x4dfac870 device:0x40041e3fd400 size:4320 presentcount:0+2 line:430 name:var%nlimax(:)
host:0x4dfad980 device:0x40041e3fe600 size:4324 presentcount:0+2 line:430 name:var%lmbase(:)
host:0x4dfaea90 device:0x40054e3f9c00 size:260 presentcount:0+1 line:499 name:var%ptri(:)
host:0x4dfaebc0 device:0x4006a3fffe00 size:260 presentcount:0+1 line:499 name:var%ni(:)
host:0x4dfaecf0 device:0x40054e3fa000 size:260 presentcount:0+1 line:499 name:var%ptr(:)
host:0x4dfaee20 device:0x40054e3f9e00 size:260 presentcount:0+1 line:499 name:var%n(:)
host:0x4dfaef50 device:0x40054e3fa400 size:260 presentcount:0+1 line:499 name:var%ptri(:)
host:0x4dfaf080 device:0x40054e3fa200 size:260 presentcount:0+1 line:499 name:var%ni(:)
host:0x4dfaf650 device:0x4006a41eb200 size:260 presentcount:0+1 line:499 name:var%ptr(:)
host:0x4dfaf780 device:0x4006a41eb000 size:260 presentcount:0+1 line:499 name:var%n(:)
host:0x4dfaf8b0 device:0x4006a41eb800 size:4 presentcount:0+1 line:499 name:var%tbli(:)
host:0x4dfaf8e0 device:0x4006a41eb600 size:260 presentcount:0+1 line:499 name:var%ptri(:)
host:0x4dfafa10 device:0x4006a41eb400 size:260 presentcount:0+1 line:499 name:var%ni(:)
host:0x4e0f5bd0 device:0x4006a4c00000 size:7284736 presentcount:0+3 line:616 name:var%datake(:,:,:)
host:0x4e7e8e50 device:0x4006a4000000 size:1821184 presentcount:0+3 line:616 name:var%igx(:,:)
host:0x4e9a64e0 device:0x4006a3c00000 size:1821184 presentcount:0+3 line:616 name:var%igy(:,:)
host:0x4eb63d80 device:0x4006a4200000 size:1821184 presentcount:0+3 line:616 name:var%igz(:,:)
host:0x4ed21c50 device:0x4006bcc00000 size:7284272 presentcount:0+4 line:519 name:var%fftsca(:,:)
host:0x4f484b10 device:0x40073b940a00 size:462080 presentcount:0+1 line:499 name:var%tbl(:)
host:0x4f566570 device:0x400f64400000 size:453600 presentcount:0+1 line:499 name:var%tbli(:)
host:0x4f5d5180 device:0x400f6446ec00 size:453600 presentcount:0+1 line:499 name:var%tbl(:)
host:0x4f746060 device:0x400f63400000 size:3614720 presentcount:0+1 line:499 name:var%tbl(:)
host:0x4fe2e450 device:0x400f63800000 size:3614400 presentcount:0+1 line:499 name:var%tbli(:)
host:0x501a2820 device:0x400f63c00000 size:3614400 presentcount:0+1 line:499 name:var%tbl(:)
host:0x5088b5f0 device:0x400f64000000 size:3614400 presentcount:0+1 line:499 name:var%tbli(:)
host:0x519d51a0 device:0x40073ba00000 size:2799360 presentcount:0+2 line:194 name:cdij(:,:,:,:)
host:0x51cb2420 device:0x40041e3f1e00 size:41472 presentcount:0+1 line:746 name:var%auxtot(:,:,:)
host:0x51cf2420 device:0x40054e31a000 size:41472 presentcount:0+2 line:746 name:var%fertot(:,:,:)
host:0x51d00030 device:0x40054e324200 size:82944 presentcount:0+2 line:746 name:var%celtot(:,:,:)
host:0x520bfa40 device:0x400f64600000 size:2799360 presentcount:0+2 line:194 name:cqij(:,:,:,:)
host:0x5261f6f0 device:0x40073be00000 size:7962624 presentcount:0+5 line:746 name:var%gproj(:,:,:,:)
host:0x52fda390 device:0x40054e3d5800 size:98304 presentcount:0+1 line:1101 name:w1%gproj(:)
host:0x53058b00 device:0x400f645fd800 size:2048 presentcount:0+1 line:179 name:w1(:)
host:0x53059320 device:0x4006a43fbe00 size:2048 presentcount:0+1 line:179 name:wtmp(:)
host:0x531e0750 device:0x400f6459d800 size:393216 presentcount:0+2 line:1226 name:wa%gproj(:,:)
host:0x53240780 device:0x401126c00000 size:393216 presentcount:0+2 line:1226 name:wa%gproj(:,:)
host:0x532a07b0 device:0x40054e3bd800 size:98304 presentcount:0+1 line:1101 name:w1%gproj(:)
host:0x532b87e0 device:0x40073b9cb600 size:98304 presentcount:0+1 line:1101 name:w1%gproj(:)
host:0x532d0810 device:0x40073b9e3600 size:98304 presentcount:0+1 line:1101 name:w1%gproj(:)
host:0x5bb9b1c0 device:0x401134e00000 size:3145728 presentcount:0+2 line:1226 name:wa%gproj(:,:)
host:0x60cc6680 device:0x401135200000 size:14569472 presentcount:0+1 line:202 name:precon(:,:)
host:0x61ab2a30 device:0x4006a4400000 size:7284736 presentcount:0+1 line:1101 name:w1%cptwfp(:)
host:0x621acc10 device:0x4006a3400000 size:7284736 presentcount:0+1 line:1101 name:w1%cptwfp(:)
host:0x628a7420 device:0x400eace00000 size:7284736 presentcount:0+1 line:1101 name:w1%cptwfp(:)
host:0x62f99c50 device:0x400eaf800000 size:7284736 presentcount:0+1 line:1101 name:w1%cptwfp(:)
host:0x4005600010a0 device:0x4006a5400000 size:45593280 presentcount:0+2 line:430 name:var%nli(:,:)
host:0x400562b812b0 device:0x4006c0000000 size:807411968 presentcount:0+2 line:430 name:var%rproj(:)
host:0x4005949335c0 device:0x400f64a00000 size:14400000 presentcount:0+1 line:195 name:dencor(:)
host:0x4005964c39e0 device:0x400f65800000 size:28917760 presentcount:0+1 line:195 name:cstrf(:,:)
host:0x4006400031a0 device:0x400720000000 size:230400000 presentcount:0+2 line:194 name:sv(:,:)
host:0x40064dbc4a60 device:0x400680000000 size:590063616 presentcount:0+5 line:746 name:var%cptwfp(:,:,:,:)
host:0x400670e86b60 device:0x401123400000 size:29138944 presentcount:0+2 line:1226 name:wa%cptwfp(:,:)
host:0x400672a66d70 device:0x401125000000 size:29138944 presentcount:0+2 line:1226 name:wa%cptwfp(:,:)
host:0x400700006f80 device:0x401126e00000 size:233111552 presentcount:0+2 line:1226 name:wa%cptwfp(:,:)
host:0x4007632c75b0 device:0x400eb2200000 size:230400000 presentcount:0+1 line:1101 name:w1%cr(:)
host:0x400770e977c0 device:0x4006f0400000 size:230400000 presentcount:0+1 line:1236 name:w1%cr(:)
host:0x4007c0007be0 device:0x40072dc00000 size:230400000 presentcount:0+1 line:1101 name:w1%cr(:)
host:0x4007cdbd7df0 device:0x4006a8000000 size:230400000 presentcount:0+1 line:1236 name:w1%cr(:)
host:0x4007db7a8210 device:0x4010e3400000 size:230400000 presentcount:0+1 line:1101 name:w1%cr(:)
host:0x4007e9378420 device:0x4010f1000000 size:230400000 presentcount:0+1 line:1236 name:w1%cr(:)
host:0x400cc0000230 device:0x4010a3400000 size:230400000 presentcount:0+1 line:1101 name:w1%cr(:)
host:0x400ccdbc0440 device:0x4010b1000000 size:230400000 presentcount:0+1 line:1236 name:w1%cr(:)
host:0xffffc3d6e850 device:0x4006a43fca00 size:3024 presentcount:0+12 line:682 name:var
host:0xffffc3d6f420 device:0x4005e71ffa00 size:1480 presentcount:0+1 line:174 name:w_ini
host:0xffffc3d6f9f0 device:0x4006a43fb400 size:1480 presentcount:0+1 line:174 name:wopt
host:0xffffc3d6ffc0 device:0x4005c71ff600 size:1480 presentcount:0+1 line:174 name:wtmpa
allocated block device:0x40041e3f1e00 size:41472 thread:1
allocated block device:0x40041e3fc000 size:5120 thread:1
allocated block device:0x40041e3fd400 size:4608 thread:1
allocated block device:0x40041e3fe600 size:4608 thread:1
allocated block device:0x40041e3ff800 size:512 thread:1
allocated block device:0x40041e3ffa00 size:512 thread:1
allocated block device:0x40041e3ffc00 size:512 thread:1
allocated block device:0x40041e3ffe00 size:512 thread:1
allocated block device:0x40054e31a000 size:41472 thread:1
allocated block device:0x40054e324200 size:82944 thread:1
allocated block device:0x40054e338600 size:180224 thread:1
allocated block device:0x40054e364600 size:180224 thread:1
allocated block device:0x40054e390600 size:4608 thread:1
allocated block device:0x40054e391800 size:180224 thread:1
allocated block device:0x40054e3bd800 size:98304 thread:1
allocated block device:0x40054e3d5800 size:98304 thread:1
allocated block device:0x40054e3ed800 size:14848 thread:1
allocated block device:0x40054e3f1200 size:14848 thread:1
allocated block device:0x40054e3f4c00 size:10240 thread:1
allocated block device:0x40054e3f7400 size:10240 thread:1
allocated block device:0x40054e3f9c00 size:512 thread:1
allocated block device:0x40054e3f9e00 size:512 thread:1
allocated block device:0x40054e3fa000 size:512 thread:1
allocated block device:0x40054e3fa200 size:512 thread:1
allocated block device:0x40054e3fa400 size:512 thread:1
allocated block device:0x40054e3fa600 size:5120 thread:1
allocated block device:0x40054e3fba00 size:1536 thread:1
allocated block device:0x40054e3fc000 size:1024 thread:1
allocated block device:0x40054e3fc400 size:1024 thread:1
allocated block device:0x40054e3fc800 size:1536 thread:1
allocated block device:0x40054e3fce00 size:1024 thread:1
allocated block device:0x40054e3fd200 size:1024 thread:1
allocated block device:0x40054e3fd600 size:1024 thread:1
allocated block device:0x40054e3fda00 size:6144 thread:1
allocated block device:0x40054e3ff200 size:2560 thread:1
allocated block device:0x40054e3ffc00 size:512 thread:1
allocated block device:0x40054e3ffe00 size:512 thread:1
allocated block device:0x4005c71ff600 size:2048 thread:1
allocated block device:0x4005e71ff600 size:1024 thread:1
allocated block device:0x4005e71ffa00 size:1536 thread:1
allocated block device:0x4006271fea00 size:2560 thread:1
allocated block device:0x4006271ff400 size:512 thread:1
allocated block device:0x4006271ff600 size:512 thread:1
allocated block device:0x4006271ff800 size:512 thread:1
allocated block device:0x4006271ffa00 size:512 thread:1
allocated block device:0x4006271ffc00 size:512 thread:1
allocated block device:0x4006271ffe00 size:512 thread:1
allocated block device:0x400680000000 size:590063616 thread:1
allocated block device:0x4006a3400000 size:7962624 thread:1
allocated block device:0x4006a3c00000 size:1821184 thread:1
allocated block device:0x4006a3dbca00 size:512 thread:1
allocated block device:0x4006a3dbcc00 size:512 thread:1
allocated block device:0x4006a3dbce00 size:512 thread:1
allocated block device:0x4006a3dbd000 size:512 thread:1
allocated block device:0x4006a3dbd200 size:512 thread:1
allocated block device:0x4006a3dbd400 size:512 thread:1
allocated block device:0x4006a3dbd600 size:512 thread:1
allocated block device:0x4006a3dbd800 size:5120 thread:1
allocated block device:0x4006a3dbec00 size:1536 thread:1
allocated block device:0x4006a3dbf200 size:1024 thread:1
allocated block device:0x4006a3dbf600 size:1024 thread:1
allocated block device:0x4006a3dbfa00 size:1536 thread:1
allocated block device:0x4006a3dc0000 size:1024 thread:1
allocated block device:0x4006a3dc0400 size:1024 thread:1
allocated block device:0x4006a3dc0800 size:17408 thread:1
allocated block device:0x4006a3dc4c00 size:17408 thread:1
allocated block device:0x4006a3dc9000 size:180224 thread:1
allocated block device:0x4006a3df5000 size:2048 thread:1
allocated block device:0x4006a3df5800 size:512 thread:1
allocated block device:0x4006a3df5a00 size:4608 thread:1
allocated block device:0x4006a3df6c00 size:512 thread:1
allocated block device:0x4006a3df6e00 size:4608 thread:1
allocated block device:0x4006a3df8000 size:26112 thread:1
allocated block device:0x4006a3dfe600 size:3072 thread:1
allocated block device:0x4006a3dff200 size:512 thread:1
allocated block device:0x4006a3dff400 size:512 thread:1
allocated block device:0x4006a3dff600 size:512 thread:1
allocated block device:0x4006a3dff800 size:512 thread:1
allocated block device:0x4006a3dffa00 size:512 thread:1
allocated block device:0x4006a3dffc00 size:512 thread:1
allocated block device:0x4006a3dffe00 size:512 thread:1
allocated block device:0x4006a3e00000 size:1821184 thread:1
allocated block device:0x4006a3fbca00 size:180224 thread:1
allocated block device:0x4006a3fe8a00 size:4608 thread:1
allocated block device:0x4006a3fe9c00 size:4608 thread:1
allocated block device:0x4006a3feae00 size:4608 thread:1
allocated block device:0x4006a3fec000 size:24064 thread:1
allocated block device:0x4006a3ff1e00 size:512 thread:1
allocated block device:0x4006a3ff2000 size:24064 thread:1
allocated block device:0x4006a3ff7e00 size:512 thread:1
allocated block device:0x4006a3ff8000 size:512 thread:1
allocated block device:0x4006a3ff8200 size:3072 thread:1
allocated block device:0x4006a3ff8e00 size:3072 thread:1
allocated block device:0x4006a3ff9a00 size:512 thread:1
allocated block device:0x4006a3ff9c00 size:5120 thread:1
allocated block device:0x4006a3ffb000 size:1536 thread:1
allocated block device:0x4006a3ffb600 size:2560 thread:1
allocated block device:0x4006a3ffc000 size:1536 thread:1
allocated block device:0x4006a3ffc600 size:2048 thread:1
allocated block device:0x4006a3ffce00 size:6144 thread:1
allocated block device:0x4006a3ffe600 size:6144 thread:1
allocated block device:0x4006a3fffe00 size:512 thread:1
allocated block device:0x4006a4000000 size:1821184 thread:1
allocated block device:0x4006a41bca00 size:180224 thread:1
allocated block device:0x4006a41e8a00 size:6144 thread:1
allocated block device:0x4006a41ea200 size:2560 thread:1
allocated block device:0x4006a41eac00 size:512 thread:1
allocated block device:0x4006a41eae00 size:512 thread:1
allocated block device:0x4006a41eb000 size:512 thread:1
allocated block device:0x4006a41eb200 size:512 thread:1
allocated block device:0x4006a41eb400 size:512 thread:1
allocated block device:0x4006a41eb600 size:512 thread:1
allocated block device:0x4006a41eb800 size:512 thread:1
allocated block device:0x4006a41eba00 size:512 thread:1
allocated block device:0x4006a41ebc00 size:1536 thread:1
allocated block device:0x4006a41ec200 size:1536 thread:1
allocated block device:0x4006a41ec800 size:512 thread:1
allocated block device:0x4006a41eca00 size:2560 thread:1
allocated block device:0x4006a41ed400 size:6144 thread:1
allocated block device:0x4006a41eec00 size:28672 thread:1
allocated block device:0x4006a41f5c00 size:40448 thread:1
allocated block device:0x4006a41ffa00 size:512 thread:1
allocated block device:0x4006a4200000 size:1821184 thread:1
allocated block device:0x4006a43bca00 size:180224 thread:1
allocated block device:0x4006a43e8a00 size:8192 thread:1
allocated block device:0x4006a43eaa00 size:8192 thread:1
allocated block device:0x4006a43eca00 size:40448 thread:1
allocated block device:0x4006a43f6800 size:8192 thread:1
allocated block device:0x4006a43fb400 size:2560 thread:1
allocated block device:0x4006a43fbe00 size:3072 thread:1
allocated block device:0x4006a43fca00 size:3072 thread:1
allocated block device:0x4006a4400000 size:7284736 thread:1
allocated block device:0x4006a4c00000 size:7284736 thread:1
allocated block device:0x4006a5400000 size:45593600 thread:1
allocated block device:0x4006a8000000 size:230400000 thread:1
allocated block device:0x4006bcc00000 size:7284736 thread:1
allocated block device:0x4006c0000000 size:807412224 thread:1
allocated block device:0x4006f0400000 size:230400000 thread:1
allocated block device:0x400720000000 size:230400000 thread:1
allocated block device:0x40072dc00000 size:230400000 thread:1
allocated block device:0x40073b85fa00 size:921600 thread:1
allocated block device:0x40073b940a00 size:462336 thread:1
allocated block device:0x40073b9cb600 size:98304 thread:1
allocated block device:0x40073b9e3600 size:98304 thread:1
allocated block device:0x40073ba00000 size:2799616 thread:1
allocated block device:0x40073be00000 size:7962624 thread:1
allocated block device:0x400eace00000 size:14400000 thread:1
allocated block device:0x400eaf800000 size:14400000 thread:1
allocated block device:0x400eb2200000 size:230400000 thread:1
allocated block device:0x400f63400000 size:3614720 thread:1
allocated block device:0x400f63800000 size:3614720 thread:1
allocated block device:0x400f63c00000 size:3614720 thread:1
allocated block device:0x400f64000000 size:3614720 thread:1
allocated block device:0x400f64400000 size:453632 thread:1
allocated block device:0x400f6446ec00 size:453632 thread:1
allocated block device:0x400f6459d800 size:393216 thread:1
allocated block device:0x400f645fd800 size:2048 thread:1
allocated block device:0x400f64600000 size:2799616 thread:1
allocated block device:0x400f64a00000 size:14400000 thread:1
allocated block device:0x400f65800000 size:28917760 thread:1
allocated block device:0x4010a3400000 size:230400000 thread:1
allocated block device:0x4010b1000000 size:230400000 thread:1
allocated block device:0x4010e3400000 size:230400000 thread:1
allocated block device:0x4010f1000000 size:230400000 thread:1
allocated block device:0x401123400000 size:29138944 thread:1
allocated block device:0x401125000000 size:29138944 thread:1
allocated block device:0x401126c00000 size:393216 thread:1
allocated block device:0x401126e00000 size:233111552 thread:1
allocated block device:0x401134e00000 size:3145728 thread:1
allocated block device:0x401135200000 size:14569472 thread:1
Accelerator Fatal Error: call to cuMemAlloc returned error 2 (CUDA_ERROR_OUT_OF_MEMORY): Out of memory
 File: /lus/lfs1aip2/projects/u6cb/software/VASP/vasp.6.5.1/build/gam/hamil.f90
 Function: hamiltmu:978
 Line: 1005

Out of memory allocating 921600000 bytes of device memory
Failing in Thread:1
total/free CUDA memory: 102005473280/630128640
Present table dump for device[1]: NVIDIA Tesla GPU 0, compute capability 9.0, threadid=1
Hint: specify 0x800 bit in NV_ACC_DEBUG for verbose info.
host:0x2557280 device:0x400603df6600 size:32 presentcount:0+3 line:643 name:var%comm
host:0x25572a0 device:0x40037e3ffa00 size:32 presentcount:0+4 line:652 name:var%comm_kinter
host:0x25572c0 device:0x40037e3ffc00 size:32 presentcount:0+6 line:655 name:var%comm_kin
host:0x25572e0 device:0x40037e3ff400 size:32 presentcount:0+3 line:646 name:var%comm_inter
host:0x2557300 device:0x40037e3ff600 size:32 presentcount:0+7 line:649 name:var%comm_inb
host:0x256be80 device:0x40037a0ecd00 size:8 presentcount:0+1 line:-1 name:_setexm_struct_def_21
host:0x2576f40 device:0x40037a0ece00 size:28 presentcount:0+1 line:-1 name:_ml_ff_constant_21
host:0x2577c80 device:0x40037a0ecf00 size:30437 presentcount:0+1 line:-1 name:_ml_ff_taglist_21
host:0x25afc80 device:0x40037a0f4600 size:8 presentcount:0+1 line:-1 name:_mopenacc_tutor_21
host:0x25c2740 device:0x40037a0f4a00 size:32 presentcount:0+1 line:-1 name:_mbj_21
host:0x25cd640 device:0x40037a0f4d00 size:8 presentcount:0+1 line:-1 name:_sym_prec_21
host:0x26030c0 device:0x40037a0f4e00 size:344 presentcount:0+1 line:-1 name:_tet_21
host:0x261c840 device:0x40037a0f5000 size:392 presentcount:0+1 line:-1 name:_mymath_21
host:0x2817368 device:0x400603dbd200 size:4800 presentcount:0+2 line:614 name:var
host:0x2818628 device:0x400603df4a00 size:1984 presentcount:0+2 line:403 name:var
host:0x281a910 device:0x40051c5ff400 size:864 presentcount:0+4 line:2639 name:hamiltonian
host:0x286ac80 device:0x400603dfe000 size:2712 presentcount:0+2 line:428 name:var
host:0x286b718 device:0x40037e3f0600 size:2248 presentcount:0+1 line:742 name:var
host:0x286eb50 device:0x4006041ff400 size:288 presentcount:0+1 line:195 name:latt_cur
host:0x2871658 device:0x40037e3fb200 size:5088 presentcount:0+28 line:517 name:var
host:0x2872a38 device:0x4004a63fa000 size:5088 presentcount:0+6 line:517 name:var
host:0x2873e18 device:0x400603ff9600 size:5088 presentcount:0+7 line:517 name:var
host:0x287a2a8 device:0x4006041eb400 size:304 presentcount:0+1 line:567 name:var
host:0x287a3d8 device:0x4006041ec200 size:304 presentcount:0+1 line:567 name:var
host:0x2e48ec0 device:0x40037a002600 size:960024 presentcount:0+1 line:-1 name:_setexm_struct_def_16
host:0x2f8f080 device:0x40037a0f4700 size:580 presentcount:0+1 line:-1 name:_wpbe_16
host:0x2f8f900 device:0x40037a0f4b00 size:288 presentcount:0+1 line:-1 name:_mbj_16
host:0x9f446c0 device:0x40037a0f5200 size:624 presentcount:0+1 line:-1 name:_mlr_optic_16
host:0x257a4e60 device:0x400603dbf000 size:1000 presentcount:0+4 line:519 name:var%lpctz(:)
host:0x257a7e70 device:0x4006041ea600 size:260 presentcount:0+1 line:499 name:var%ni(:)
host:0x257a8160 device:0x4006041ea800 size:260 presentcount:0+1 line:499 name:var%ptri(:)
host:0x2584f260 device:0x400603dff200 size:24 presentcount:0+3 line:616 name:var%vkpt(:,:)
host:0x2584f2a0 device:0x400603dff400 size:8 presentcount:0+2 line:616 name:var%wtkpt(:)
host:0x2584f2d0 device:0x400603dfee00 size:8 presentcount:0+3 line:616 name:var%nityp(:)
host:0x2584f490 device:0x400603dbd000 size:16 presentcount:0+2 line:430 name:var%psrmax(:)
host:0x2584f4d0 device:0x400603dfec00 size:8 presentcount:0+3 line:616 name:var%lmmax(:)
host:0x2584f500 device:0x400603dff000 size:8 presentcount:0+3 line:616 name:var%nt_global(:)
host:0x2584f530 device:0x400603dff800 size:4 presentcount:0+2 line:616 name:var%nplwkp(:)
host:0x2584f560 device:0x400603dffa00 size:4 presentcount:0+2 line:616 name:var%nplwkp_tot(:)
host:0x2584f590 device:0x400603dffc00 size:4 presentcount:0+2 line:616 name:var%ngvector_pos(:)
host:0x2584f5c0 device:0x400603dff600 size:4 presentcount:0+2 line:616 name:var%ngvector(:)
host:0x2584f5f0 device:0x400603df5200 size:8 presentcount:0+2 line:616 name:var%nb_totk(:,:)
host:0x2584f620 device:0x400603dffe00 size:4 presentcount:0+2 line:616 name:var%luseinv(:)
host:0x2584f650 device:0x400603dbcc00 size:4 presentcount:0+2 line:616 name:var%at_gamma(:)
host:0x2584f680 device:0x400603ff9400 size:8 presentcount:0+2 line:405 name:var%lmmax(:)
host:0x2584f6b0 device:0x40037e3ffe00 size:8 presentcount:0+2 line:430 name:var%lmax(:)
host:0x2584f6e0 device:0x400603dbca00 size:8 presentcount:0+2 line:430 name:var%lmmax(:)
host:0x2584f710 device:0x400603dbce00 size:8 presentcount:0+2 line:430 name:var%channels(:)
host:0x2584f740 device:0x4006041eb200 size:4 presentcount:0+1 line:499 name:var%tbli(:)
host:0x25f239b0 device:0x4004a63fd000 size:528 presentcount:0+1 line:480 name:var
host:0x25f24250 device:0x4006041ea200 size:260 presentcount:0+1 line:499 name:var%n(:)
host:0x29f70210 device:0x40055c3ffe00 size:400 presentcount:0+2 line:464 name:var
host:0x29f703a0 device:0x40037e3fc800 size:400 presentcount:0+2 line:464 name:var
host:0x2e63de80 device:0x40037e3ff800 size:8 presentcount:0+4 line:405 name:var%nityp(:)
host:0x2eaffe90 device:0x4006041ea400 size:260 presentcount:0+1 line:499 name:var%ptr(:)
host:0x2efbacb0 device:0x4006041ee600 size:28464 presentcount:0+1 line:853 name:var(:)
host:0x2efcd410 device:0x4006043eca00 size:40000 presentcount:0+1 line:857 name:var%psp(:,:)
host:0x2efd7080 device:0x4006043f6800 size:8000 presentcount:0+1 line:857 name:var%psprho(:)
host:0x2efda310 device:0x400603ff1e00 size:24000 presentcount:0+2 line:466 name:var%psprnl(:,:,:)
host:0x2f009cf0 device:0x400603fe9c00 size:4320 presentcount:0+4 line:405 name:var%ityp(:)
host:0x2f00ae00 device:0x400603df7a00 size:25920 presentcount:0+4 line:405 name:var%posion(:,:)
host:0x2f04dfd0 device:0x4006043e8a00 size:8000 presentcount:0+1 line:857 name:var%pspcor(:)
host:0x2f04ff40 device:0x4006043eaa00 size:8000 presentcount:0+1 line:857 name:var%psprho(:)
host:0x2f053ab0 device:0x4006041f5600 size:40000 presentcount:0+1 line:857 name:var%psp(:,:)
host:0x2f05d720 device:0x400603fec000 size:24000 presentcount:0+2 line:466 name:var%psprnl(:,:,:)
host:0x2f09d7d0 device:0x40037e3fc600 size:24 presentcount:0+3 line:466 name:var%lps(:)
host:0x2f09d880 device:0x40037e3fca00 size:24 presentcount:0+3 line:466 name:var%lps(:)
host:0x2f22fef0 device:0x400603fe8a00 size:4320 presentcount:0+3 line:616 name:var%ityp(:)
host:0x2f231000 device:0x400603df6800 size:4320 presentcount:0+3 line:616 name:var%npro_pos(:)
host:0x2f232110 device:0x400603df5400 size:4324 presentcount:0+3 line:616 name:var%lmbase(:)
host:0x2f233220 device:0x400603dbe600 size:1280 presentcount:0+4 line:519 name:var%lpctx(:)
host:0x2f233750 device:0x400603dbec00 size:720 presentcount:0+4 line:519 name:var%lpcty(:)
host:0x2f233a50 device:0x400603dbf400 size:1280 presentcount:0+4 line:519 name:var%lpctx_(:)
host:0x2f233f80 device:0x400603dbfa00 size:720 presentcount:0+4 line:519 name:var%lpcty_(:)
host:0x2f234280 device:0x400603dbfe00 size:1000 presentcount:0+4 line:519 name:var%lpctz_(:)
host:0x2f234690 device:0x4004a63fb400 size:1280 presentcount:0+1 line:519 name:var%lpctx(:)
host:0x2f234bc0 device:0x4004a63fba00 size:720 presentcount:0+1 line:519 name:var%lpcty(:)
host:0x2f234ec0 device:0x4004a63fbe00 size:1000 presentcount:0+1 line:519 name:var%lpctz(:)
host:0x2f2352d0 device:0x4004a63fc200 size:1280 presentcount:0+1 line:519 name:var%lpctx_(:)
host:0x2f235800 device:0x4004a63fc800 size:720 presentcount:0+1 line:519 name:var%lpcty_(:)
host:0x2f235b00 device:0x4004a63fcc00 size:1000 presentcount:0+1 line:519 name:var%lpctz_(:)
host:0x2f235f10 device:0x400603ff7c00 size:2560 presentcount:0+1 line:519 name:var%lpctx(:)
host:0x2f236940 device:0x400603ffaa00 size:1440 presentcount:0+1 line:519 name:var%lpcty(:)
host:0x2f236f10 device:0x400603ff8800 size:2000 presentcount:0+1 line:519 name:var%lpctz(:)
host:0x2f237710 device:0x400603ffb000 size:2560 presentcount:0+1 line:519 name:var%lpctx_(:)
host:0x2f238140 device:0x400603ffba00 size:1440 presentcount:0+1 line:519 name:var%lpcty_(:)
host:0x2f238710 device:0x400603ffc000 size:2000 presentcount:0+1 line:519 name:var%lpctz_(:)
host:0x2f32bd70 device:0x400603ffc800 size:5648 presentcount:0+1 line:482 name:var%i2(:)
host:0x2f32d3b0 device:0x400603ffe000 size:5648 presentcount:0+1 line:482 name:var%i3(:)
host:0x2f32e9f0 device:0x4004a63f4c00 size:10040 presentcount:0+1 line:482 name:var%i2(:)
host:0x2f331150 device:0x4004a63f7400 size:10040 presentcount:0+1 line:482 name:var%i3(:)
host:0x2f3338b0 device:0x4004a63ed800 size:14400 presentcount:0+2 line:482 name:var%i2(:)
host:0x2f337120 device:0x4004a63f1200 size:14400 presentcount:0+2 line:482 name:var%i3(:)
host:0x2f33adb0 device:0x40069b85fa00 size:921600 presentcount:0+2 line:482 name:var%index(:,:)
host:0x2f41bde0 device:0x4006041ec400 size:2560 presentcount:0+1 line:569 name:var%ind1(:)
host:0x2f41c810 device:0x4006041ece00 size:5648 presentcount:0+1 line:569 name:var%indcol(:)
host:0x2f41de50 device:0x4004a63fd400 size:5648 presentcount:0+1 line:482 name:var%i2(:)
host:0x2f41f490 device:0x4006041e8a00 size:5648 presentcount:0+1 line:482 name:var%i3(:)
host:0x2f420ad0 device:0x4004a63fec00 size:2520 presentcount:0+1 line:482 name:var%i2(:)
host:0x2f4214d0 device:0x4004a63ff600 size:2520 presentcount:0+1 line:482 name:var%i3(:)
host:0x2f45a300 device:0x4006041eac00 size:260 presentcount:0+1 line:499 name:var%ptr(:)
host:0x2f45a430 device:0x4006041eaa00 size:260 presentcount:0+1 line:499 name:var%n(:)
host:0x2f45a560 device:0x4006041eb000 size:260 presentcount:0+1 line:499 name:var%ptri(:)
host:0x2f45a690 device:0x4006041eae00 size:260 presentcount:0+1 line:499 name:var%ni(:)
host:0x2f45b4b0 device:0x40037e3fde00 size:260 presentcount:0+1 line:499 name:var%n(:)
host:0x2f45b6b0 device:0x400603fffa00 size:260 presentcount:0+1 line:499 name:var%ptri(:)
host:0x2f45b7e0 device:0x400603fff800 size:260 presentcount:0+1 line:499 name:var%ni(:)
host:0x2f45b910 device:0x400603fffe00 size:260 presentcount:0+1 line:499 name:var%ptr(:)
host:0x2f45ba40 device:0x400603fffc00 size:260 presentcount:0+1 line:499 name:var%n(:)
host:0x2f45bb70 device:0x4004a63f9e00 size:260 presentcount:0+1 line:499 name:var%ptri(:)
host:0x2f45bca0 device:0x4004a63f9c00 size:260 presentcount:0+1 line:499 name:var%ni(:)
host:0x2f45bf80 device:0x4006041eb600 size:1280 presentcount:0+1 line:569 name:var%ind1(:)
host:0x2f45c4b0 device:0x4006041ebc00 size:1388 presentcount:0+1 line:569 name:var%indcol(:)
host:0x2f45ca50 device:0x4004a6338600 size:180000 presentcount:0+4 line:482 name:var%i2(:)
host:0x2f4889a0 device:0x4004a6364600 size:180000 presentcount:0+4 line:482 name:var%i3(:)
host:0x2f4b48f0 device:0x400603dc8a00 size:180000 presentcount:0+8 line:482 name:var%index(:,:)
host:0x2f4e0840 device:0x4006043bca00 size:180000 presentcount:0+8 line:482 name:var%i2(:)
host:0x2f50c790 device:0x4004a6391800 size:180000 presentcount:0+8 line:482 name:var%i3(:)
host:0x2f538d10 device:0x400603e00000 size:1821184 presentcount:0+3 line:616 name:var%nindpw(:,:)
host:0x2f6f5740 device:0x400603fbca00 size:180000 presentcount:0+3 line:616 name:var%pl_index(:,:)
host:0x2f721690 device:0x4006041bca00 size:180000 presentcount:0+3 line:616 name:var%pl_col(:,:)
host:0x2f74d5e0 device:0x400603feae00 size:4324 presentcount:0+2 line:405 name:var%lmbase(:)
host:0x2f74e6f0 device:0x40055c3ffc00 size:16 presentcount:0+2 line:430 name:var%rsmooth(:)
host:0x2f74e730 device:0x40037e3fcc00 size:4320 presentcount:0+2 line:430 name:var%nlimax(:)
host:0x2f74f840 device:0x40037e3fe000 size:4324 presentcount:0+2 line:430 name:var%lmbase(:)
host:0x2f750950 device:0x4004a6390600 size:4324 presentcount:0+2 line:430 name:var%nlibase(:)
host:0x2f751a60 device:0x400603dc0200 size:17132 presentcount:0+4 line:519 name:var%nindpwconjg(:)
host:0x2f755d80 device:0x400603dc4600 size:17132 presentcount:0+4 line:519 name:var%ind_in_sphere(:)
host:0x2f75f480 device:0x40037e3ff200 size:260 presentcount:0+1 line:499 name:var%ptr(:)
host:0x2f8a5650 device:0x400604c00000 size:7284736 presentcount:0+3 line:616 name:var%datake(:,:,:)
host:0x2ff988d0 device:0x400604000000 size:1821184 presentcount:0+3 line:616 name:var%igx(:,:)
host:0x30155f60 device:0x400603c00000 size:1821184 presentcount:0+3 line:616 name:var%igy(:,:)
host:0x30313800 device:0x400604200000 size:1821184 presentcount:0+3 line:616 name:var%igz(:,:)
host:0x304d16d0 device:0x40061cc00000 size:7284272 presentcount:0+4 line:519 name:var%fftsca(:,:)
host:0x30bfc160 device:0x40069b940a00 size:444160 presentcount:0+1 line:499 name:var%tbl(:)
host:0x30cd4fc0 device:0x400f04400000 size:453600 presentcount:0+1 line:499 name:var%tbli(:)
host:0x30d43bd0 device:0x400f0446ec00 size:453600 presentcount:0+1 line:499 name:var%tbl(:)
host:0x30ec4ac0 device:0x400f03400000 size:3614720 presentcount:0+1 line:499 name:var%tbl(:)
host:0x3123b2e0 device:0x400f04600000 size:2799360 presentcount:0+2 line:194 name:cqij(:,:,:,:)
host:0x315aceb0 device:0x400f03800000 size:3614400 presentcount:0+1 line:499 name:var%tbli(:)
host:0x31921280 device:0x400f03c00000 size:3614400 presentcount:0+1 line:499 name:var%tbl(:)
host:0x31e524f0 device:0x4004a631a000 size:41472 presentcount:0+2 line:746 name:var%fertot(:,:,:)
host:0x31e72420 device:0x40037e3f1000 size:41472 presentcount:0+1 line:746 name:var%auxtot(:,:,:)
host:0x31e80030 device:0x4004a6324200 size:82944 presentcount:0+2 line:746 name:var%celtot(:,:,:)
host:0x3200a050 device:0x400f04000000 size:3614400 presentcount:0+1 line:499 name:var%tbli(:)
host:0x33153c00 device:0x40069ba00000 size:2799360 presentcount:0+2 line:194 name:cdij(:,:,:,:)
host:0x33aeea30 device:0x40069be00000 size:7962624 presentcount:0+5 line:746 name:var%gproj(:,:,:,:)
host:0x34562ec0 device:0x4004a63d5800 size:98304 presentcount:0+1 line:1101 name:w1%gproj(:)
host:0x345e1630 device:0x400f045fd800 size:2048 presentcount:0+1 line:179 name:w1(:)
host:0x345e1e50 device:0x4006043fb800 size:2048 presentcount:0+1 line:179 name:wtmp(:)
host:0x34769280 device:0x400f0459d800 size:393216 presentcount:0+2 line:1226 name:wa%gproj(:,:)
host:0x347c92b0 device:0x401046c00000 size:393216 presentcount:0+2 line:1226 name:wa%gproj(:,:)
host:0x348292e0 device:0x4004a63bd800 size:98304 presentcount:0+1 line:1101 name:w1%gproj(:)
host:0x34841310 device:0x40069b9c7000 size:98304 presentcount:0+1 line:1101 name:w1%gproj(:)
host:0x34859340 device:0x40069b9df000 size:98304 presentcount:0+1 line:1101 name:w1%gproj(:)
host:0x3d344750 device:0x401054e00000 size:3145728 presentcount:0+2 line:1226 name:wa%gproj(:,:)
host:0x42470fe0 device:0x401055a00000 size:14569472 presentcount:0+1 line:202 name:precon(:,:)
host:0x4325d5a0 device:0x400604400000 size:7284736 presentcount:0+1 line:1101 name:w1%cptwfp(:)
host:0x43957990 device:0x400603400000 size:7284736 presentcount:0+1 line:1101 name:w1%cptwfp(:)
host:0x440523b0 device:0x400ecce00000 size:7284736 presentcount:0+1 line:1101 name:w1%cptwfp(:)
host:0x44744df0 device:0x401055200000 size:7284736 presentcount:0+1 line:1101 name:w1%cptwfp(:)
host:0x4003bc0010a0 device:0x400605400000 size:45593280 presentcount:0+2 line:430 name:var%nli(:,:)
host:0x4004170e35c0 device:0x400f04a00000 size:14400000 presentcount:0+1 line:195 name:dencor(:)
host:0x400418c739e0 device:0x400f05800000 size:28917760 presentcount:0+1 line:195 name:cstrf(:,:)
host:0x4004c00012b0 device:0x400620000000 size:807411968 presentcount:0+2 line:430 name:var%rproj(:)
host:0x4004f02131a0 device:0x400680000000 size:230400000 presentcount:0+2 line:194 name:sv(:,:)
host:0x4005a0004a60 device:0x4005e0000000 size:590063616 presentcount:0+5 line:746 name:var%cptwfp(:,:,:,:)
host:0x4005c32c6d70 device:0x401043400000 size:29138944 presentcount:0+2 line:1226 name:wa%cptwfp(:,:)
host:0x4005c4ea6f80 device:0x401045000000 size:29138944 presentcount:0+2 line:1226 name:wa%cptwfp(:,:)
host:0x400660007190 device:0x401046e00000 size:233111552 presentcount:0+2 line:1226 name:wa%cptwfp(:,:)
host:0x40066de677c0 device:0x400ee5e00000 size:230400000 presentcount:0+1 line:1101 name:w1%cr(:)
host:0x4006a00079d0 device:0x400650400000 size:230400000 presentcount:0+1 line:1236 name:w1%cr(:)
host:0x4006adbd7df0 device:0x40068dc00000 size:230400000 presentcount:0+1 line:1101 name:w1%cr(:)
host:0x4006bb7a8000 device:0x400608000000 size:230400000 presentcount:0+1 line:1236 name:w1%cr(:)
host:0x4006c9378420 device:0x401003400000 size:230400000 presentcount:0+1 line:1101 name:w1%cr(:)
host:0x4007032c0020 device:0x401011000000 size:230400000 presentcount:0+1 line:1236 name:w1%cr(:)
host:0x400710e80440 device:0x400fc3400000 size:230400000 presentcount:0+1 line:1101 name:w1%cr(:)
host:0x400c60000650 device:0x400fd1000000 size:230400000 presentcount:0+1 line:1236 name:w1%cr(:)
host:0xfffffde924e0 device:0x4006043fc400 size:3024 presentcount:0+12 line:682 name:var
host:0xfffffde930b0 device:0x40051c5ff800 size:1480 presentcount:0+1 line:174 name:w_ini
host:0xfffffde93680 device:0x4006043fae00 size:1480 presentcount:0+1 line:174 name:wopt
host:0xfffffde93c50 device:0x40055c3ff400 size:1480 presentcount:0+1 line:174 name:wtmpa
allocated block device:0x40037e3f0600 size:2560 thread:1
allocated block device:0x40037e3f1000 size:41472 thread:1
allocated block device:0x40037e3fb200 size:5120 thread:1
allocated block device:0x40037e3fc600 size:512 thread:1
allocated block device:0x40037e3fc800 size:512 thread:1
allocated block device:0x40037e3fca00 size:512 thread:1
allocated block device:0x40037e3fcc00 size:4608 thread:1
allocated block device:0x40037e3fde00 size:512 thread:1
allocated block device:0x40037e3fe000 size:4608 thread:1
allocated block device:0x40037e3ff200 size:512 thread:1
allocated block device:0x40037e3ff400 size:512 thread:1
allocated block device:0x40037e3ff600 size:512 thread:1
allocated block device:0x40037e3ff800 size:512 thread:1
allocated block device:0x40037e3ffa00 size:512 thread:1
allocated block device:0x40037e3ffc00 size:512 thread:1
allocated block device:0x40037e3ffe00 size:512 thread:1
allocated block device:0x4004a631a000 size:41472 thread:1
allocated block device:0x4004a6324200 size:82944 thread:1
allocated block device:0x4004a6338600 size:180224 thread:1
allocated block device:0x4004a6364600 size:180224 thread:1
allocated block device:0x4004a6390600 size:4608 thread:1
allocated block device:0x4004a6391800 size:180224 thread:1
allocated block device:0x4004a63bd800 size:98304 thread:1
allocated block device:0x4004a63d5800 size:98304 thread:1
allocated block device:0x4004a63ed800 size:14848 thread:1
allocated block device:0x4004a63f1200 size:14848 thread:1
allocated block device:0x4004a63f4c00 size:10240 thread:1
allocated block device:0x4004a63f7400 size:10240 thread:1
allocated block device:0x4004a63f9c00 size:512 thread:1
allocated block device:0x4004a63f9e00 size:512 thread:1
allocated block device:0x4004a63fa000 size:5120 thread:1
allocated block device:0x4004a63fb400 size:1536 thread:1
allocated block device:0x4004a63fba00 size:1024 thread:1
allocated block device:0x4004a63fbe00 size:1024 thread:1
allocated block device:0x4004a63fc200 size:1536 thread:1
allocated block device:0x4004a63fc800 size:1024 thread:1
allocated block device:0x4004a63fcc00 size:1024 thread:1
allocated block device:0x4004a63fd000 size:1024 thread:1
allocated block device:0x4004a63fd400 size:6144 thread:1
allocated block device:0x4004a63fec00 size:2560 thread:1
allocated block device:0x4004a63ff600 size:2560 thread:1
allocated block device:0x40051c5ff400 size:1024 thread:1
allocated block device:0x40051c5ff800 size:1536 thread:1
allocated block device:0x40055c3ff400 size:2048 thread:1
allocated block device:0x40055c3ffc00 size:512 thread:1
allocated block device:0x40055c3ffe00 size:512 thread:1
allocated block device:0x4005e0000000 size:590063616 thread:1
allocated block device:0x400603400000 size:7962624 thread:1
allocated block device:0x400603c00000 size:1821184 thread:1
allocated block device:0x400603dbca00 size:512 thread:1
allocated block device:0x400603dbcc00 size:512 thread:1
allocated block device:0x400603dbce00 size:512 thread:1
allocated block device:0x400603dbd000 size:512 thread:1
allocated block device:0x400603dbd200 size:5120 thread:1
allocated block device:0x400603dbe600 size:1536 thread:1
allocated block device:0x400603dbec00 size:1024 thread:1
allocated block device:0x400603dbf000 size:1024 thread:1
allocated block device:0x400603dbf400 size:1536 thread:1
allocated block device:0x400603dbfa00 size:1024 thread:1
allocated block device:0x400603dbfe00 size:1024 thread:1
allocated block device:0x400603dc0200 size:17408 thread:1
allocated block device:0x400603dc4600 size:17408 thread:1
allocated block device:0x400603dc8a00 size:180224 thread:1
allocated block device:0x400603df4a00 size:2048 thread:1
allocated block device:0x400603df5200 size:512 thread:1
allocated block device:0x400603df5400 size:4608 thread:1
allocated block device:0x400603df6600 size:512 thread:1
allocated block device:0x400603df6800 size:4608 thread:1
allocated block device:0x400603df7a00 size:26112 thread:1
allocated block device:0x400603dfe000 size:3072 thread:1
allocated block device:0x400603dfec00 size:512 thread:1
allocated block device:0x400603dfee00 size:512 thread:1
allocated block device:0x400603dff000 size:512 thread:1
allocated block device:0x400603dff200 size:512 thread:1
allocated block device:0x400603dff400 size:512 thread:1
allocated block device:0x400603dff600 size:512 thread:1
allocated block device:0x400603dff800 size:512 thread:1
allocated block device:0x400603dffa00 size:512 thread:1
allocated block device:0x400603dffc00 size:512 thread:1
allocated block device:0x400603dffe00 size:512 thread:1
allocated block device:0x400603e00000 size:1821184 thread:1
allocated block device:0x400603fbca00 size:180224 thread:1
allocated block device:0x400603fe8a00 size:4608 thread:1
allocated block device:0x400603fe9c00 size:4608 thread:1
allocated block device:0x400603feae00 size:4608 thread:1
allocated block device:0x400603fec000 size:24064 thread:1
allocated block device:0x400603ff1e00 size:24064 thread:1
allocated block device:0x400603ff7c00 size:3072 thread:1
allocated block device:0x400603ff8800 size:3072 thread:1
allocated block device:0x400603ff9400 size:512 thread:1
allocated block device:0x400603ff9600 size:5120 thread:1
allocated block device:0x400603ffaa00 size:1536 thread:1
allocated block device:0x400603ffb000 size:2560 thread:1
allocated block device:0x400603ffba00 size:1536 thread:1
allocated block device:0x400603ffc000 size:2048 thread:1
allocated block device:0x400603ffc800 size:6144 thread:1
allocated block device:0x400603ffe000 size:6144 thread:1
allocated block device:0x400603fff800 size:512 thread:1
allocated block device:0x400603fffa00 size:512 thread:1
allocated block device:0x400603fffc00 size:512 thread:1
allocated block device:0x400603fffe00 size:512 thread:1
allocated block device:0x400604000000 size:1821184 thread:1
allocated block device:0x4006041bca00 size:180224 thread:1
allocated block device:0x4006041e8a00 size:6144 thread:1
allocated block device:0x4006041ea200 size:512 thread:1
allocated block device:0x4006041ea400 size:512 thread:1
allocated block device:0x4006041ea600 size:512 thread:1
allocated block device:0x4006041ea800 size:512 thread:1
allocated block device:0x4006041eaa00 size:512 thread:1
allocated block device:0x4006041eac00 size:512 thread:1
allocated block device:0x4006041eae00 size:512 thread:1
allocated block device:0x4006041eb000 size:512 thread:1
allocated block device:0x4006041eb200 size:512 thread:1
allocated block device:0x4006041eb400 size:512 thread:1
allocated block device:0x4006041eb600 size:1536 thread:1
allocated block device:0x4006041ebc00 size:1536 thread:1
allocated block device:0x4006041ec200 size:512 thread:1
allocated block device:0x4006041ec400 size:2560 thread:1
allocated block device:0x4006041ece00 size:6144 thread:1
allocated block device:0x4006041ee600 size:28672 thread:1
allocated block device:0x4006041f5600 size:40448 thread:1
allocated block device:0x4006041ff400 size:512 thread:1
allocated block device:0x400604200000 size:1821184 thread:1
allocated block device:0x4006043bca00 size:180224 thread:1
allocated block device:0x4006043e8a00 size:8192 thread:1
allocated block device:0x4006043eaa00 size:8192 thread:1
allocated block device:0x4006043eca00 size:40448 thread:1
allocated block device:0x4006043f6800 size:8192 thread:1
allocated block device:0x4006043fae00 size:2560 thread:1
allocated block device:0x4006043fb800 size:3072 thread:1
allocated block device:0x4006043fc400 size:3072 thread:1
allocated block device:0x400604400000 size:7284736 thread:1
allocated block device:0x400604c00000 size:7284736 thread:1
allocated block device:0x400605400000 size:45593600 thread:1
allocated block device:0x400608000000 size:230400000 thread:1
allocated block device:0x40061cc00000 size:7284736 thread:1
allocated block device:0x400620000000 size:807412224 thread:1
allocated block device:0x400650400000 size:230400000 thread:1
allocated block device:0x400680000000 size:230400000 thread:1
allocated block device:0x40068dc00000 size:230400000 thread:1
allocated block device:0x40069b85fa00 size:921600 thread:1
allocated block device:0x40069b940a00 size:444416 thread:1
allocated block device:0x40069b9c7000 size:98304 thread:1
allocated block device:0x40069b9df000 size:98304 thread:1
allocated block device:0x40069ba00000 size:2799616 thread:1
allocated block device:0x40069be00000 size:7962624 thread:1
allocated block device:0x400ecce00000 size:14400000 thread:1
allocated block device:0x400ee5e00000 size:230400000 thread:1
allocated block device:0x400f03400000 size:3614720 thread:1
allocated block device:0x400f03800000 size:3614720 thread:1
allocated block device:0x400f03c00000 size:3614720 thread:1
allocated block device:0x400f04000000 size:3614720 thread:1
allocated block device:0x400f04400000 size:453632 thread:1
allocated block device:0x400f0446ec00 size:453632 thread:1
allocated block device:0x400f0459d800 size:393216 thread:1
allocated block device:0x400f045fd800 size:2048 thread:1
allocated block device:0x400f04600000 size:2799616 thread:1
allocated block device:0x400f04a00000 size:14400000 thread:1
allocated block device:0x400f05800000 size:28917760 thread:1
allocated block device:0x400fc3400000 size:230400000 thread:1
allocated block device:0x400fd1000000 size:230400000 thread:1
allocated block device:0x401003400000 size:230400000 thread:1
allocated block device:0x401011000000 size:230400000 thread:1
allocated block device:0x401043400000 size:29138944 thread:1
allocated block device:0x401045000000 size:29138944 thread:1
allocated block device:0x401046c00000 size:393216 thread:1
allocated block device:0x401046e00000 size:233111552 thread:1
allocated block device:0x401054e00000 size:3145728 thread:1
allocated block device:0x401055200000 size:7284736 thread:1
allocated block device:0x401055a00000 size:14569472 thread:1
Accelerator Fatal Error: call to cuMemAlloc returned error 2 (CUDA_ERROR_OUT_OF_MEMORY): Out of memory
 File: /lus/lfs1aip2/projects/u6cb/software/VASP/vasp.6.5.1/build/gam/hamil.f90
 Function: hamiltmu:978
 Line: 1005

Out of memory allocating 921600000 bytes of device memory
Failing in Thread:1
total/free CUDA memory: 102005473280/635174912
Present table dump for device[1]: NVIDIA Tesla GPU 0, compute capability 9.0, threadid=1
Hint: specify 0x800 bit in NV_ACC_DEBUG for verbose info.
host:0x2557280 device:0x400743df6600 size:32 presentcount:0+3 line:643 name:var%comm
host:0x25572a0 device:0x4004be5ffa00 size:32 presentcount:0+4 line:652 name:var%comm_kinter
host:0x25572c0 device:0x4004be5ffc00 size:32 presentcount:0+6 line:655 name:var%comm_kin
host:0x25572e0 device:0x4004be5ff400 size:32 presentcount:0+3 line:646 name:var%comm_inter
host:0x2557300 device:0x4004be5ff600 size:32 presentcount:0+7 line:649 name:var%comm_inb
host:0x256be80 device:0x4004ba0ecd00 size:8 presentcount:0+1 line:-1 name:_setexm_struct_def_21
host:0x2576f40 device:0x4004ba0ece00 size:28 presentcount:0+1 line:-1 name:_ml_ff_constant_21
host:0x2577c80 device:0x4004ba0ecf00 size:30437 presentcount:0+1 line:-1 name:_ml_ff_taglist_21
host:0x25afc80 device:0x4004ba0f4600 size:8 presentcount:0+1 line:-1 name:_mopenacc_tutor_21
host:0x25c2740 device:0x4004ba0f4a00 size:32 presentcount:0+1 line:-1 name:_mbj_21
host:0x25cd640 device:0x4004ba0f4d00 size:8 presentcount:0+1 line:-1 name:_sym_prec_21
host:0x26030c0 device:0x4004ba0f4e00 size:344 presentcount:0+1 line:-1 name:_tet_21
host:0x261c840 device:0x4004ba0f5000 size:392 presentcount:0+1 line:-1 name:_mymath_21
host:0x2817368 device:0x400743dbd200 size:4800 presentcount:0+2 line:614 name:var
host:0x2818628 device:0x400743df4a00 size:1984 presentcount:0+2 line:403 name:var
host:0x281a910 device:0x40065c3ff400 size:864 presentcount:0+4 line:2639 name:hamiltonian
host:0x286ac80 device:0x400743dfe000 size:2712 presentcount:0+2 line:428 name:var
host:0x286b718 device:0x4004be5f0600 size:2248 presentcount:0+1 line:742 name:var
host:0x286eb50 device:0x4007441ff400 size:288 presentcount:0+1 line:195 name:latt_cur
host:0x2871658 device:0x4004be5fb200 size:5088 presentcount:0+28 line:517 name:var
host:0x2872a38 device:0x4005ea1fa000 size:5088 presentcount:0+6 line:517 name:var
host:0x2873e18 device:0x400743ff9600 size:5088 presentcount:0+7 line:517 name:var
host:0x287a2a8 device:0x4007441eb400 size:304 presentcount:0+1 line:567 name:var
host:0x287a3d8 device:0x4007441ec200 size:304 presentcount:0+1 line:567 name:var
host:0x2e48ec0 device:0x4004ba002600 size:960024 presentcount:0+1 line:-1 name:_setexm_struct_def_16
host:0x2f8f080 device:0x4004ba0f4700 size:580 presentcount:0+1 line:-1 name:_wpbe_16
host:0x2f8f900 device:0x4004ba0f4b00 size:288 presentcount:0+1 line:-1 name:_mbj_16
host:0x9f446c0 device:0x4004ba0f5200 size:624 presentcount:0+1 line:-1 name:_mlr_optic_16
host:0x46904e60 device:0x400743dbf000 size:1000 presentcount:0+4 line:519 name:var%lpctz(:)
host:0x46907e30 device:0x4007441ea800 size:260 presentcount:0+1 line:499 name:var%ptri(:)
host:0x46908120 device:0x4007441ea200 size:260 presentcount:0+1 line:499 name:var%n(:)
host:0x469ec940 device:0x400743dff200 size:24 presentcount:0+3 line:616 name:var%vkpt(:,:)
host:0x469eca10 device:0x400743dff400 size:8 presentcount:0+2 line:616 name:var%wtkpt(:)
host:0x469eca40 device:0x400743dfee00 size:8 presentcount:0+3 line:616 name:var%nityp(:)
host:0x469ecb90 device:0x400743dbd000 size:16 presentcount:0+2 line:430 name:var%psrmax(:)
host:0x469ecbd0 device:0x400743dfec00 size:8 presentcount:0+3 line:616 name:var%lmmax(:)
host:0x469ecc00 device:0x400743dff000 size:8 presentcount:0+3 line:616 name:var%nt_global(:)
host:0x469ecc30 device:0x400743dff800 size:4 presentcount:0+2 line:616 name:var%nplwkp(:)
host:0x469ecc60 device:0x400743dffa00 size:4 presentcount:0+2 line:616 name:var%nplwkp_tot(:)
host:0x469ecc90 device:0x400743dffc00 size:4 presentcount:0+2 line:616 name:var%ngvector_pos(:)
host:0x469eccc0 device:0x400743dff600 size:4 presentcount:0+2 line:616 name:var%ngvector(:)
host:0x469eccf0 device:0x400743df5200 size:8 presentcount:0+2 line:616 name:var%nb_totk(:,:)
host:0x469ecd20 device:0x400743dffe00 size:4 presentcount:0+2 line:616 name:var%luseinv(:)
host:0x469ecd50 device:0x400743dbcc00 size:4 presentcount:0+2 line:616 name:var%at_gamma(:)
host:0x469ecd80 device:0x400743ff9400 size:8 presentcount:0+2 line:405 name:var%lmmax(:)
host:0x469ecdb0 device:0x4004be5ffe00 size:8 presentcount:0+2 line:430 name:var%lmax(:)
host:0x47acb330 device:0x4005ea1fd000 size:528 presentcount:0+1 line:480 name:var
host:0x4bd1bfc0 device:0x4004be5ff800 size:8 presentcount:0+4 line:405 name:var%nityp(:)
host:0x4c1ddfd0 device:0x4007441ea400 size:260 presentcount:0+1 line:499 name:var%ptr(:)
host:0x4c698cc0 device:0x4007441ee600 size:28464 presentcount:0+1 line:853 name:var(:)
host:0x4c6b2500 device:0x4007443eca00 size:40000 presentcount:0+1 line:857 name:var%psp(:,:)
host:0x4c6bc170 device:0x4007443f6800 size:8000 presentcount:0+1 line:857 name:var%psprho(:)
host:0x4c6bf550 device:0x400743ff1e00 size:24000 presentcount:0+2 line:466 name:var%psprnl(:,:,:)
host:0x4c6ef080 device:0x400743fe9c00 size:4320 presentcount:0+4 line:405 name:var%ityp(:)
host:0x4c6f0190 device:0x400743df7a00 size:25920 presentcount:0+4 line:405 name:var%posion(:,:)
host:0x4c733a20 device:0x4007441f5600 size:40000 presentcount:0+1 line:857 name:var%psp(:,:)
host:0x4c73d690 device:0x4007443e8a00 size:8000 presentcount:0+1 line:857 name:var%pspcor(:)
host:0x4c73f600 device:0x4007443eaa00 size:8000 presentcount:0+1 line:857 name:var%psprho(:)
host:0x4c742890 device:0x400743fec000 size:24000 presentcount:0+2 line:466 name:var%psprnl(:,:,:)
host:0x4c787db0 device:0x4004be5fc600 size:24 presentcount:0+3 line:466 name:var%lps(:)
host:0x4c787e60 device:0x4004be5fca00 size:24 presentcount:0+3 line:466 name:var%lps(:)
host:0x4c884350 device:0x400743fe8a00 size:4320 presentcount:0+3 line:616 name:var%ityp(:)
host:0x4c885460 device:0x400743df6800 size:4320 presentcount:0+3 line:616 name:var%npro_pos(:)
host:0x4c886570 device:0x400743df5400 size:4324 presentcount:0+3 line:616 name:var%lmbase(:)
host:0x4c887680 device:0x400743dbe600 size:1280 presentcount:0+4 line:519 name:var%lpctx(:)
host:0x4c887bb0 device:0x400743dbec00 size:720 presentcount:0+4 line:519 name:var%lpcty(:)
host:0x4c887eb0 device:0x400743dbf400 size:1280 presentcount:0+4 line:519 name:var%lpctx_(:)
host:0x4c8883e0 device:0x400743dbfa00 size:720 presentcount:0+4 line:519 name:var%lpcty_(:)
host:0x4c8886e0 device:0x400743dbfe00 size:1000 presentcount:0+4 line:519 name:var%lpctz_(:)
host:0x4c888af0 device:0x4005ea1fb400 size:1280 presentcount:0+1 line:519 name:var%lpctx(:)
host:0x4c889020 device:0x4005ea1fba00 size:720 presentcount:0+1 line:519 name:var%lpcty(:)
host:0x4c889320 device:0x4005ea1fbe00 size:1000 presentcount:0+1 line:519 name:var%lpctz(:)
host:0x4c889730 device:0x4005ea1fc200 size:1280 presentcount:0+1 line:519 name:var%lpctx_(:)
host:0x4c889c60 device:0x4005ea1fc800 size:720 presentcount:0+1 line:519 name:var%lpcty_(:)
host:0x4c889f60 device:0x4005ea1fcc00 size:1000 presentcount:0+1 line:519 name:var%lpctz_(:)
host:0x4c88a370 device:0x400743ff7c00 size:2560 presentcount:0+1 line:519 name:var%lpctx(:)
host:0x4c88ada0 device:0x400743ffaa00 size:1440 presentcount:0+1 line:519 name:var%lpcty(:)
host:0x4c88b370 device:0x400743ff8800 size:2000 presentcount:0+1 line:519 name:var%lpctz(:)
host:0x4c88bb70 device:0x400743ffb000 size:2560 presentcount:0+1 line:519 name:var%lpctx_(:)
host:0x4c88c5a0 device:0x400743ffba00 size:1440 presentcount:0+1 line:519 name:var%lpcty_(:)
host:0x4c88cb70 device:0x400743ffc000 size:2000 presentcount:0+1 line:519 name:var%lpctz_(:)
host:0x4c9801d0 device:0x400743ffc800 size:5648 presentcount:0+1 line:482 name:var%i2(:)
host:0x4c981810 device:0x400743ffe000 size:5648 presentcount:0+1 line:482 name:var%i3(:)
host:0x4c982e50 device:0x4005ea1f4c00 size:10040 presentcount:0+1 line:482 name:var%i2(:)
host:0x4c9855b0 device:0x4005ea1f7400 size:10040 presentcount:0+1 line:482 name:var%i3(:)
host:0x4c987d10 device:0x4005ea1ed800 size:14400 presentcount:0+2 line:482 name:var%i2(:)
host:0x4c98b580 device:0x4005ea1f1200 size:14400 presentcount:0+2 line:482 name:var%i3(:)
host:0x4c98f210 device:0x4007db85fa00 size:921600 presentcount:0+2 line:482 name:var%index(:,:)
host:0x4ca70240 device:0x4007441ec400 size:2560 presentcount:0+1 line:569 name:var%ind1(:)
host:0x4ca70c70 device:0x4007441ece00 size:5648 presentcount:0+1 line:569 name:var%indcol(:)
host:0x4ca722b0 device:0x4005ea1fd400 size:5648 presentcount:0+1 line:482 name:var%i2(:)
host:0x4ca738f0 device:0x4007441e8a00 size:5648 presentcount:0+1 line:482 name:var%i3(:)
host:0x4ca74f30 device:0x4005ea1fec00 size:2520 presentcount:0+1 line:482 name:var%i2(:)
host:0x4ca75930 device:0x4005ea1ff600 size:2520 presentcount:0+1 line:482 name:var%i3(:)
host:0x4ca76330 device:0x4004be5fcc00 size:4320 presentcount:0+2 line:430 name:var%nlimax(:)
host:0x4ca77440 device:0x4004be5fe000 size:4324 presentcount:0+2 line:430 name:var%lmbase(:)
host:0x4ca78550 device:0x4005ea190600 size:4324 presentcount:0+2 line:430 name:var%nlibase(:)
host:0x4ca79660 device:0x400743dc0200 size:17132 presentcount:0+4 line:519 name:var%nindpwconjg(:)
host:0x4ca7d980 device:0x400743dc4600 size:17132 presentcount:0+4 line:519 name:var%ind_in_sphere(:)
host:0x4cab03e0 device:0x4007441eb600 size:1280 presentcount:0+1 line:569 name:var%ind1(:)
host:0x4cab0910 device:0x4007441ebc00 size:1384 presentcount:0+1 line:569 name:var%indcol(:)
host:0x4cab0ea0 device:0x4005ea138600 size:180000 presentcount:0+4 line:482 name:var%i2(:)
host:0x4cadcdf0 device:0x4005ea164600 size:180000 presentcount:0+4 line:482 name:var%i3(:)
host:0x4cb08d40 device:0x400743dc8a00 size:180000 presentcount:0+8 line:482 name:var%index(:,:)
host:0x4cb34c90 device:0x4007443bca00 size:180000 presentcount:0+8 line:482 name:var%i2(:)
host:0x4cb60be0 device:0x4005ea191800 size:180000 presentcount:0+8 line:482 name:var%i3(:)
host:0x4cb8d160 device:0x400743e00000 size:1821184 presentcount:0+3 line:616 name:var%nindpw(:,:)
host:0x4cd49b90 device:0x400743fbca00 size:180000 presentcount:0+3 line:616 name:var%pl_index(:,:)
host:0x4cd75ae0 device:0x4007441bca00 size:180000 presentcount:0+3 line:616 name:var%pl_col(:,:)
host:0x4cda1a30 device:0x400743feae00 size:4324 presentcount:0+2 line:405 name:var%lmbase(:)
host:0x4cda2b40 device:0x400743dbca00 size:8 presentcount:0+2 line:430 name:var%lmmax(:)
host:0x4cda2b70 device:0x400743dbce00 size:8 presentcount:0+2 line:430 name:var%channels(:)
host:0x4cda2ba0 device:0x40069c1ffc00 size:16 presentcount:0+2 line:430 name:var%rsmooth(:)
host:0x4cda2be0 device:0x40069c1ffe00 size:400 presentcount:0+2 line:464 name:var
host:0x4cda2d70 device:0x4004be5fc800 size:400 presentcount:0+2 line:464 name:var
host:0x4ce13790 device:0x4007441ea600 size:260 presentcount:0+1 line:499 name:var%ni(:)
host:0x4ce138c0 device:0x4007441eac00 size:260 presentcount:0+1 line:499 name:var%ptr(:)
host:0x4ce139f0 device:0x4007441eaa00 size:260 presentcount:0+1 line:499 name:var%n(:)
host:0x4ce13b20 device:0x4007441eb200 size:4 presentcount:0+1 line:499 name:var%tbli(:)
host:0x4ce13b50 device:0x4007441eb000 size:260 presentcount:0+1 line:499 name:var%ptri(:)
host:0x4ce13c80 device:0x4007441eae00 size:260 presentcount:0+1 line:499 name:var%ni(:)
host:0x4ce247a0 device:0x4004be5ff200 size:260 presentcount:0+1 line:499 name:var%ptr(:)
host:0x4ce37700 device:0x4004be5fde00 size:260 presentcount:0+1 line:499 name:var%n(:)
host:0x4ce37830 device:0x400743fffa00 size:260 presentcount:0+1 line:499 name:var%ptri(:)
host:0x4ce37960 device:0x400743fff800 size:260 presentcount:0+1 line:499 name:var%ni(:)
host:0x4ce37a90 device:0x400743fffe00 size:260 presentcount:0+1 line:499 name:var%ptr(:)
host:0x4ce37bc0 device:0x400743fffc00 size:260 presentcount:0+1 line:499 name:var%n(:)
host:0x4ce37cf0 device:0x4005ea1f9e00 size:260 presentcount:0+1 line:499 name:var%ptri(:)
host:0x4ce37e20 device:0x4005ea1f9c00 size:260 presentcount:0+1 line:499 name:var%ni(:)
host:0x4cf83660 device:0x400744c00000 size:7284736 presentcount:0+3 line:616 name:var%datake(:,:,:)
host:0x4d6768e0 device:0x400744000000 size:1821184 presentcount:0+3 line:616 name:var%igx(:,:)
host:0x4d833f70 device:0x400743c00000 size:1821184 presentcount:0+3 line:616 name:var%igy(:,:)
host:0x4d9f1810 device:0x400744200000 size:1821184 presentcount:0+3 line:616 name:var%igz(:,:)
host:0x4dbaf6e0 device:0x40075cc00000 size:7284272 presentcount:0+4 line:519 name:var%fftsca(:,:)
host:0x4e2a1d40 device:0x4007db940a00 size:442880 presentcount:0+1 line:499 name:var%tbl(:)
host:0x4e37a1a0 device:0x401004400000 size:453600 presentcount:0+1 line:499 name:var%tbli(:)
host:0x4e3e8db0 device:0x40100446ec00 size:453600 presentcount:0+1 line:499 name:var%tbl(:)
host:0x4e559c90 device:0x401003400000 size:3614720 presentcount:0+1 line:499 name:var%tbl(:)
host:0x4ec42080 device:0x401003800000 size:3614400 presentcount:0+1 line:499 name:var%tbli(:)
host:0x4efb6450 device:0x401003c00000 size:3614400 presentcount:0+1 line:499 name:var%tbl(:)
host:0x4f69f220 device:0x401004000000 size:3614400 presentcount:0+1 line:499 name:var%tbli(:)
host:0x4fd8a230 device:0x4007dba00000 size:2799360 presentcount:0+2 line:194 name:cdij(:,:,:,:)
host:0x50062420 device:0x4005ea11a000 size:41472 presentcount:0+2 line:746 name:var%fertot(:,:,:)
host:0x50070030 device:0x4005ea124200 size:82944 presentcount:0+2 line:746 name:var%celtot(:,:,:)
host:0x500e2420 device:0x4004be5f1000 size:41472 presentcount:0+1 line:746 name:var%auxtot(:,:,:)
host:0x507e8fe0 device:0x401004600000 size:2799360 presentcount:0+2 line:194 name:cqij(:,:,:,:)
host:0x51183c00 device:0x4007dbe00000 size:7962624 presentcount:0+5 line:746 name:var%gproj(:,:,:,:)
host:0x51b3f400 device:0x4005ea1d5800 size:98304 presentcount:0+1 line:1101 name:w1%gproj(:)
host:0x51bbdb70 device:0x4010045fd800 size:2048 presentcount:0+1 line:179 name:w1(:)
host:0x51bbe390 device:0x4007443fb800 size:2048 presentcount:0+1 line:179 name:wtmp(:)
host:0x51d457c0 device:0x40100459d800 size:393216 presentcount:0+2 line:1226 name:wa%gproj(:,:)
host:0x51da57f0 device:0x4011c6c00000 size:393216 presentcount:0+2 line:1226 name:wa%gproj(:,:)
host:0x51e05820 device:0x4005ea1bd800 size:98304 presentcount:0+1 line:1101 name:w1%gproj(:)
host:0x51e1d850 device:0x4007db9c6a00 size:98304 presentcount:0+1 line:1101 name:w1%gproj(:)
host:0x51e35880 device:0x4007db9dea00 size:98304 presentcount:0+1 line:1101 name:w1%gproj(:)
host:0x5a988910 device:0x4011d4e00000 size:3145728 presentcount:0+2 line:1226 name:wa%gproj(:,:)
host:0x5fab58a0 device:0x4011d5a00000 size:14569472 presentcount:0+1 line:202 name:precon(:,:)
host:0x608a1e60 device:0x400744400000 size:7284736 presentcount:0+1 line:1101 name:w1%cptwfp(:)
host:0x60f9c250 device:0x400743400000 size:7284736 presentcount:0+1 line:1101 name:w1%cptwfp(:)
host:0x61696c70 device:0x400f4ce00000 size:7284736 presentcount:0+1 line:1101 name:w1%cptwfp(:)
host:0x61d896b0 device:0x4011d5200000 size:7284736 presentcount:0+1 line:1101 name:w1%cptwfp(:)
host:0x4004fc6210a0 device:0x400745400000 size:45593280 presentcount:0+2 line:430 name:var%nli(:,:)
host:0x4005500031a0 device:0x4007c0000000 size:230400000 presentcount:0+2 line:194 name:sv(:,:)
host:0x40055e9935c0 device:0x401004a00000 size:14400000 presentcount:0+1 line:195 name:dencor(:)
host:0x4006000012b0 device:0x400760000000 size:807411968 presentcount:0+2 line:430 name:var%rproj(:)
host:0x400630fe39e0 device:0x401005800000 size:28917760 presentcount:0+1 line:195 name:cstrf(:,:)
host:0x4006362c6d70 device:0x4011c3400000 size:29138944 presentcount:0+2 line:1226 name:wa%cptwfp(:,:)
host:0x4006e0004a60 device:0x400720000000 size:590063616 presentcount:0+5 line:746 name:var%cptwfp(:,:,:,:)
host:0x400703a66f80 device:0x4011c5000000 size:29138944 presentcount:0+2 line:1226 name:wa%cptwfp(:,:)
host:0x400705647190 device:0x4011c6e00000 size:233111552 presentcount:0+2 line:1226 name:wa%cptwfp(:,:)
host:0x4007a6e977c0 device:0x400f52200000 size:230400000 presentcount:0+1 line:1101 name:w1%cr(:)
host:0x4008032c79d0 device:0x400790400000 size:230400000 presentcount:0+1 line:1236 name:w1%cr(:)
host:0x400810e97df0 device:0x4007cdc00000 size:230400000 presentcount:0+1 line:1101 name:w1%cr(:)
host:0x400860008000 device:0x400748000000 size:230400000 presentcount:0+1 line:1236 name:w1%cr(:)
host:0x40086dbd8420 device:0x401183400000 size:230400000 presentcount:0+1 line:1101 name:w1%cr(:)
host:0x40087b7a0020 device:0x401191000000 size:230400000 presentcount:0+1 line:1236 name:w1%cr(:)
host:0x400889360440 device:0x401143400000 size:230400000 presentcount:0+1 line:1101 name:w1%cr(:)
host:0x400d60000650 device:0x401151000000 size:230400000 presentcount:0+1 line:1236 name:w1%cr(:)
host:0xffffd521c7c0 device:0x4007443fc400 size:3024 presentcount:0+12 line:682 name:var
host:0xffffd521d390 device:0x40065c3ff800 size:1480 presentcount:0+1 line:174 name:w_ini
host:0xffffd521d960 device:0x4007443fae00 size:1480 presentcount:0+1 line:174 name:wopt
host:0xffffd521df30 device:0x40069c1ff400 size:1480 presentcount:0+1 line:174 name:wtmpa
allocated block device:0x4004be5f0600 size:2560 thread:1
allocated block device:0x4004be5f1000 size:41472 thread:1
allocated block device:0x4004be5fb200 size:5120 thread:1
allocated block device:0x4004be5fc600 size:512 thread:1
allocated block device:0x4004be5fc800 size:512 thread:1
allocated block device:0x4004be5fca00 size:512 thread:1
allocated block device:0x4004be5fcc00 size:4608 thread:1
allocated block device:0x4004be5fde00 size:512 thread:1
allocated block device:0x4004be5fe000 size:4608 thread:1
allocated block device:0x4004be5ff200 size:512 thread:1
allocated block device:0x4004be5ff400 size:512 thread:1
allocated block device:0x4004be5ff600 size:512 thread:1
allocated block device:0x4004be5ff800 size:512 thread:1
allocated block device:0x4004be5ffa00 size:512 thread:1
allocated block device:0x4004be5ffc00 size:512 thread:1
allocated block device:0x4004be5ffe00 size:512 thread:1
allocated block device:0x4005ea11a000 size:41472 thread:1
allocated block device:0x4005ea124200 size:82944 thread:1
allocated block device:0x4005ea138600 size:180224 thread:1
allocated block device:0x4005ea164600 size:180224 thread:1
allocated block device:0x4005ea190600 size:4608 thread:1
allocated block device:0x4005ea191800 size:180224 thread:1
allocated block device:0x4005ea1bd800 size:98304 thread:1
allocated block device:0x4005ea1d5800 size:98304 thread:1
allocated block device:0x4005ea1ed800 size:14848 thread:1
allocated block device:0x4005ea1f1200 size:14848 thread:1
allocated block device:0x4005ea1f4c00 size:10240 thread:1
allocated block device:0x4005ea1f7400 size:10240 thread:1
allocated block device:0x4005ea1f9c00 size:512 thread:1
allocated block device:0x4005ea1f9e00 size:512 thread:1
allocated block device:0x4005ea1fa000 size:5120 thread:1
allocated block device:0x4005ea1fb400 size:1536 thread:1
allocated block device:0x4005ea1fba00 size:1024 thread:1
allocated block device:0x4005ea1fbe00 size:1024 thread:1
allocated block device:0x4005ea1fc200 size:1536 thread:1
allocated block device:0x4005ea1fc800 size:1024 thread:1
allocated block device:0x4005ea1fcc00 size:1024 thread:1
allocated block device:0x4005ea1fd000 size:1024 thread:1
allocated block device:0x4005ea1fd400 size:6144 thread:1
allocated block device:0x4005ea1fec00 size:2560 thread:1
allocated block device:0x4005ea1ff600 size:2560 thread:1
allocated block device:0x40065c3ff400 size:1024 thread:1
allocated block device:0x40065c3ff800 size:1536 thread:1
allocated block device:0x40069c1ff400 size:2048 thread:1
allocated block device:0x40069c1ffc00 size:512 thread:1
allocated block device:0x40069c1ffe00 size:512 thread:1
allocated block device:0x400720000000 size:590063616 thread:1
allocated block device:0x400743400000 size:7962624 thread:1
allocated block device:0x400743c00000 size:1821184 thread:1
allocated block device:0x400743dbca00 size:512 thread:1
allocated block device:0x400743dbcc00 size:512 thread:1
allocated block device:0x400743dbce00 size:512 thread:1
allocated block device:0x400743dbd000 size:512 thread:1
allocated block device:0x400743dbd200 size:5120 thread:1
allocated block device:0x400743dbe600 size:1536 thread:1
allocated block device:0x400743dbec00 size:1024 thread:1
allocated block device:0x400743dbf000 size:1024 thread:1
allocated block device:0x400743dbf400 size:1536 thread:1
allocated block device:0x400743dbfa00 size:1024 thread:1
allocated block device:0x400743dbfe00 size:1024 thread:1
allocated block device:0x400743dc0200 size:17408 thread:1
allocated block device:0x400743dc4600 size:17408 thread:1
allocated block device:0x400743dc8a00 size:180224 thread:1
allocated block device:0x400743df4a00 size:2048 thread:1
allocated block device:0x400743df5200 size:512 thread:1
allocated block device:0x400743df5400 size:4608 thread:1
allocated block device:0x400743df6600 size:512 thread:1
allocated block device:0x400743df6800 size:4608 thread:1
allocated block device:0x400743df7a00 size:26112 thread:1
allocated block device:0x400743dfe000 size:3072 thread:1
allocated block device:0x400743dfec00 size:512 thread:1
allocated block device:0x400743dfee00 size:512 thread:1
allocated block device:0x400743dff000 size:512 thread:1
allocated block device:0x400743dff200 size:512 thread:1
allocated block device:0x400743dff400 size:512 thread:1
allocated block device:0x400743dff600 size:512 thread:1
allocated block device:0x400743dff800 size:512 thread:1
allocated block device:0x400743dffa00 size:512 thread:1
allocated block device:0x400743dffc00 size:512 thread:1
allocated block device:0x400743dffe00 size:512 thread:1
allocated block device:0x400743e00000 size:1821184 thread:1
allocated block device:0x400743fbca00 size:180224 thread:1
allocated block device:0x400743fe8a00 size:4608 thread:1
allocated block device:0x400743fe9c00 size:4608 thread:1
allocated block device:0x400743feae00 size:4608 thread:1
allocated block device:0x400743fec000 size:24064 thread:1
allocated block device:0x400743ff1e00 size:24064 thread:1
allocated block device:0x400743ff7c00 size:3072 thread:1
allocated block device:0x400743ff8800 size:3072 thread:1
allocated block device:0x400743ff9400 size:512 thread:1
allocated block device:0x400743ff9600 size:5120 thread:1
allocated block device:0x400743ffaa00 size:1536 thread:1
allocated block device:0x400743ffb000 size:2560 thread:1
allocated block device:0x400743ffba00 size:1536 thread:1
allocated block device:0x400743ffc000 size:2048 thread:1
allocated block device:0x400743ffc800 size:6144 thread:1
allocated block device:0x400743ffe000 size:6144 thread:1
allocated block device:0x400743fff800 size:512 thread:1
allocated block device:0x400743fffa00 size:512 thread:1
allocated block device:0x400743fffc00 size:512 thread:1
allocated block device:0x400743fffe00 size:512 thread:1
allocated block device:0x400744000000 size:1821184 thread:1
allocated block device:0x4007441bca00 size:180224 thread:1
allocated block device:0x4007441e8a00 size:6144 thread:1
allocated block device:0x4007441ea200 size:512 thread:1
allocated block device:0x4007441ea400 size:512 thread:1
allocated block device:0x4007441ea600 size:512 thread:1
allocated block device:0x4007441ea800 size:512 thread:1
allocated block device:0x4007441eaa00 size:512 thread:1
allocated block device:0x4007441eac00 size:512 thread:1
allocated block device:0x4007441eae00 size:512 thread:1
allocated block device:0x4007441eb000 size:512 thread:1
allocated block device:0x4007441eb200 size:512 thread:1
allocated block device:0x4007441eb400 size:512 thread:1
allocated block device:0x4007441eb600 size:1536 thread:1
allocated block device:0x4007441ebc00 size:1536 thread:1
allocated block device:0x4007441ec200 size:512 thread:1
allocated block device:0x4007441ec400 size:2560 thread:1
allocated block device:0x4007441ece00 size:6144 thread:1
allocated block device:0x4007441ee600 size:28672 thread:1
allocated block device:0x4007441f5600 size:40448 thread:1
allocated block device:0x4007441ff400 size:512 thread:1
allocated block device:0x400744200000 size:1821184 thread:1
allocated block device:0x4007443bca00 size:180224 thread:1
allocated block device:0x4007443e8a00 size:8192 thread:1
allocated block device:0x4007443eaa00 size:8192 thread:1
allocated block device:0x4007443eca00 size:40448 thread:1
allocated block device:0x4007443f6800 size:8192 thread:1
allocated block device:0x4007443fae00 size:2560 thread:1
allocated block device:0x4007443fb800 size:3072 thread:1
allocated block device:0x4007443fc400 size:3072 thread:1
allocated block device:0x400744400000 size:7284736 thread:1
allocated block device:0x400744c00000 size:7284736 thread:1
allocated block device:0x400745400000 size:45593600 thread:1
allocated block device:0x400748000000 size:230400000 thread:1
allocated block device:0x40075cc00000 size:7284736 thread:1
allocated block device:0x400760000000 size:807412224 thread:1
allocated block device:0x400790400000 size:230400000 thread:1
allocated block device:0x4007c0000000 size:230400000 thread:1
allocated block device:0x4007cdc00000 size:230400000 thread:1
allocated block device:0x4007db85fa00 size:921600 thread:1
allocated block device:0x4007db940a00 size:442880 thread:1
allocated block device:0x4007db9c6a00 size:98304 thread:1
allocated block device:0x4007db9dea00 size:98304 thread:1
allocated block device:0x4007dba00000 size:2799616 thread:1
allocated block device:0x4007dbe00000 size:7962624 thread:1
allocated block device:0x400f4ce00000 size:14400000 thread:1
allocated block device:0x400f52200000 size:230400000 thread:1
allocated block device:0x401003400000 size:3614720 thread:1
allocated block device:0x401003800000 size:3614720 thread:1
allocated block device:0x401003c00000 size:3614720 thread:1
allocated block device:0x401004000000 size:3614720 thread:1
allocated block device:0x401004400000 size:453632 thread:1
allocated block device:0x40100446ec00 size:453632 thread:1
allocated block device:0x40100459d800 size:393216 thread:1
allocated block device:0x4010045fd800 size:2048 thread:1
allocated block device:0x401004600000 size:2799616 thread:1
allocated block device:0x401004a00000 size:14400000 thread:1
allocated block device:0x401005800000 size:28917760 thread:1
allocated block device:0x401143400000 size:230400000 thread:1
allocated block device:0x401151000000 size:230400000 thread:1
allocated block device:0x401183400000 size:230400000 thread:1
allocated block device:0x401191000000 size:230400000 thread:1
allocated block device:0x4011c3400000 size:29138944 thread:1
allocated block device:0x4011c5000000 size:29138944 thread:1
allocated block device:0x4011c6c00000 size:393216 thread:1
allocated block device:0x4011c6e00000 size:233111552 thread:1
allocated block device:0x4011d4e00000 size:3145728 thread:1
allocated block device:0x4011d5200000 size:7284736 thread:1
allocated block device:0x4011d5a00000 size:14569472 thread:1
Accelerator Fatal Error: call to cuMemAlloc returned error 2 (CUDA_ERROR_OUT_OF_MEMORY): Out of memory
 File: /lus/lfs1aip2/projects/u6cb/software/VASP/vasp.6.5.1/build/gam/hamil.f90
 Function: hamiltmu:978
 Line: 1005

srun: error: nid010767: task 63: Exited with exit code 1
srun: Terminating StepId=3252482.0
slurmstepd: error: *** STEP 3252482.0 ON nid010721 CANCELLED AT 2026-03-21T08:23:58 ***
srun: error: nid010767: tasks 32-62: Terminated
srun: error: nid010721: tasks 0-31: Terminated
srun: Force Terminated StepId=3252482.0
++++ Power data
#Date        Time         gpu    pwr  gtemp  mtemp 
#YYYYMMDD    HH:MM:SS     Idx      W      C      C 
 20260321    07:39:39       0     90     34     44 
 20260321    07:39:39       1     79     34     44 
 20260321    07:39:39       2    100     34     43 
 20260321    07:39:39       3     95     36     42 
 20260321    07:40:09       0    119     36     43 
 20260321    07:40:09       1     78     34     43 
 20260321    07:40:09       2     99     34     44 
 20260321    07:40:09       3     95     36     43 
 20260321    07:40:39       0    136     36     44 
 20260321    07:40:39       1    124     37     45 
 20260321    07:40:39       2    148     37     45 
 20260321    07:40:39       3    145     38     44 
 20260321    07:41:09       0    136     36     44 
 20260321    07:41:09       1    124     37     45 
 20260321    07:41:09       2    148     37     44 
 20260321    07:41:09       3    145     38     45 
 20260321    07:41:39       0    136     36     44 
 20260321    07:41:39       1    124     37     46 
 20260321    07:41:39       2    148     37     44 
 20260321    07:41:39       3    145     38     44 
 20260321    07:42:09       0    136     37     44 
 20260321    07:42:09       1    124     37     46 
 20260321    07:42:09       2    149     37     44 
 20260321    07:42:09       3    145     38     44 
 20260321    07:42:39       0    136     37     44 
 20260321    07:42:39       1    124     37     46 
 20260321    07:42:39       2    149     37     45 
 20260321    07:42:39       3    145     38     44 
 20260321    07:43:09       0    136     36     44 
 20260321    07:43:09       1    124     37     46 
 20260321    07:43:09       2    149     37     44 
 20260321    07:43:09       3    145     38     44 
 20260321    07:43:39       0    136     36     44 
 20260321    07:43:39       1    124     37     46 
 20260321    07:43:39       2    149     37     44 
 20260321    07:43:39       3    145     38     44 
 20260321    07:44:09       0    136     36     44 
 20260321    07:44:09       1    124     37     45 
 20260321    07:44:09       2    149     37     44 
 20260321    07:44:09       3    145     38     44 
 20260321    07:44:39       0    136     36     44 
 20260321    07:44:39       1    124     37     45 
 20260321    07:44:39       2    149     37     44 
 20260321    07:44:39       3    145     38     44 
#Date        Time         gpu    pwr  gtemp  mtemp 
#YYYYMMDD    HH:MM:SS     Idx      W      C      C 
 20260321    07:45:09       0    136     36     44 
 20260321    07:45:09       1    124     37     46 
 20260321    07:45:09       2    149     37     44 
 20260321    07:45:09       3    145     38     44 
 20260321    07:45:39       0    136     36     44 
 20260321    07:45:39       1    124     37     45 
 20260321    07:45:39       2    149     37     44 
 20260321    07:45:39       3    145     38     44 
 20260321    07:46:09       0    136     36     44 
 20260321    07:46:09       1    124     37     45 
 20260321    07:46:09       2    149     37     44 
 20260321    07:46:09       3    145     38     44 
 20260321    07:46:39       0    136     36     44 
 20260321    07:46:39       1    124     37     45 
 20260321    07:46:39       2    149     37     44 
 20260321    07:46:39       3    144     38     44 
 20260321    07:47:09       0    136     36     44 
 20260321    07:47:09       1    124     37     45 
 20260321    07:47:09       2    149     37     44 
 20260321    07:47:09       3    145     38     44 
 20260321    07:47:39       0    136     36     44 
 20260321    07:47:39       1    124     37     45 
 20260321    07:47:39       2    148     37     44 
 20260321    07:47:39       3    145     38     44 
 20260321    07:48:09       0    136     36     45 
 20260321    07:48:09       1    124     37     45 
 20260321    07:48:09       2    148     37     45 
 20260321    07:48:09       3    145     38     44 
 20260321    07:48:39       0    136     36     44 
 20260321    07:48:39       1    124     37     45 
 20260321    07:48:39       2    148     37     45 
 20260321    07:48:39       3    145     38     44 
 20260321    07:49:09       0    137     36     44 
 20260321    07:49:09       1    125     37     45 
 20260321    07:49:09       2    149     37     44 
 20260321    07:49:09       3    145     38     44 
 20260321    07:49:39       0    136     36     44 
 20260321    07:49:39       1    124     37     45 
 20260321    07:49:39       2    148     37     44 
 20260321    07:49:39       3    145     38     44 
 20260321    07:50:09       0    136     36     44 
 20260321    07:50:09       1    124     37     45 
 20260321    07:50:09       2    149     37     44 
 20260321    07:50:09       3    145     38     44 
#Date        Time         gpu    pwr  gtemp  mtemp 
#YYYYMMDD    HH:MM:SS     Idx      W      C      C 
 20260321    07:50:39       0    136     36     44 
 20260321    07:50:39       1    124     37     46 
 20260321    07:50:39       2    148     37     44 
 20260321    07:50:39       3    145     38     44 
 20260321    07:51:09       0    136     36     44 
 20260321    07:51:09       1    124     37     45 
 20260321    07:51:09       2    149     37     44 
 20260321    07:51:09       3    145     38     44 
 20260321    07:51:39       0    136     36     44 
 20260321    07:51:39       1    124     37     45 
 20260321    07:51:39       2    149     37     44 
 20260321    07:51:39       3    145     38     44 
 20260321    07:52:09       0    136     36     45 
 20260321    07:52:09       1    124     37     45 
 20260321    07:52:09       2    149     37     44 
 20260321    07:52:09       3    145     38     44 
 20260321    07:52:39       0    136     36     45 
 20260321    07:52:39       1    124     37     46 
 20260321    07:52:39       2    149     37     44 
 20260321    07:52:39       3    145     38     44 
 20260321    07:53:09       0    136     36     44 
 20260321    07:53:09       1    124     37     46 
 20260321    07:53:09       2    149     37     45 
 20260321    07:53:09       3    145     38     44 
 20260321    07:53:39       0    136     36     45 
 20260321    07:53:39       1    124     37     46 
 20260321    07:53:39       2    149     37     44 
 20260321    07:53:39       3    145     38     44 
 20260321    07:54:09       0    136     36     44 
 20260321    07:54:09       1    124     37     46 
 20260321    07:54:09       2    149     37     44 
 20260321    07:54:09       3    145     38     44 
 20260321    07:54:39       0    136     36     44 
 20260321    07:54:39       1    124     37     45 
 20260321    07:54:39       2    149     37     44 
 20260321    07:54:39       3    145     38     44 
 20260321    07:55:09       0    136     36     44 
 20260321    07:55:09       1    124     37     45 
 20260321    07:55:09       2    149     37     45 
 20260321    07:55:09       3    145     38     44 
 20260321    07:55:39       0    136     36     44 
 20260321    07:55:39       1    124     37     45 
 20260321    07:55:39       2    148     37     44 
 20260321    07:55:39       3    145     38     44 
#Date        Time         gpu    pwr  gtemp  mtemp 
#YYYYMMDD    HH:MM:SS     Idx      W      C      C 
 20260321    07:56:09       0    136     36     44 
 20260321    07:56:09       1    124     37     46 
 20260321    07:56:09       2    149     37     44 
 20260321    07:56:09       3    145     38     44 
 20260321    07:56:39       0    136     36     44 
 20260321    07:56:39       1    124     37     45 
 20260321    07:56:39       2    148     37     44 
 20260321    07:56:39       3    145     38     44 
 20260321    07:57:09       0    136     36     44 
 20260321    07:57:09       1    124     37     45 
 20260321    07:57:09       2    148     37     44 
 20260321    07:57:09       3    145     38     44 
 20260321    07:57:39       0    136     36     44 
 20260321    07:57:39       1    124     37     45 
 20260321    07:57:39       2    148     37     44 
 20260321    07:57:39       3    145     38     44 
 20260321    07:58:09       0    136     36     44 
 20260321    07:58:09       1    124     37     46 
 20260321    07:58:09       2    148     36     44 
 20260321    07:58:09       3    145     38     44 
 20260321    07:58:39       0    136     36     44 
 20260321    07:58:39       1    124     37     46 
 20260321    07:58:39       2    148     36     44 
 20260321    07:58:39       3    145     38     44 
 20260321    07:59:09       0    136     36     44 
 20260321    07:59:09       1    124     37     45 
 20260321    07:59:09       2    148     36     44 
 20260321    07:59:09       3    145     38     44 
 20260321    07:59:39       0    136     36     44 
 20260321    07:59:39       1    124     37     45 
 20260321    07:59:39       2    148     36     44 
 20260321    07:59:39       3    145     38     44 
 20260321    08:00:09       0    136     36     44 
 20260321    08:00:09       1    124     37     45 
 20260321    08:00:09       2    148     36     44 
 20260321    08:00:09       3    145     38     44 
 20260321    08:00:39       0    136     36     44 
 20260321    08:00:39       1    124     37     45 
 20260321    08:00:39       2    148     36     45 
 20260321    08:00:39       3    145     38     44 
 20260321    08:01:09       0    136     36     44 
 20260321    08:01:09       1    124     37     45 
 20260321    08:01:09       2    148     36     44 
 20260321    08:01:09       3    145     38     44 
#Date        Time         gpu    pwr  gtemp  mtemp 
#YYYYMMDD    HH:MM:SS     Idx      W      C      C 
 20260321    08:01:39       0    136     36     44 
 20260321    08:01:39       1    124     37     45 
 20260321    08:01:39       2    149     36     45 
 20260321    08:01:39       3    144     38     45 
 20260321    08:02:09       0    136     36     44 
 20260321    08:02:09       1    124     37     45 
 20260321    08:02:09       2    148     36     44 
 20260321    08:02:09       3    144     38     45 
 20260321    08:02:39       0    136     36     44 
 20260321    08:02:39       1    124     37     45 
 20260321    08:02:39       2    148     36     45 
 20260321    08:02:39       3    145     38     44 
 20260321    08:03:09       0    136     36     44 
 20260321    08:03:09       1    124     37     45 
 20260321    08:03:09       2    148     36     45 
 20260321    08:03:09       3    145     38     44 
 20260321    08:03:39       0    136     36     44 
 20260321    08:03:39       1    124     37     45 
 20260321    08:03:39       2    148     36     44 
 20260321    08:03:39       3    144     38     45 
 20260321    08:04:09       0    136     36     44 
 20260321    08:04:09       1    124     37     45 
 20260321    08:04:09       2    149     36     45 
 20260321    08:04:09       3    144     38     44 
 20260321    08:04:39       0    136     36     44 
 20260321    08:04:39       1    124     37     45 
 20260321    08:04:39       2    148     36     44 
 20260321    08:04:39       3    145     38     44 
 20260321    08:05:09       0    136     36     44 
 20260321    08:05:09       1    124     37     45 
 20260321    08:05:09       2    148     36     45 
 20260321    08:05:09       3    145     38     44 
 20260321    08:05:39       0    136     36     44 
 20260321    08:05:39       1    124     37     45 
 20260321    08:05:39       2    149     36     45 
 20260321    08:05:39       3    145     38     45 
 20260321    08:06:09       0    136     36     44 
 20260321    08:06:09       1    124     37     45 
 20260321    08:06:09       2    149     36     44 
 20260321    08:06:09       3    144     38     44 
 20260321    08:06:39       0    136     36     44 
 20260321    08:06:39       1    124     37     45 
 20260321    08:06:39       2    149     36     44 
 20260321    08:06:39       3    144     38     44 
#Date        Time         gpu    pwr  gtemp  mtemp 
#YYYYMMDD    HH:MM:SS     Idx      W      C      C 
 20260321    08:07:09       0    145     37     44 
 20260321    08:07:09       1    133     38     45 
 20260321    08:07:09       2    158     37     45 
 20260321    08:07:09       3    154     39     44 
 20260321    08:07:39       0    144     37     44 
 20260321    08:07:39       1    132     38     45 
 20260321    08:07:39       2    158     37     46 
 20260321    08:07:39       3    154     39     44 
 20260321    08:08:09       0    149     38     46 
 20260321    08:08:09       1    137     38     45 
 20260321    08:08:09       2    164     38     45 
 20260321    08:08:09       3    159     39     46 
 20260321    08:08:39       0    147     38     46 
 20260321    08:08:39       1    136     38     45 
 20260321    08:08:39       2    162     38     45 
 20260321    08:08:39       3    157     39     46 
 20260321    08:09:09       0    137     36     45 
 20260321    08:09:09       1    124     37     46 
 20260321    08:09:09       2    149     37     45 
 20260321    08:09:09       3    145     38     44 
 20260321    08:09:39       0    137     36     44 
 20260321    08:09:39       1    124     37     45 
 20260321    08:09:39       2    149     36     44 
 20260321    08:09:39       3    145     38     44 
 20260321    08:10:09       0    137     36     44 
 20260321    08:10:09       1    124     37     45 
 20260321    08:10:09       2    148     36     44 
 20260321    08:10:09       3    145     38     44 
 20260321    08:10:39       0    137     36     44 
 20260321    08:10:39       1    124     37     45 
 20260321    08:10:39       2    148     36     44 
 20260321    08:10:39       3    145     38     45 
 20260321    08:11:09       0    137     36     44 
 20260321    08:11:09       1    124     37     45 
 20260321    08:11:09       2    149     36     44 
 20260321    08:11:09       3    145     38     44 
 20260321    08:11:39       0    137     36     44 
 20260321    08:11:39       1    124     37     45 
 20260321    08:11:39       2    149     36     44 
 20260321    08:11:39       3    145     38     44 
 20260321    08:12:09       0    137     36     44 
 20260321    08:12:09       1    124     37     45 
 20260321    08:12:09       2    149     36     44 
 20260321    08:12:09       3    145     38     44 
#Date        Time         gpu    pwr  gtemp  mtemp 
#YYYYMMDD    HH:MM:SS     Idx      W      C      C 
 20260321    08:12:39       0    149     37     44 
 20260321    08:12:39       1    137     38     46 
 20260321    08:12:39       2    163     38     45 
 20260321    08:12:39       3    159     39     46 
 20260321    08:13:09       0    149     38     45 
 20260321    08:13:09       1    137     38     45 
 20260321    08:13:09       2    163     38     45 
 20260321    08:13:09       3    160     39     46 
 20260321    08:13:39       0    138     36     44 
 20260321    08:13:39       1    125     37     45 
 20260321    08:13:39       2    149     37     45 
 20260321    08:13:39       3    145     38     44 
 20260321    08:14:09       0    136     36     44 
 20260321    08:14:09       1    124     37     45 
 20260321    08:14:09       2    148     36     44 
 20260321    08:14:09       3    145     38     44 
 20260321    08:14:39       0    140     37     44 
 20260321    08:14:39       1    128     37     45 
 20260321    08:14:39       2    152     37     44 
 20260321    08:14:39       3    148     38     44 
 20260321    08:15:09       0    144     37     44 
 20260321    08:15:09       1    134     38     46 
 20260321    08:15:09       2    158     37     44 
 20260321    08:15:09       3    155     39     44 
 20260321    08:15:39       0    146     37     44 
 20260321    08:15:39       1    134     38     46 
 20260321    08:15:39       2    159     37     45 
 20260321    08:15:39       3    155     39     44 
 20260321    08:16:09       0    148     37     44 
 20260321    08:16:09       1    136     38     45 
 20260321    08:16:09       2    163     38     45 
 20260321    08:16:09       3    158     39     46 
 20260321    08:16:39       0    147     37     44 
 20260321    08:16:39       1    135     38     45 
 20260321    08:16:39       2    161     37     45 
 20260321    08:16:39       3    157     38     46 
 20260321    08:17:09       0    149     38     45 
 20260321    08:17:09       1    138     38     45 
 20260321    08:17:09       2    163     38     45 
 20260321    08:17:09       3    159     39     46 
 20260321    08:17:39       0    149     38     46 
 20260321    08:17:39       1    137     38     45 
 20260321    08:17:39       2    163     38     45 
 20260321    08:17:39       3    159     39     46 
#Date        Time         gpu    pwr  gtemp  mtemp 
#YYYYMMDD    HH:MM:SS     Idx      W      C      C 
 20260321    08:18:09       0    149     38     44 
 20260321    08:18:09       1    138     38     45 
 20260321    08:18:09       2    163     38     45 
 20260321    08:18:09       3    160     39     46 
 20260321    08:18:39       0    149     38     46 
 20260321    08:18:39       1    137     38     46 
 20260321    08:18:39       2    163     38     45 
 20260321    08:18:39       3    159     39     46 
 20260321    08:19:09       0    137     36     45 
 20260321    08:19:09       1    125     37     45 
 20260321    08:19:09       2    150     37     44 
 20260321    08:19:09       3    146     38     44 
 20260321    08:19:39       0    137     36     44 
 20260321    08:19:39       1    125     37     45 
 20260321    08:19:39       2    150     37     45 
 20260321    08:19:39       3    145     38     44 
 20260321    08:20:09       0    137     36     44 
 20260321    08:20:09       1    125     37     45 
 20260321    08:20:09       2    150     37     44 
 20260321    08:20:09       3    145     38     44 
 20260321    08:20:39       0    137     36     44 
 20260321    08:20:39       1    125     37     46 
 20260321    08:20:39       2    150     37     44 
 20260321    08:20:39       3    145     38     44 
 20260321    08:21:09       0    137     36     44 
 20260321    08:21:09       1    125     37     45 
 20260321    08:21:09       2    150     37     44 
 20260321    08:21:09       3    145     38     44 
 20260321    08:21:39       0    137     36     44 
 20260321    08:21:39       1    125     37     45 
 20260321    08:21:39       2    150     37     44 
 20260321    08:21:39       3    145     38     44 
 20260321    08:22:09       0    137     36     44 
 20260321    08:22:09       1    125     37     45 
 20260321    08:22:09       2    150     37     44 
 20260321    08:22:09       3    145     38     44 
 20260321    08:22:39       0    144     37     44 
 20260321    08:22:39       1    133     38     45 
 20260321    08:22:39       2    159     38     45 
 20260321    08:22:39       3    154     39     46 
 20260321    08:23:09       0    148     37     44 
 20260321    08:23:09       1    137     38     45 
 20260321    08:23:09       2    163     38     45 
 20260321    08:23:09       3    160     39     46 
#Date        Time         gpu    pwr  gtemp  mtemp 
#YYYYMMDD    HH:MM:SS     Idx      W      C      C 
 20260321    08:23:39       0    148     38     44 
 20260321    08:23:39       1    137     38     45 
 20260321    08:23:39       2    163     38     45 
 20260321    08:23:39       3    159     39     46 
